26
image4
O    -1.2967572626   -0.5054611996    2.1234348037
Si   -0.2460137843    0.5331835547    2.8532626545
Si   -3.0500209068   -0.6468277854    1.9846315995
C     0.7157028643    1.6123316716    1.4916413666
C     1.5563312367    0.8903816246    0.5142139266
H     1.3375552338    2.1463102213    2.2320763757
H     1.8404311752    1.5331944565   -0.3357070737
H     2.4376565612    0.3984531870    0.9459076825
Si    0.6926548259   -0.4433111323   -0.6868161227
O    -0.3853778156    0.4887092618   -1.5169767311
O     1.9629166689   -1.1220016839   -1.5026585187
Si    3.3013889305   -0.7496547310   -2.4901383130
Si   -1.9849172526    0.4490680874   -2.1451787459
H    -0.0147036536    2.2881181133    1.0314678490
H    -3.5990181158    0.5495704022    2.6867330579
H    -0.8621682294    1.5206849313    3.7796010288
H    -3.2457042687   -1.9517933076    2.6884184125
H     0.8595466202   -0.2418230378    3.4841120503
H    -1.8272101878    0.7215052740   -3.6098464562
H    -2.6102678297   -0.8856148654   -1.9167672655
H    -2.7657140023    1.5194288970   -1.4538157531
H     3.2359472651    0.6959497260   -2.8615887663
H     4.5426175449   -1.0266185988   -1.7201820239
H     3.2270162839   -1.6454704348   -3.6729221790
H     0.0920239642   -1.4950885742    0.1767423746
H    -3.2595097028   -0.7009257327    0.5066555870
