26
image3
O    -1.3321731854   -0.4924770721    2.1343176477
Si   -0.2250456561    0.5319481215    2.8198256352
Si   -3.0044353985   -0.6636469472    2.0021591254
C     0.6973110658    1.5939194924    1.5076859317
C     1.5738988494    0.9220083388    0.5223422348
H     1.3380290341    2.1479491281    2.2203163549
H     1.8329848566    1.5253737100   -0.3492126076
H     2.4300805122    0.3812941310    0.9348301610
Si    0.5736788520   -0.5888021886   -0.8451958859
O    -0.3971938961    0.6151477937   -1.4866981920
O     2.0201970309   -1.1151749592   -1.4809926712
Si    3.3092920250   -0.7461323485   -2.4893550896
Si   -1.9654518377    0.4535987303   -2.1499479005
H    -0.0034417665    2.2925337301    1.0365864473
H    -3.6140045455    0.5271775031    2.6781200907
H    -0.8603385222    1.5037407587    3.7703139679
H    -3.2873883708   -1.9418384549    2.6782965330
H     0.8502247013   -0.2455805563    3.4912365414
H    -1.8343969513    0.7198177379   -3.6176146485
H    -2.6050222023   -0.8803938645   -1.9145611865
H    -2.7689623189    1.5186630354   -1.4649431546
H     3.2429526468    0.7008168892   -2.8713017728
H     4.5609921504   -1.0231723474   -1.7294744486
H     3.2334615206   -1.6464096128   -3.6813359114
H     0.1206838672   -1.4742026985    0.2701942075
H    -3.2827607967   -0.7061809542    0.5339870700
