26
image2
O    -1.2796028589   -0.4914030654    2.1319418487
Si   -0.1747688461    0.5579401474    2.8079615935
Si   -2.9467362310   -0.6574930157    2.0159314363
C     0.7220133795    1.6227989475    1.5338270903
C     1.6377160225    0.9930571192    0.5594873609
H     1.3444404595    2.2223116720    2.2296001599
H     1.8293412324    1.5214295382   -0.3671608583
H     2.4376590307    0.3555760604    0.9293535224
Si    0.4218845160   -0.8210691589   -1.0461818763
O    -0.4044503430    0.6343399228   -1.3805724789
O     2.0149308409   -1.1076797650   -1.4770184044
Si    3.2974202622   -0.7477679630   -2.4920481016
Si   -1.9380729239    0.4732631903   -2.1324702248
H     0.0130750250    2.3115964957    1.0583353833
H    -3.6070259759    0.5151010346    2.6767606026
H    -0.8557883145    1.4918448536    3.7675034740
H    -3.3131419528   -1.9390237693    2.6850094945
H     0.8625044112   -0.2483611399    3.5092125832
H    -1.8253121805    0.7200990594   -3.6065484392
H    -2.5842051060   -0.8621817995   -1.9075332408
H    -2.7761647745    1.5246864892   -1.4778707449
H     3.2491100645    0.6951258534   -2.8807676752
H     4.5550555873   -1.0231119249   -1.7379989294
H     3.2383175439   -1.6419016209   -3.6859135778
H     0.1982866106   -1.4037314416    0.3237966293
H    -3.2908493590   -0.7065192337    0.5632438603
