26
image1
O    -1.2659289855   -0.3307009281    2.1283159222
Si   -0.0865196821    0.6308405574    2.8176079106
Si   -2.9148449722   -0.5843424618    2.0482566227
C     0.8474925728    1.7576296372    1.6251290181
C     1.7453437820    1.1446850371    0.6376359065
H     1.4224080273    2.3188851469    2.3909853137
H     1.7730982314    1.5213181986   -0.3798877863
H     2.4899998450    0.4096520686    0.9354325370
Si    0.3773344181   -1.2164734922   -1.1529526168
O    -0.4522512141    0.2367778553   -1.3475036010
O     1.9678230683   -1.1156515902   -1.6423959920
Si    3.2924826904   -0.7569175688   -2.5932041860
Si   -1.9301749714    0.4937373094   -2.1266943936
H     0.1357976577    2.4693086909    1.1808882983
H    -3.6614744022    0.5450149192    2.6880883106
H    -0.7328476464    1.5201649661    3.8355775951
H    -3.2553024256   -1.8673454544    2.7258413658
H     0.8921853460   -0.2719003170    3.4897767716
H    -1.6870394020    0.8615498877   -3.5538455340
H    -2.7655742649   -0.7423348337   -2.0575537282
H    -2.6198057060    1.6187415683   -1.4276656237
H     3.2511924372    0.6829059797   -3.0014734948
H     4.5105679823   -1.0241762642   -1.7758666856
H     3.2662757160   -1.6421993774   -3.7972029466
H     0.3949196931   -1.5288219022    0.3183137878
H    -3.2836196838   -0.6972683815    0.6075228776
