26
image5
O    -1.1526305237   -0.5718213211    2.0554018132
Si   -0.2121449268    0.5097891392    2.8366039610
Si   -3.9313953916   -0.7593496133    1.9534384221
C     0.7081694987    1.5807011531    1.4879198770
C     1.5583692692    0.9065832406    0.4463995252
H     1.3320968459    2.1558189181    2.1990984330
H     1.9719070802    1.6558108710   -0.2493816657
H     2.4595601258    0.4470034622    0.8916488976
Si    0.7310892156   -0.3993191480   -0.6638385591
O    -0.3987444865    0.4820526763   -1.5142739767
O     1.8773660579   -1.1179904319   -1.6514890685
Si    3.2557038530   -0.7450648806   -2.5401227946
Si   -1.9414334011    0.4436994481   -2.1725171861
H    -0.0491821763    2.2600258086    1.0710005049
H    -3.6388795309    0.4903816012    2.7133607712
H    -0.8610053017    1.4850443790    3.7619871883
H    -3.3960801477   -1.9695112532    2.6791524084
H     0.8929953467   -0.2308447635    3.5258572967
H    -1.8158588237    0.7080600934   -3.6537804050
H    -2.6112750085   -0.8643793732   -1.9288622983
H    -2.7620096447    1.5182216622   -1.5480618826
H     3.2405674342    0.6875770107   -2.9835823626
H     4.4796811223   -0.9908787027   -1.7300122683
H     3.2576626237   -1.6495916474   -3.7384481587
H     0.0865041444   -1.4946066752    0.1155075294
H    -3.3999481682   -0.7097000083    0.5604081922
