51
Coordinates from ORCA-job my_molecule E -1977.847449525247
  Pt         -1.89574467199299     -0.28023973885155      1.02539364983117
  O          -0.24291917143950     -0.12975437723159      2.02153700861913
  O          -3.90775336278671     -0.17929127280326      0.36335987838032
  P           1.09842620091592      0.74446441874762      1.64667161567655
  P          -3.59548006636123     -1.00025021113376     -0.93946598567558
  O          -4.55557198393456     -2.30090417410637     -1.12395784303896
  O          -2.08094885396243     -1.42650703122023     -0.66123955457000
  O           1.28116534261567      0.57644486852791      0.02129673432642
  O           2.28122980094021      0.29445746549152      2.47046390231759
  C           0.70509195542417      2.55279448729381      1.83271622060575
  C          -3.82977361048121     -0.11033740420554     -2.52779520141509
  C          -3.41428918697330     -1.04625814970852     -3.68135094812155
  C          -2.92304761481458      1.13751602296724     -2.48095218351501
  C          -5.31513477164298      0.29332103415708     -2.63414527704542
  C          -0.39173281693522      3.00830133521081      0.85700163223479
  C           0.27097318746469      2.77265017835580      3.29578438546464
  C           2.02290362610119      3.30629783549782      1.54915465959982
  H          -4.54741623177702     -2.85941737384605     -0.31854265052298
  H           1.83260132601302     -0.22768334543404     -0.15992103248792
  H          -2.35820241552410     -1.36809118758897     -3.58237036091114
  H          -3.51492970233060     -0.50038411532401     -4.64236894149326
  H          -4.05374984109423     -1.94902072793114     -3.72902823275692
  H          -1.85460168492166      0.86321422237103     -2.37931236114645
  H          -3.19001324838601      1.80414027882501     -1.63744523204943
  H          -3.04855418350670      1.70551735592777     -3.42559808159617
  H          -5.97923462036982     -0.59174007956979     -2.68063891929474
  H          -5.46201714631633      0.88503674471179     -3.56142662933827
  H          -5.62689731334248      0.92190931202368     -1.77595172415935
  H          -1.34480646360479      2.45803267980364      1.01652822122140
  H          -0.08677409683708      2.85420094593148     -0.19663468648766
  H          -0.59737099308556      4.08957092330352      1.00822190666039
  H          -0.68863416317967      2.26548139911041      3.52104592805016
  H           0.13595794538761      3.85857310288130      3.48404098214095
  H           1.03560806936098      2.39014863895655      4.00091143361809
  H           2.36335169469733      3.14155184089792      0.50744299343094
  H           2.82686349871164      2.96974187391313      2.23205091920179
  H           1.86730612902954      4.39627274405046      1.69432065145802
  Si          3.74122123671693     -2.31930123672041      0.45199396912728
  C           5.02078952733492     -1.01680036849792      0.92918727600392
  C           2.90592215843875     -3.05285039683218      1.97502203022971
  C           4.48399632718308     -3.65527875889702     -0.67044573797569
  H           4.52057393449453     -0.24415788102598      1.54887114799280
  H           5.47502649165532     -0.53312317803644      0.04038154699673
  H           5.83783450100629     -1.47073965152525      1.52789128531316
  H           2.10761143509952     -3.77239140465392      1.70159803040553
  H           2.45892784275961     -2.22521002283626      2.56345041570599
  H           3.64330967967968     -3.58183206487981      2.61414157729377
  H           3.71591567598531     -4.39080193255506     -0.98600982508620
  H           5.28519386235696     -4.21012686447195     -0.13862426577170
  H           4.92964554808844     -3.21272174547105     -1.58492128988508
  H           2.65815121813944     -1.63442501359923     -0.38233303756227
