66
Coordinates from ORCA-job my_molecule_im4 E -2537.115134016912
  O           2.57441994740246     -0.11442637324219     -1.38192375841036
  Si          3.43881753542981      0.91707185696494     -0.37776902705597
  Si          2.52519413606957     -1.44970306078735     -2.42048641832134
  C           2.15699995612905      2.16954924034193      0.31140828585569
  C           1.42228733919045      3.08476330615871     -0.50688226481146
  C           1.43779362184062     -0.90774122832486     -3.85478140419152
  C           0.98093435633232      0.35313821626606     -4.00227015198021
  C           4.29862130257639     -0.03097588600474      1.01159397706058
  C           4.81928875687125      1.73707363443934     -1.38812086126424
  C           4.24263863694910     -1.92089617656950     -3.05457456810565
  C           1.78239879854039     -2.87101689693960     -1.43157765570298
  H           2.37641479613416      2.53960455802947      1.33563680439145
  H           1.47333476983770      3.02413489003793     -1.61160563593832
  H           1.14959823433824      4.08606368020488     -0.12264245415983
  H           1.14803742284371     -1.65594223381468     -4.61764386399572
  H           1.23002514175447      1.13976952647179     -3.26841097652775
  H           0.32942947144781      0.66238950245780     -4.83721553337019
  H           3.60288629299693     -0.58107187427283      1.67505241909513
  H           4.91230835223829      0.65028592593468      1.63828639147781
  H           4.99762122594738     -0.76826059743444      0.56149350133485
  H           4.45117696975140      2.28116434015655     -2.28053475090088
  H           5.50005114306717      0.93299682758630     -1.74423157549125
  H           5.43372078982761      2.43585843487077     -0.78288679105430
  H           4.72873616553696     -1.08097349257967     -3.59063589756532
  H           4.14917237818002     -2.76422862487427     -3.77167671847286
  H           4.91167349212528     -2.25540007247476     -2.23494848081537
  H           0.80895515119990     -2.56263797316092     -1.00253533379883
  H           2.45862423846786     -3.15443989407753     -0.59839795306854
  H           1.61004706637546     -3.76961977016422     -2.05775557206268
  Pt          0.06378269753587      1.65411346208592      0.24648557404631
  O          -1.95398708044911      1.09428773476639      0.03524380969973
  O          -2.95701155627967     -0.07604667398650      2.02222937544430
  P          -2.12382793764454      0.12618294793003     -1.28262575693699
  P          -3.01725617314529      0.88922048548371      3.25592742889453
  O          -3.74890791402223     -0.08072058157396      4.40419064620805
  O          -3.74405233927548      2.22195683030068      3.07995912074448
  O          -0.79003662141555     -0.84812005015008     -1.18980931204684
  O          -2.17814014699751      1.11917962056496     -2.44085526307069
  C          -3.41094985059226     -1.23393465860687     -1.54204049889730
  C          -1.33255591521379      1.13165783887061      4.05413352986936
  C          -1.50951651681952      1.36543985014799      5.57192136813309
  C          -0.69347454825563      2.38258029483098      3.43105912715538
  C          -0.47727445086797     -0.11537353163606      3.78951143039986
  C          -3.27035403314020     -2.40620269401038     -0.55771561783068
  C          -4.85889853559507     -0.71276869333418     -1.56092140159586
  C          -3.04560517655507     -1.70046332048700     -2.98107485133930
  H          -4.63634000958427     -0.31780427247850      4.06380490536350
  H           0.01278432062571     -0.27292180964499     -1.07546286209405
  H          -2.15790146314625      2.24090845697262      5.77693938370076
  H          -0.51504744696880      1.56625177317995      6.02539401689229
  H          -1.94857317755375      0.48411347208725      6.07661865039582
  H          -1.29154384315893      3.29356009581265      3.62598534648461
  H          -0.58663659335114      2.29156206816256      2.30977609908524
  H           0.33247235054270      2.52359955497345      3.83224301187166
  H          -0.94315987594299     -1.02400473819152      4.21929354997418
  H           0.52740470077478      0.00825548790441      4.24632056222322
  H          -0.34630948497410     -0.28688274451665      2.70023009975171
  H          -3.52769466527451     -2.10689193867820      0.47630748665171
  H          -2.24526633519040     -2.82238319460691     -0.56227830306709
  H          -3.96287639719261     -3.21593462544529     -0.87633884332198
  H          -5.22565067751457     -0.43329765059556     -0.55462962175050
  H          -5.50548568796833     -1.53527767235899     -1.94019890853309
  H          -4.98505257583883      0.14694770954050     -2.24746195747249
  H          -2.00140142664034     -2.06103562142791     -3.05006683085167
  H          -3.17584131045569     -0.88042140699049     -3.71390069208534
  H          -3.72102179185644     -2.53586159009425     -3.26215753424584
