66
Coordinates from ORCA-job my_molecule_im0 E -2537.143799369065
  O           2.51524167065212      0.04842113333237     -1.38763101026296
  Si          3.38346188311644      1.19378769015677     -0.51684739984932
  Si          2.47496766072117     -1.54281055866585     -1.93997759781084
  C           2.24305530000288      2.68343130305883     -0.27266803464592
  C           1.02582411116721      2.89214983361110     -0.99951035433676
  C           1.52661805368855     -1.53124377252345     -3.56474294187907
  C           1.03126426753088     -0.41938496743117     -4.14597981335273
  C           3.94474268818111      0.48897667888843      1.14326584729765
  C           4.88513357477803      1.74902687325598     -1.52406433192867
  C           4.23396268257377     -2.17725605576025     -2.23214617936871
  C           1.59130041663163     -2.62505161603672     -0.67253397197996
  H           2.74110885611627      3.59398702677611      0.12334579498193
  H           0.66448165049414      2.13878021464839     -1.72203088961204
  H           0.63908371874449      3.91208261249666     -1.17827429760061
  H           1.36653902893195     -2.49950074525990     -4.07965838028842
  H           1.15934309884352      0.57297794324709     -3.67953441721023
  H           0.48099236121047     -0.44438764842561     -5.10324708391859
  H           3.08108367084696      0.07904517102282      1.70530599886595
  H           4.41444954282477      1.27698554366953      1.76817305453353
  H           4.68981157600071     -0.32202152101433      1.00607506774815
  H           4.57323447241989      2.13090149693296     -2.51748328971820
  H           5.59127679229238      0.90841471172612     -1.68577204327255
  H           5.43749684511687      2.55976745394792     -1.00476688010485
  H           4.78014268895122     -1.52723236029910     -2.94570991368862
  H           4.21608823654740     -3.20307607509180     -2.65605655593912
  H           4.81193587313812     -2.21746577549992     -1.28520588151532
  H           0.58735485103286     -2.20468215603435     -0.45979389922832
  H           2.15939189737292     -2.67256646468040      0.27954169285340
  H           1.46706011466485     -3.66226054475460     -1.04746348052353
  Pt          0.58735936385390      2.31524346482811      0.95396520981726
  O          -3.07222035758063      1.01875854099158      0.75721143911015
  O          -3.16816401010625     -0.15823926229977      1.69045270001193
  P          -2.37164274869428      0.59297522049385     -0.73164585665879
  P          -2.96214934010883      0.41282570495341      3.26555805431544
  O          -3.25345005578235     -1.03731542946881      3.97924507570835
  O          -3.83025113276217      1.56156966179276      3.67233447276427
  O          -0.94942248908249     -0.11250967178189     -0.37645328348911
  O          -2.34189863317687      1.90248341598168     -1.46994894052284
  C          -3.37228005775813     -0.76035263971657     -1.50553906732968
  C          -1.13735186861677      0.62724423220493      3.54840665889209
  C          -0.94503639278487      0.78050389209508      5.07357482849278
  C          -0.71560985497626      1.95077867452999      2.85975257004868
  C          -0.36118959189433     -0.58778459499959      3.01560748856026
  C          -3.13895125843554     -2.12763771512211     -0.83702906637600
  C          -4.85083228378454     -0.33384803298714     -1.39810402340949
  C          -2.92740781241690     -0.79801184656675     -2.98515246315043
  H          -4.20380313848812     -1.09068149051471      4.20860095112717
  H          -0.29340035902311      0.59410339754639     -0.02923324345663
  H          -1.55363266554874      1.61472991085848      5.47544266559993
  H           0.12336561506429      0.98643430596696      5.29458046134500
  H          -1.23387190040027     -0.14750671853220      5.60421939617816
  H          -1.13369565420529      2.83734993724856      3.37379261892663
  H          -1.15057783104621      2.01160215877684      1.80012765108063
  H           0.42063623029099      2.04682750422524      2.94591499485436
  H          -0.69220521146916     -1.51572971255762      3.52136836459843
  H           0.72231247672481     -0.45225750632122      3.21750742187807
  H          -0.49683049747907     -0.71847485352499      1.92599358847994
  H          -3.42270279121721     -2.11806314906112      0.23233390864291
  H          -2.08002104323276     -2.44205006407694     -0.91315694131784
  H          -3.76054959322237     -2.88860851435869     -1.35496664102791
  H          -5.19438832651349     -0.31943217914752     -0.34541096892144
  H          -5.48029675568019     -1.05426734558005     -1.96100581383022
  H          -5.01245310243801      0.67480610513326     -1.82833277521113
  H          -1.85908210382200     -1.07869038874370     -3.08505520189866
  H          -3.07030942949589      0.18646249787551     -3.47205864595742
  H          -3.53444297928444     -1.55303293543487     -3.52750639612011
