66
Coordinates from ORCA-job my_molecule_im6 E -2537.129900972678
  O           2.55719388360749     -0.10239096919191     -1.38273036971146
  Si          3.44390510392908      0.90160304077310     -0.38620402286710
  Si          2.51374677532801     -1.44835946837591     -2.41950392329991
  C           2.19938015684674      2.19173784060005      0.31114615045162
  C           1.32087357226979      2.95054612504497     -0.41260250752069
  C           1.44140731539546     -0.91056293473402     -3.86242062763498
  C           0.98248044669626      0.34341030252938     -4.01877937281690
  C           4.29404078063770     -0.03166270441255      1.01449158964668
  C           4.82170670304456      1.73503658351321     -1.38685264543148
  C           4.23943113314475     -1.91959176313172     -3.03588454327621
  C           1.77363764704916     -2.86161508223075     -1.41945388636802
  H           2.35922323168594      2.50328810837157      1.36333748773807
  H           1.18071563663649      2.79607272979709     -1.49789623828685
  H           0.88529589300816      3.88009070405997     -0.00383096871241
  H           1.15219729453736     -1.66772948314156     -4.61839353485992
  H           1.22719585963898      1.13677543611374     -3.28869248499186
  H           0.32447967030363      0.64814616969679     -4.85104351754162
  H           3.59571460721262     -0.57758206220693      1.67803152318448
  H           4.90292468509387      0.65740105303097      1.63735127425437
  H           4.99640883462670     -0.77039940068049      0.57373610697176
  H           4.45349420731496      2.27614136466547     -2.28092282751729
  H           5.50168952938004      0.92923852962810     -1.74008267177893
  H           5.43575615610828      2.43429060613599     -0.78204212276851
  H           4.72851820819090     -1.08494060555344     -3.57788652066537
  H           4.14716469154909     -2.76647637359863     -3.74944019511519
  H           4.90769093439123     -2.25260368115333     -2.21488588037440
  H           0.79748013464846     -2.54853036019244     -0.99932980230699
  H           2.44793288454887     -3.14093942900465     -0.58332823208147
  H           1.60419690479979     -3.76387985405186     -2.04116400120332
  Pt         -0.86458101543165      1.47302254072958      0.98817051115268
  O          -2.04365304024950      1.35678645121884     -0.56996621038294
  O          -2.34088515619470      0.36694463155306      1.83714226734407
  P          -2.13057472961372      0.14163549785187     -1.63565760197655
  P          -2.85602387982524      1.00009865458849      3.24883699734845
  O          -3.56940169302776     -0.28283299448121      4.01909386120694
  O          -3.72243011483485      2.23142365009758      3.21616469464607
  O          -0.80659221768551     -0.78441862221549     -1.26214932885318
  O          -2.19871935607024      0.88655048056467     -2.95165116191031
  C          -3.41808819517338     -1.24256098153270     -1.64918137017047
  C          -1.23783657654731      1.15909443535917      4.16431644344019
  C          -1.48620964070334      1.37170383698259      5.66537428998058
  C          -0.56537422318349      2.41509778820138      3.60560011441001
  C          -0.39789078070918     -0.10222890057763      3.89900328851347
  C          -3.24754496554366     -2.35674009182370     -0.60124155025997
  C          -4.86437024265085     -0.71617154379135     -1.61977135734531
  C          -3.10349654545905     -1.80039851501331     -3.06426043052398
  H          -4.54094757325843     -0.15036096845479      4.00819757025149
  H          -0.04412489909084     -0.22286921757004     -1.00059477585209
  H          -2.14802370689918      2.24287344853294      5.84241763816275
  H          -0.51854160081790      1.55612968112925      6.17804960802508
  H          -1.95780749430425      0.47777281211608      6.11552183543173
  H          -1.19271264682447      3.31743968967463      3.75102116840666
  H          -0.41249341454393      2.44561763941594      2.45514786776957
  H           0.45504695859145      2.56707030337324      4.00749230541525
  H          -0.90808386250596     -1.00671443125589      4.28343380195556
  H           0.59883046490812     -0.01740135370380      4.37685335178295
  H          -0.25063449451060     -0.25502392612424      2.80743143325017
  H          -3.49979063594986     -2.02648422067319      0.42625176565914
  H          -2.22322534004772     -2.77403884949054     -0.59452658841468
  H          -3.94225671174923     -3.18502273147952     -0.86949237967875
  H          -5.19139755732754     -0.42927946529432     -0.60028708848007
  H          -5.53387666975659     -1.53501612305827     -1.96572530262611
  H          -5.01180109798191      0.14450728234724     -2.30004465845293
  H          -2.05059396843626     -2.14228016938703     -3.12566297838525
  H          -3.24054101744014     -1.00353388226344     -3.81828394803272
  H          -3.76923524077570     -2.65690625784631     -3.29174731792361
