66
Coordinates from ORCA-job my_molecule_im2 E -2537.115418637934
  O           2.68205359719877     -0.09267935924076     -1.42027859414746
  Si          3.58963481859322      0.91319381065798     -0.43755856918266
  Si          2.53414686404376     -1.44286701189127     -2.41257960779292
  C           2.44648788126996      2.28960579745530      0.20472230457580
  C           1.65585486193494      3.13662683465644     -0.67195938289881
  C           1.42906844828943     -0.92322845995402     -3.84268230279998
  C           0.95769798685327      0.33149391048854     -3.99642220543500
  C           4.36902514942070     -0.04455602562708      0.99023642537559
  C           4.97063203841634      1.70173471052754     -1.46566807059007
  C           4.22944423727599     -1.96563584108416     -3.07023286892539
  C           1.75439994371681     -2.82967463694746     -1.39941259317452
  H           2.80982977795170      2.77004841176468      1.13910964718668
  H           1.61385649878395      2.94086603758331     -1.75916318690202
  H           1.48484057060640      4.19714803598047     -0.40229160403108
  H           1.15496492012334     -1.67811119290508     -4.60558378944197
  H           1.19382043551512      1.12091609084215     -3.26178660632108
  H           0.31551505339693      0.62981367525229     -4.84330215694827
  H           3.61524538592917     -0.55156032408245      1.62493223246791
  H           4.96653852006061      0.63230661667532      1.63627824244939
  H           5.06117171800794     -0.81724877169775      0.59452060040658
  H           4.56045078194123      2.24250358588678     -2.34263800037730
  H           5.66187953705682      0.91851325833338     -1.84148531722543
  H           5.56924491813749      2.42066480785208     -0.86884694094546
  H           4.71711913965052     -1.12954848544828     -3.61184410699869
  H           4.13137540681266     -2.81361384483420     -3.77988140952992
  H           4.90339481296039     -2.29078744044515     -2.25044009493584
  H           0.79595663935600     -2.48020586999418     -0.96411797266448
  H           2.42452028698261     -3.13236778083564     -0.56796831562007
  H           1.55195417462739     -3.72770964677233     -2.01872468246436
  Pt          0.40928919039127      1.93992355660907      0.40874901204158
  O          -2.86930399077991      0.86943266199875      0.55505699238378
  O          -2.89442384682771     -0.04831125806966      1.75125968861924
  P          -2.38613562810980      0.15244103193618     -0.91015417580234
  P          -3.06279041187666      0.88488518699414      3.17312172339760
  O          -3.66803266950705     -0.34222466534313      4.08470881537389
  O          -3.90003077937912      2.11688622507045      3.03026511765775
  O          -0.95404959295152     -0.56135093326449     -0.59687510321095
  O          -2.38837942787991      1.34325189365532     -1.83018439219697
  C          -3.45667193634870     -1.27557327803686     -1.45934491688289
  C          -1.38166003863705      1.09595174117251      3.94701294393347
  C          -1.57610631299707      1.30395282656229      5.46774518971603
  C          -0.75552378090984      2.36987592736823      3.36304909725738
  C          -0.51393585100360     -0.14399852543655      3.67366346620574
  C          -3.29952120255498     -2.51379477999485     -0.55910256971105
  C          -4.92674154592992     -0.81594913750340     -1.51726280843371
  C          -2.96809171608951     -1.59376306389007     -2.89508066720725
  H          -4.63779601750258     -0.38523371495801      3.95738304817717
  H          -0.22362017017857      0.16268204818219     -0.55230734619981
  H          -2.22097564555428      2.18058057878203      5.67817751914868
  H          -0.58347421376093      1.49934240567042      5.92704857988833
  H          -2.01792160516127      0.41594768269990      5.95781667971891
  H          -1.37093680991043      3.26775218898830      3.56466200095121
  H          -0.61047584119986      2.32508575638072      2.24249411714547
  H           0.25772506184570      2.51953474520079      3.79052507077801
  H          -0.97071086913815     -1.05687698600916      4.10508034754019
  H           0.48587944728384     -0.00781270433605      4.13670704056950
  H          -0.37369892796658     -0.31626189511930      2.58666360450584
  H          -3.61541407537328     -2.31376300322538      0.48298209899444
  H          -2.25319060810270     -2.87510812376773     -0.54399073779067
  H          -3.93618167528556     -3.33010549335303     -0.96336725091187
  H          -5.33739861769129     -0.58648785932734     -0.51465676542393
  H          -5.53533818007687     -1.63501543929643     -1.95767728571585
  H          -5.04710070304170      0.07836387518821     -2.15979498385374
  H          -1.90309156366956     -1.89831805959060     -2.91454198282937
  H          -3.08930350094339     -0.72010054713819     -3.56476619837092
  H          -3.57499034809499     -2.43148175699571     -3.29999604257208
