66
Coordinates from ORCA-job my_molecule_product E -2537.179389102643
  O      -1.731166     -0.449515     -0.107989
  Si     -0.706283      0.124211      1.097531
  Si     -2.546876     -0.286475     -1.563873
  C      -1.748612      0.365966      2.650216
  C      -1.820745      1.502885      3.373612
  C      -4.051229      0.826750     -1.294564
  C      -4.347879      1.463295     -0.136702
  C       0.592943     -1.207043      1.405251
  C       0.095489      1.750348      0.569447
  C      -1.427066      0.485486     -2.874649
  C      -3.121688     -1.998539     -2.103594
  H      -2.345731     -0.500130      2.998485
  H      -1.261240      2.412817      3.092250
  H      -2.442205      1.587273      4.283338
  H      -4.753602      0.978436     -2.139262
  H      -3.717723      1.361590      0.765501
  H      -5.235487      2.114576     -0.040660
  H       0.113835     -2.163977      1.696520
  H       1.285150     -0.909418      2.219597
  H       1.194250     -1.392880      0.491433
  H      -0.665817      2.528326      0.355766
  H       0.698940      1.603153     -0.349773
  H       0.774307      2.141498      1.355309
  H      -1.073355      1.488685     -2.561505
  H      -1.969218      0.603009     -3.835873
  H      -0.539043     -0.153218     -3.061411
  H      -3.805139     -2.441741     -1.351458
  H      -2.257558     -2.681513     -2.234853
  H      -3.666830     -1.944450     -3.068841
  Pt     -7.650355      1.031188      1.942471
  O      -8.412251      0.099468      0.488512
  O      -6.864563      1.743547      3.505631
  P      -7.610384     -0.533799     -0.829106
  P      -7.663928      2.425699      4.795439
  O      -8.953474      1.455795      5.099548
  O      -7.976543      3.868641      4.491195
  O      -6.214157     -1.164309     -0.269888
  O      -7.475085      0.536844     -1.887337
  C      -8.610599     -2.019052     -1.273051
  C      -6.560996      2.086041      6.233584
  C      -7.272944      2.636181      7.487071
  C      -5.252945      2.861788      5.971250
  C      -6.290621      0.576009      6.364053
  C      -8.692471     -2.989681     -0.080805
  C     -10.010014     -1.510155     -1.674929
  C      -7.910841     -2.680092     -2.479273
  H      -9.647073      1.604384      4.422288
  H      -5.504344     -0.463968     -0.271896
  H      -7.512818      3.712143      7.372754
  H      -6.606745      2.521521      8.367595
  H      -8.214908      2.090600      7.693703
  H      -5.448140      3.943496      5.832721
  H      -4.735796      2.486941      5.065463
  H      -4.571940      2.737681      6.838977
  H      -7.225810      0.005447      6.526657
  H      -5.621867      0.398263      7.232432
  H      -5.790716      0.172972      5.460776
  H      -9.189549     -2.521997      0.792380
  H      -7.687834     -3.333430      0.234436
  H      -9.286167     -3.881296     -0.373382
  H     -10.529193     -1.034381     -0.819901
  H     -10.626262     -2.364818     -2.024090
  H      -9.946218     -0.768181     -2.495351
  H      -6.904362     -3.057733     -2.210525
  H      -7.801901     -1.966594     -3.320486
  H      -8.520028     -3.538967     -2.830628
66
Coordinates from ORCA-job my_molecule_product E -2537.179389551941
  O      -1.731219     -0.449750     -0.108143
  Si     -0.706284      0.123707      1.097452
  Si     -2.546993     -0.285917     -1.563911
  C      -1.748571      0.365706      2.650127
  C      -1.820525      1.502700      3.373418
  C      -4.051420      0.827067     -1.293918
  C      -4.348079      1.462967     -0.135703
  C       0.592588     -1.207884      1.405263
  C       0.095975      1.749658      0.569531
  C      -1.427294      0.486899     -2.874296
  C      -3.121640     -1.997716     -2.104589
  H      -2.345779     -0.500307      2.998453
  H      -1.260939      2.412541      3.091932
  H      -2.442008      1.587316      4.283109
  H      -4.753751      0.979167     -2.138578
  H      -3.717777      1.360808      0.766344
  H      -5.235741      2.114105     -0.039246
  H       0.113241     -2.164683      1.696588
  H       1.284870     -0.910393      2.219594
  H       1.193864     -1.393934      0.491467
  H      -0.665035      2.527932      0.355881
  H       0.699485      1.602423     -0.349644
  H       0.774832      2.140429      1.355550
  H      -1.073557      1.489883     -2.560495
  H      -1.969568      0.605107     -3.835369
  H      -0.539285     -0.151656     -3.061627
  H      -3.805096     -2.441327     -1.352700
  H      -2.257434     -2.680537     -2.236136
  H      -3.666726     -1.943176     -3.069840
  Pt     -7.650187      1.029457      1.943194
  O      -8.412274      0.098260      0.489025
  O      -6.864312      1.742497      3.505872
  P      -7.610523     -0.534351     -0.829018
  P      -7.663557      2.425690      4.795192
  O      -8.953435      1.456324      5.099758
  O      -7.975728      3.868525      4.490117
  O      -6.214134     -1.164980     -0.270400
  O      -7.475488      0.536712     -1.886843
  C      -8.610667     -2.019566     -1.273326
  C      -6.560955      2.086631      6.233758
  C      -7.273133      2.637465      7.486786
  C      -5.252789      2.862138      5.971305
  C      -6.290690      0.576639      6.365108
  C      -8.692253     -2.990687     -0.081458
  C     -10.010200     -1.510700     -1.674810
  C      -7.911007     -2.680093     -2.479891
  H      -9.646792      1.604599      4.422175
  H      -5.504402     -0.464563     -0.272076
  H      -7.513005      3.713366      7.371852
  H      -6.607076      2.523345      8.367488
  H      -8.215143      2.092019      7.693556
  H      -5.447837      3.943829      5.832421
  H      -4.735515      2.487016      5.065702
  H      -4.571907      2.738258      6.839163
  H      -7.225942      0.006219      6.527835
  H      -5.622147      0.399456      7.233762
  H      -5.790573      0.173089      5.462179
  H      -9.189357     -2.523473      0.791966
  H      -7.687529     -3.334381      0.233563
  H      -9.285815     -3.882276     -0.374381
  H     -10.529392     -1.035472     -0.819490
  H     -10.626293     -2.365298     -2.024409
  H      -9.946642     -0.768313     -2.494878
  H      -6.904458     -3.057739     -2.211414
  H      -7.802229     -1.966290     -3.320868
  H      -8.520168     -3.538887     -2.831488
