66
Coordinates from ORCA-job my_molecule_im1 E -2537.133663694352
  O           2.61244167192176     -0.01684635232836     -1.38048910552489
  Si          3.57499308497226      0.98271224050244     -0.43534631439668
  Si          2.51311505191993     -1.43156425075854     -2.29345920257185
  C           2.54688734271326      2.46547662406177      0.13563212723619
  C           1.47559773341097      3.05733550455099     -0.61349979014286
  C           1.44471263650683     -1.03294853322419     -3.78863010592057
  C           0.97009592837445      0.19981263482646     -4.06030549375824
  C           4.30433132413060      0.04486477721999      1.03051792221181
  C           4.98384729398166      1.68450913797343     -1.48910817737601
  C           4.22460867016087     -1.98730788866309     -2.88525595774431
  C           1.72064960035399     -2.77327877586328     -1.23105405996610
  H           3.13691668392574      3.16336627228859      0.76851536862435
  H           1.08623244566480      2.56406841424019     -1.52304412495588
  H           1.31509368959076      4.15214422311427     -0.59192014723526
  H           1.19926679659395     -1.85098334959633     -4.49469814705719
  H           1.18435738413967      1.05058336884371     -3.39054147967970
  H           0.35124534186015      0.41998464271057     -4.94754770865085
  H           3.51945329785046     -0.43352470790523      1.64978106954900
  H           4.88339946211256      0.73325371340378      1.68113181060473
  H           5.00094816926384     -0.74495365666792      0.67949501069890
  H           4.58573878594173      2.19858928992579     -2.38760879002434
  H           5.66907672919685      0.88026846386952     -1.82805434802903
  H           5.58450707574480      2.42058312815192     -0.91513014549978
  H           4.72390555277585     -1.19196826182852     -3.47533278280188
  H           4.12964740702316     -2.87822616294852     -3.54167853252833
  H           4.88870309039521     -2.26606576694205     -2.04074855311259
  H           0.75124924041322     -2.40923162053854     -0.83362936151773
  H           2.37307486370586     -3.03657195859978     -0.37273711576768
  H           1.53689859320778     -3.69878944526089     -1.81529480843272
  Pt          0.73911200703554      2.26956898166656      1.16334520608149
  O          -3.07315399327145      0.89181647964328      0.59049040886636
  O          -3.05407653703556     -0.09532532419851      1.72857514768632
  P          -2.42618659752378      0.27987065432176     -0.85187256403337
  P          -3.09331805421353      0.76171996142851      3.18987073399955
  O          -3.59464402370923     -0.50609342808562      4.10567931822444
  O          -3.92637812878220      2.00181802925273      3.19250268388984
  O          -0.98523849465459     -0.36983657882636     -0.44291648935613
  O          -2.43245273473143      1.48277409183537     -1.75181193762285
  C          -3.42576345953826     -1.16890238056068     -1.46790646645104
  C          -1.34218324752269      0.95904951356452      3.78954770966150
  C          -1.41091247069398      1.24993959992243      5.30763654565476
  C          -0.75047946170371      2.18298971374277      3.04910910088117
  C          -0.51427374897718     -0.30480696626363      3.51233026332774
  C          -3.24759988702482     -2.43485482415865     -0.61181082150665
  C          -4.90521179056933     -0.72781440361912     -1.49386436698577
  C          -2.94485717916296     -1.42707185428321     -2.91556115874414
  H          -4.57076501280218     -0.56625338864327      4.05921082292951
  H          -0.33611637556169      0.34514161149341     -0.18016230587687
  H          -2.04857325523577      2.12832636532238      5.53263615100088
  H          -0.39135477471411      1.45276715775087      5.69857625512605
  H          -1.82034363896618      0.37921305269460      5.85601328053283
  H          -1.19090178856768      3.14080753900853      3.38620656830677
  H          -1.02574701480872      2.11591993788144      1.93294371389042
  H           0.35850834792380      2.24845167004409      3.26714870986784
  H          -0.95987191005467     -1.19110668958052      4.00407315940463
  H           0.51103191946588     -0.16533271040911      3.91641900116094
  H          -0.43548988687298     -0.50596237771491      2.42635899155330
  H          -3.56064551196102     -2.27527959316336      0.43791331197254
  H          -2.19707573211149     -2.78452851681822     -0.61381936564721
  H          -3.87720972330965     -3.24484679494064     -1.03965423020232
  H          -5.30339769399175     -0.54013759051872     -0.47765584815394
  H          -5.51111843851645     -1.53478118951621     -1.95883574310670
  H          -5.04207238621483      0.19157523600913     -2.09689658551038
  H          -1.87700457525130     -1.72081007814578     -2.95475058390952
  H          -3.07905544727031     -0.52888546797379     -3.54934310070112
  H          -3.54617424695278     -2.25441114272025     -3.34968457244131
