66
Coordinates from ORCA-job my_molecule_MEP E -2537.143799369065
  O       2.515242      0.048421     -1.387631
  Si      3.383462      1.193788     -0.516847
  Si      2.474968     -1.542811     -1.939978
  C       2.243055      2.683431     -0.272668
  C       1.025824      2.892150     -0.999510
  C       1.526618     -1.531244     -3.564743
  C       1.031264     -0.419385     -4.145980
  C       3.944743      0.488977      1.143266
  C       4.885134      1.749027     -1.524064
  C       4.233963     -2.177256     -2.232146
  C       1.591300     -2.625052     -0.672534
  H       2.741109      3.593987      0.123346
  H       0.664482      2.138780     -1.722031
  H       0.639084      3.912083     -1.178274
  H       1.366539     -2.499501     -4.079658
  H       1.159343      0.572978     -3.679534
  H       0.480992     -0.444388     -5.103247
  H       3.081084      0.079045      1.705306
  H       4.414450      1.276986      1.768173
  H       4.689812     -0.322022      1.006075
  H       4.573234      2.130901     -2.517483
  H       5.591277      0.908415     -1.685772
  H       5.437497      2.559767     -1.004767
  H       4.780143     -1.527232     -2.945710
  H       4.216088     -3.203076     -2.656057
  H       4.811936     -2.217466     -1.285206
  H       0.587355     -2.204682     -0.459794
  H       2.159392     -2.672566      0.279542
  H       1.467060     -3.662261     -1.047463
  Pt      0.587359      2.315243      0.953965
  O      -3.072220      1.018759      0.757211
  O      -3.168164     -0.158239      1.690453
  P      -2.371643      0.592975     -0.731646
  P      -2.962149      0.412826      3.265558
  O      -3.253450     -1.037315      3.979245
  O      -3.830251      1.561570      3.672334
  O      -0.949422     -0.112510     -0.376453
  O      -2.341899      1.902483     -1.469949
  C      -3.372280     -0.760353     -1.505539
  C      -1.137352      0.627244      3.548407
  C      -0.945036      0.780504      5.073575
  C      -0.715610      1.950779      2.859753
  C      -0.361190     -0.587785      3.015607
  C      -3.138951     -2.127638     -0.837029
  C      -4.850832     -0.333848     -1.398104
  C      -2.927408     -0.798012     -2.985152
  H      -4.203803     -1.090681      4.208601
  H      -0.293400      0.594103     -0.029233
  H      -1.553633      1.614730      5.475443
  H       0.123366      0.986434      5.294580
  H      -1.233872     -0.147507      5.604219
  H      -1.133696      2.837350      3.373793
  H      -1.150578      2.011602      1.800128
  H       0.420636      2.046828      2.945915
  H      -0.692205     -1.515730      3.521368
  H       0.722312     -0.452258      3.217507
  H      -0.496830     -0.718475      1.925994
  H      -3.422703     -2.118063      0.232334
  H      -2.080021     -2.442050     -0.913157
  H      -3.760550     -2.888609     -1.354967
  H      -5.194388     -0.319432     -0.345411
  H      -5.480297     -1.054267     -1.961006
  H      -5.012453      0.674806     -1.828333
  H      -1.859082     -1.078690     -3.085055
  H      -3.070309      0.186462     -3.472059
  H      -3.534443     -1.553033     -3.527506
66
Coordinates from ORCA-job my_molecule_MEP E -2537.133663694352
  O       2.612442     -0.016846     -1.380489
  Si      3.574993      0.982712     -0.435346
  Si      2.513115     -1.431564     -2.293459
  C       2.546887      2.465477      0.135632
  C       1.475598      3.057336     -0.613500
  C       1.444713     -1.032949     -3.788630
  C       0.970096      0.199813     -4.060305
  C       4.304331      0.044865      1.030518
  C       4.983847      1.684509     -1.489108
  C       4.224609     -1.987308     -2.885256
  C       1.720650     -2.773279     -1.231054
  H       3.136917      3.163366      0.768515
  H       1.086232      2.564068     -1.523044
  H       1.315094      4.152144     -0.591920
  H       1.199267     -1.850983     -4.494698
  H       1.184357      1.050583     -3.390541
  H       0.351245      0.419985     -4.947548
  H       3.519453     -0.433525      1.649781
  H       4.883399      0.733254      1.681132
  H       5.000948     -0.744954      0.679495
  H       4.585739      2.198589     -2.387609
  H       5.669077      0.880268     -1.828054
  H       5.584507      2.420583     -0.915130
  H       4.723906     -1.191968     -3.475333
  H       4.129647     -2.878226     -3.541679
  H       4.888703     -2.266066     -2.040749
  H       0.751249     -2.409232     -0.833629
  H       2.373075     -3.036572     -0.372737
  H       1.536899     -3.698789     -1.815295
  Pt      0.739112      2.269569      1.163345
  O      -3.073154      0.891816      0.590490
  O      -3.054077     -0.095325      1.728575
  P      -2.426187      0.279871     -0.851873
  P      -3.093318      0.761720      3.189871
  O      -3.594644     -0.506093      4.105679
  O      -3.926378      2.001818      3.192503
  O      -0.985238     -0.369837     -0.442916
  O      -2.432453      1.482774     -1.751812
  C      -3.425763     -1.168902     -1.467906
  C      -1.342183      0.959050      3.789548
  C      -1.410912      1.249940      5.307637
  C      -0.750479      2.182990      3.049109
  C      -0.514274     -0.304807      3.512330
  C      -3.247600     -2.434855     -0.611811
  C      -4.905212     -0.727814     -1.493864
  C      -2.944857     -1.427072     -2.915561
  H      -4.570765     -0.566253      4.059211
  H      -0.336116      0.345142     -0.180162
  H      -2.048573      2.128326      5.532636
  H      -0.391355      1.452767      5.698576
  H      -1.820344      0.379213      5.856013
  H      -1.190902      3.140808      3.386207
  H      -1.025747      2.115920      1.932944
  H       0.358508      2.248452      3.267149
  H      -0.959872     -1.191107      4.004073
  H       0.511032     -0.165333      3.916419
  H      -0.435490     -0.505962      2.426359
  H      -3.560646     -2.275280      0.437913
  H      -2.197076     -2.784529     -0.613819
  H      -3.877210     -3.244847     -1.039654
  H      -5.303398     -0.540138     -0.477656
  H      -5.511118     -1.534781     -1.958836
  H      -5.042072      0.191575     -2.096897
  H      -1.877005     -1.720810     -2.954751
  H      -3.079055     -0.528885     -3.549343
  H      -3.546174     -2.254411     -3.349685
66
Coordinates from ORCA-job my_molecule_MEP E -2537.115418637934
  O       2.682054     -0.092679     -1.420279
  Si      3.589635      0.913194     -0.437559
  Si      2.534147     -1.442867     -2.412580
  C       2.446488      2.289606      0.204722
  C       1.655855      3.136627     -0.671959
  C       1.429068     -0.923228     -3.842682
  C       0.957698      0.331494     -3.996422
  C       4.369025     -0.044556      0.990236
  C       4.970632      1.701735     -1.465668
  C       4.229444     -1.965636     -3.070233
  C       1.754400     -2.829675     -1.399413
  H       2.809830      2.770048      1.139110
  H       1.613856      2.940866     -1.759163
  H       1.484841      4.197148     -0.402292
  H       1.154965     -1.678111     -4.605584
  H       1.193820      1.120916     -3.261787
  H       0.315515      0.629814     -4.843302
  H       3.615245     -0.551560      1.624932
  H       4.966539      0.632307      1.636278
  H       5.061172     -0.817249      0.594521
  H       4.560451      2.242504     -2.342638
  H       5.661880      0.918513     -1.841485
  H       5.569245      2.420665     -0.868847
  H       4.717119     -1.129548     -3.611844
  H       4.131375     -2.813614     -3.779881
  H       4.903395     -2.290787     -2.250440
  H       0.795957     -2.480206     -0.964118
  H       2.424520     -3.132368     -0.567968
  H       1.551954     -3.727710     -2.018725
  Pt      0.409289      1.939924      0.408749
  O      -2.869304      0.869433      0.555057
  O      -2.894424     -0.048311      1.751260
  P      -2.386136      0.152441     -0.910154
  P      -3.062790      0.884885      3.173122
  O      -3.668033     -0.342225      4.084709
  O      -3.900031      2.116886      3.030265
  O      -0.954050     -0.561351     -0.596875
  O      -2.388379      1.343252     -1.830184
  C      -3.456672     -1.275573     -1.459345
  C      -1.381660      1.095952      3.947013
  C      -1.576106      1.303953      5.467745
  C      -0.755524      2.369876      3.363049
  C      -0.513936     -0.143999      3.673663
  C      -3.299521     -2.513795     -0.559103
  C      -4.926742     -0.815949     -1.517263
  C      -2.968092     -1.593763     -2.895081
  H      -4.637796     -0.385234      3.957383
  H      -0.223620      0.162682     -0.552307
  H      -2.220976      2.180581      5.678178
  H      -0.583474      1.499342      5.927049
  H      -2.017922      0.415948      5.957817
  H      -1.370937      3.267752      3.564662
  H      -0.610476      2.325086      2.242494
  H       0.257725      2.519535      3.790525
  H      -0.970711     -1.056877      4.105080
  H       0.485879     -0.007813      4.136707
  H      -0.373699     -0.316262      2.586664
  H      -3.615414     -2.313763      0.482982
  H      -2.253191     -2.875108     -0.543991
  H      -3.936182     -3.330105     -0.963367
  H      -5.337399     -0.586488     -0.514657
  H      -5.535338     -1.635015     -1.957677
  H      -5.047101      0.078364     -2.159795
  H      -1.903092     -1.898318     -2.914542
  H      -3.089304     -0.720101     -3.564766
  H      -3.574990     -2.431482     -3.299996
66
Coordinates from ORCA-job my_molecule_MEP E -2537.123844130024
  O       2.584457     -0.167668     -1.428301
  Si      3.429417      0.912480     -0.462553
  Si      2.521280     -1.495141     -2.470174
  C       2.164150      2.215959      0.160729
  C       1.563238      3.206019     -0.681426
  C       1.416978     -0.935776     -3.886646
  C       0.962814      0.330275     -3.997979
  C       4.258974      0.003583      0.968779
  C       4.821873      1.734001     -1.456929
  C       4.235787     -1.954632     -3.121957
  C       1.800981     -2.925226     -1.475318
  H       2.357407      2.555193      1.202718
  H       1.719482      3.169483     -1.775628
  H       1.398985      4.229389     -0.293522
  H       1.133505     -1.660358     -4.674046
  H       1.207334      1.093081     -3.238261
  H       0.324072      0.666126     -4.832937
  H       3.543231     -0.529721      1.624710
  H       4.856864      0.698459      1.595136
  H       4.965550     -0.746652      0.553470
  H       4.466351      2.291018     -2.346771
  H       5.530878      0.953850     -1.809513
  H       5.403925      2.436533     -0.823390
  H       4.715918     -1.104690     -3.648260
  H       4.152573     -2.792216     -3.846983
  H       4.908388     -2.289857     -2.304857
  H       0.838449     -2.624463     -1.018320
  H       2.497806     -3.207845     -0.658860
  H       1.617527     -3.823878     -2.097878
  Pt      0.036010      1.876314      0.006952
  O      -1.839852      0.863875      0.658199
  O      -3.113826     -0.174571      1.910136
  P      -1.990331      0.066325     -0.778082
  P      -3.169187      0.830441      3.171013
  O      -3.821352     -0.277093      4.247824
  O      -3.981459      2.100079      3.083456
  O      -0.722131     -0.974567     -0.781143
  O      -1.737262      1.277420     -1.717932
  C      -3.322133     -1.172528     -1.324115
  C      -1.459434      1.076326      3.882370
  C      -1.603281      1.357547      5.393864
  C      -0.818153      2.325548      3.243275
  C      -0.621558     -0.188785      3.638113
  C      -3.257595     -2.475095     -0.492203
  C      -4.771540     -0.657630     -1.353864
  C      -2.878179     -1.457908     -2.787969
  H      -4.794770     -0.186998      4.188857
  H       0.097689     -0.414220     -0.717893
  H      -2.222662      2.258741      5.575355
  H      -0.596571      1.540920      5.828183
  H      -2.066200      0.504493      5.926266
  H      -1.448525      3.225541      3.386850
  H      -0.665289      2.220479      2.139424
  H       0.180950      2.504677      3.694784
  H      -1.087846     -1.070438      4.121180
  H       0.396686     -0.061229      4.064407
  H      -0.533285     -0.406843      2.556428
  H      -3.588618     -2.316616      0.551324
  H      -2.246140     -2.921378     -0.483902
  H      -3.944330     -3.213273     -0.965446
  H      -5.180648     -0.460874     -0.345417
  H      -5.388266     -1.462300     -1.816941
  H      -4.890674      0.243128     -1.986314
  H      -1.833381     -1.817084     -2.845647
  H      -2.974691     -0.553882     -3.421252
  H      -3.540358     -2.245869     -3.205173
66
Coordinates from ORCA-job my_molecule_MEP E -2537.115134016912
  O       2.574420     -0.114426     -1.381924
  Si      3.438818      0.917072     -0.377769
  Si      2.525194     -1.449703     -2.420486
  C       2.157000      2.169549      0.311408
  C       1.422287      3.084763     -0.506882
  C       1.437794     -0.907741     -3.854781
  C       0.980934      0.353138     -4.002270
  C       4.298621     -0.030976      1.011594
  C       4.819289      1.737074     -1.388121
  C       4.242639     -1.920896     -3.054575
  C       1.782399     -2.871017     -1.431578
  H       2.376415      2.539605      1.335637
  H       1.473335      3.024135     -1.611606
  H       1.149598      4.086064     -0.122642
  H       1.148037     -1.655942     -4.617644
  H       1.230025      1.139770     -3.268411
  H       0.329429      0.662390     -4.837216
  H       3.602886     -0.581072      1.675052
  H       4.912308      0.650286      1.638286
  H       4.997621     -0.768261      0.561494
  H       4.451177      2.281164     -2.280535
  H       5.500051      0.932997     -1.744232
  H       5.433721      2.435858     -0.782887
  H       4.728736     -1.080973     -3.590636
  H       4.149172     -2.764229     -3.771677
  H       4.911673     -2.255400     -2.234948
  H       0.808955     -2.562638     -1.002535
  H       2.458624     -3.154440     -0.598398
  H       1.610047     -3.769620     -2.057756
  Pt      0.063783      1.654113      0.246486
  O      -1.953987      1.094288      0.035244
  O      -2.957012     -0.076047      2.022229
  P      -2.123828      0.126183     -1.282626
  P      -3.017256      0.889220      3.255927
  O      -3.748908     -0.080721      4.404191
  O      -3.744052      2.221957      3.079959
  O      -0.790037     -0.848120     -1.189809
  O      -2.178140      1.119180     -2.440855
  C      -3.410950     -1.233935     -1.542040
  C      -1.332556      1.131658      4.054134
  C      -1.509517      1.365440      5.571921
  C      -0.693475      2.382580      3.431059
  C      -0.477274     -0.115374      3.789511
  C      -3.270354     -2.406203     -0.557716
  C      -4.858899     -0.712769     -1.560921
  C      -3.045605     -1.700463     -2.981075
  H      -4.636340     -0.317804      4.063805
  H       0.012784     -0.272922     -1.075463
  H      -2.157901      2.240908      5.776939
  H      -0.515047      1.566252      6.025394
  H      -1.948573      0.484113      6.076619
  H      -1.291544      3.293560      3.625985
  H      -0.586637      2.291562      2.309776
  H       0.332472      2.523600      3.832243
  H      -0.943160     -1.024005      4.219294
  H       0.527405      0.008255      4.246321
  H      -0.346309     -0.286883      2.700230
  H      -3.527695     -2.106892      0.476307
  H      -2.245266     -2.822383     -0.562278
  H      -3.962876     -3.215935     -0.876339
  H      -5.225651     -0.433298     -0.554630
  H      -5.505486     -1.535278     -1.940199
  H      -4.985053      0.146948     -2.247462
  H      -2.001401     -2.061036     -3.050067
  H      -3.175841     -0.880421     -3.713901
  H      -3.721022     -2.535862     -3.262158
66
Coordinates from ORCA-job my_molecule_MEP E -2537.095856093072
  O       2.553353     -0.126840     -1.396196
  Si      3.384913      0.895771     -0.370814
  Si      2.515038     -1.470382     -2.427404
  C       2.032693      2.063922      0.322422
  C       1.200439      2.946525     -0.446840
  C       1.441998     -0.932450     -3.871455
  C       0.987111      0.327724     -4.026679
  C       4.258792     -0.020375      1.025065
  C       4.755292      1.756771     -1.357455
  C       4.242743     -1.934069     -3.038354
  C       1.776230     -2.879914     -1.420620
  H       2.222393      2.432233      1.362308
  H       1.198397      2.862643     -1.548042
  H       0.972653      3.967477     -0.086455
  H       1.154923     -1.683762     -4.631859
  H       1.230567      1.116804     -3.293373
  H       0.339359      0.634396     -4.864960
  H       3.578117     -0.576196      1.698397
  H       4.866490      0.678716      1.638161
  H       4.966995     -0.746484      0.572651
  H       4.407903      2.292599     -2.262776
  H       5.432941      0.943576     -1.699345
  H       5.374787      2.451053     -0.752927
  H       4.728582     -1.095492     -3.577097
  H       4.161338     -2.783218     -3.750037
  H       4.907001     -2.258663     -2.210702
  H       0.801262     -2.566950     -0.998207
  H       2.452988     -3.147661     -0.582450
  H       1.607506     -3.788779     -2.032381
  Pt     -0.021900      1.594744      0.603402
  O      -1.778790      1.293515     -0.371170
  O      -2.441589      0.187428      1.852431
  P      -2.097993      0.171681     -1.469801
  P      -2.853170      0.921615      3.173532
  O      -3.604874     -0.222669      4.125072
  O      -3.711828      2.182049      3.063182
  O      -0.782209     -0.819115     -1.300908
  O      -2.298529      1.018484     -2.726169
  C      -3.407770     -1.216321     -1.564241
  C      -1.267890      1.155627      4.113996
  C      -1.506403      1.344518      5.616561
  C      -0.636196      2.437040      3.554741
  C      -0.404696     -0.089453      3.833846
  C      -3.252356     -2.365080     -0.556992
  C      -4.851870     -0.688737     -1.557223
  C      -3.067377     -1.718084     -2.996998
  H      -4.568161     -0.211825      3.954555
  H       0.000925     -0.280694     -1.028233
  H      -2.169813      2.211861      5.804809
  H      -0.532211      1.543126      6.110713
  H      -1.961271      0.447324      6.076322
  H      -1.260030      3.329633      3.752954
  H      -0.541474      2.383282      2.439560
  H       0.387879      2.587979      3.955251
  H      -0.898416     -1.003516      4.222955
  H       0.594367      0.001580      4.306763
  H      -0.274309     -0.249406      2.742116
  H      -3.506824     -2.063931      0.478613
  H      -2.230908     -2.789937     -0.561919
  H      -3.950749     -3.178827     -0.860400
  H      -5.205241     -0.414098     -0.543806
  H      -5.507848     -1.507470     -1.929562
  H      -4.983347      0.175201     -2.236357
  H      -2.018875     -2.067286     -3.065416
  H      -3.202651     -0.898103     -3.727261
  H      -3.738404     -2.561108     -3.257495
66
Coordinates from ORCA-job my_molecule_MEP E -2537.129900972678
  O       2.557194     -0.102391     -1.382730
  Si      3.443905      0.901603     -0.386204
  Si      2.513747     -1.448359     -2.419504
  C       2.199380      2.191738      0.311146
  C       1.320874      2.950546     -0.412603
  C       1.441407     -0.910563     -3.862421
  C       0.982480      0.343410     -4.018779
  C       4.294041     -0.031663      1.014492
  C       4.821707      1.735037     -1.386853
  C       4.239431     -1.919592     -3.035885
  C       1.773638     -2.861615     -1.419454
  H       2.359223      2.503288      1.363337
  H       1.180716      2.796073     -1.497896
  H       0.885296      3.880091     -0.003831
  H       1.152197     -1.667729     -4.618394
  H       1.227196      1.136775     -3.288692
  H       0.324480      0.648146     -4.851044
  H       3.595715     -0.577582      1.678032
  H       4.902925      0.657401      1.637351
  H       4.996409     -0.770399      0.573736
  H       4.453494      2.276141     -2.280923
  H       5.501690      0.929239     -1.740083
  H       5.435756      2.434291     -0.782042
  H       4.728518     -1.084941     -3.577887
  H       4.147165     -2.766476     -3.749440
  H       4.907691     -2.252604     -2.214886
  H       0.797480     -2.548530     -0.999330
  H       2.447933     -3.140939     -0.583328
  H       1.604197     -3.763880     -2.041164
  Pt     -0.864581      1.473023      0.988171
  O      -2.043653      1.356786     -0.569966
  O      -2.340885      0.366945      1.837142
  P      -2.130575      0.141635     -1.635658
  P      -2.856024      1.000099      3.248837
  O      -3.569402     -0.282833      4.019094
  O      -3.722430      2.231424      3.216165
  O      -0.806592     -0.784419     -1.262149
  O      -2.198719      0.886550     -2.951651
  C      -3.418088     -1.242561     -1.649181
  C      -1.237837      1.159094      4.164316
  C      -1.486210      1.371704      5.665374
  C      -0.565374      2.415098      3.605600
  C      -0.397891     -0.102229      3.899003
  C      -3.247545     -2.356740     -0.601242
  C      -4.864370     -0.716172     -1.619771
  C      -3.103497     -1.800399     -3.064260
  H      -4.540948     -0.150361      4.008198
  H      -0.044125     -0.222869     -1.000595
  H      -2.148024      2.242873      5.842418
  H      -0.518542      1.556130      6.178050
  H      -1.957807      0.477773      6.115522
  H      -1.192713      3.317440      3.751021
  H      -0.412493      2.445618      2.455148
  H       0.455047      2.567070      4.007492
  H      -0.908084     -1.006714      4.283434
  H       0.598830     -0.017401      4.376853
  H      -0.250634     -0.255024      2.807431
  H      -3.499791     -2.026484      0.426252
  H      -2.223225     -2.774039     -0.594527
  H      -3.942257     -3.185023     -0.869492
  H      -5.191398     -0.429279     -0.600287
  H      -5.533877     -1.535016     -1.965725
  H      -5.011801      0.144507     -2.300045
  H      -2.050594     -2.142280     -3.125663
  H      -3.240541     -1.003534     -3.818284
  H      -3.769235     -2.656906     -3.291747
66
Coordinates from ORCA-job my_molecule_MEP E -2537.135453825727
  O       2.751687     -0.131724     -1.316135
  Si      3.787947      0.797226     -0.374447
  Si      2.548589     -1.324656     -2.491425
  C       2.730438      2.098586      0.514911
  C       1.933537      2.978083     -0.077675
  C       1.351608     -0.600844     -3.745378
  C       0.909153      0.658919     -3.703942
  C       4.667125     -0.288943      0.891951
  C       5.069843      1.644322     -1.472965
  C       4.188216     -1.755833     -3.324651
  C       1.801552     -2.841347     -1.656907
  H       2.820617      2.152348      1.623149
  H       1.784590      3.010152     -1.180120
  H       1.372698      3.763028      0.483128
  H       0.968517     -1.260767     -4.553729
  H       1.250653      1.359026     -2.913668
  H       0.169478      1.067855     -4.417838
  H       3.949530     -0.847622      1.526889
  H       5.311725      0.323385      1.557277
  H       5.320730     -1.027525      0.382824
  H       4.589361      2.244853     -2.271994
  H       5.727464      0.892416     -1.956939
  H       5.713090      2.324803     -0.877133
  H       4.652197     -0.858209     -3.781650
  H       4.015194     -2.492317     -4.137172
  H       4.912897     -2.203770     -2.613937
  H       0.855925     -2.567644     -1.146140
  H       2.496879     -3.269138     -0.905888
  H       1.569849     -3.632766     -2.399356
  Pt     -2.276850      1.917655      0.660555
  O      -3.222211      0.718537     -0.512476
  O      -2.402289      0.567931      2.051077
  P      -2.419884     -0.105415     -1.669512
  P      -2.861606      1.293904      3.439660
  O      -3.692107      0.117272      4.214631
  O      -3.596472      2.600961      3.224721
  O      -1.075610     -0.759003     -0.974765
  O      -2.157735      0.749471     -2.882299
  C      -3.521886     -1.584908     -1.876771
  C      -1.275285      1.396813      4.359305
  C      -1.577594      1.679217      5.839850
  C      -0.525404      2.583297      3.716220
  C      -0.503419      0.077603      4.167648
  C      -3.336090     -2.618650     -0.749364
  C      -4.992020     -1.120161     -1.921063
  C      -3.086160     -2.159716     -3.237947
  H      -4.629005      0.134830      3.933710
  H      -0.294561     -0.196566     -1.154886
  H      -2.194320      2.593981      5.954172
  H      -0.629736      1.825721      6.397771
  H      -2.127073      0.832914      6.297032
  H      -1.078604      3.532252      3.854587
  H      -0.368933      2.433681      2.619623
  H       0.484620      2.684798      4.164992
  H      -1.081242     -0.784371      4.556274
  H       0.463891      0.122871      4.708243
  H      -0.301955     -0.111021      3.095783
  H      -3.633614     -2.213420      0.238725
  H      -2.290426     -2.972843     -0.674521
  H      -3.983011     -3.497660     -0.963621
  H      -5.336834     -0.777263     -0.925988
  H      -5.632007     -1.972634     -2.234752
  H      -5.145651     -0.292770     -2.641494
  H      -2.021601     -2.471086     -3.210564
  H      -3.193139     -1.393878     -4.030850
  H      -3.705263     -3.044243     -3.494747
66
Coordinates from ORCA-job my_molecule_MEP E -2537.155826311282
  O       2.950109     -0.319871     -1.257129
  Si      4.029320      0.581639     -0.336969
  Si      2.544552     -1.210101     -2.618173
  C       2.994852      1.685945      0.799993
  C       2.409659      2.828042      0.436009
  C       1.193071     -0.251748     -3.505710
  C       0.794893      0.988243     -3.141605
  C       5.054310     -0.603140      0.707546
  C       5.142288      1.617629     -1.456928
  C       4.051136     -1.429350     -3.734207
  C       1.838524     -2.866801     -2.060553
  H       2.852667      1.345035      1.847617
  H       2.493933      3.239441     -0.590555
  H       1.796390      3.435537      1.134671
  H       0.669751     -0.726825     -4.358464
  H       1.276716      1.509305     -2.294791
  H      -0.030144      1.510019     -3.650902
  H       4.393656     -1.255737      1.314263
  H       5.724615     -0.052494      1.399158
  H       5.683675     -1.255043      0.067937
  H       4.558737      2.274606     -2.133305
  H       5.781980      0.964671     -2.085836
  H       5.809613      2.262544     -0.848875
  H       4.461526     -0.442594     -4.029796
  H       3.779908     -1.974608     -4.661011
  H       4.851705     -2.000962     -3.221866
  H       0.953892     -2.699336     -1.412883
  H       2.584200     -3.455342     -1.489663
  H       1.512309     -3.471064     -2.932012
  Pt     -2.781801      1.658559      0.408319
  O      -3.574576      0.421207     -0.756943
  O      -1.986264      1.361899      2.080430
  P      -2.608547     -0.418097     -1.840346
  P      -2.830795      1.767911      3.460267
  O      -3.689751      0.428405      3.884189
  O      -3.659171      3.019906      3.371121
  O      -1.253577     -0.879352     -1.033333
  O      -2.372086      0.400011     -3.081752
  C      -3.593113     -1.966005     -2.021981
  C      -1.328096      1.739000      4.535436
  C      -1.772581      2.089969      5.963705
  C      -0.401583      2.830556      3.954448
  C      -0.675010      0.346114      4.456958
  C      -3.426896     -2.896971     -0.807276
  C      -5.069033     -1.539468     -2.175843
  C      -3.062556     -2.613993     -3.313773
  H      -4.637318      0.612317      3.715242
  H      -0.489535     -0.340837     -1.348766
  H      -2.311930      3.057411      5.986491
  H      -0.877143      2.172721      6.613523
  H      -2.436839      1.308598      6.382140
  H      -0.901289      3.820094      3.961712
  H      -0.122583      2.597261      2.908332
  H       0.526465      2.895883      4.556762
  H      -1.361798     -0.445101      4.817253
  H       0.239080      0.329241      5.085529
  H      -0.387807      0.099290      3.416643
  H      -3.779010     -2.421708      0.130708
  H      -2.374370     -3.207006     -0.661587
  H      -4.038432     -3.809600     -0.970893
  H      -5.462992     -1.122284     -1.228951
  H      -5.680675     -2.422284     -2.452638
  H      -5.193015     -0.769545     -2.963680
  H      -1.998531     -2.907801     -3.204001
  H      -3.132701     -1.902239     -4.159339
  H      -3.651984     -3.521702     -3.554068
66
Coordinates from ORCA-job my_molecule_MEP E -2537.179428214903
  O       3.262168     -0.731662     -1.470572
  Si      4.303202      0.028636     -0.388436
  Si      2.397852     -0.789322     -2.906272
  C       3.300673      0.447173      1.152827
  C       3.212519      1.668677      1.719610
  C       0.865818      0.305583     -2.736004
  C       0.583078      1.082834     -1.663727
  C       5.654627     -1.210921      0.049866
  C       5.034284      1.591304     -1.156317
  C       3.451034     -0.167830     -4.345940
  C       1.864813     -2.574379     -3.193099
  H       2.743571     -0.381037      1.634155
  H       3.732584      2.548209      1.299912
  H       2.616255      1.856956      2.630632
  H       0.133644      0.321951     -3.568779
  H       1.243354      1.121564     -0.778318
  H      -0.322581      1.714890     -1.624765
  H       5.216590     -2.133298      0.482830
  H       6.360793     -0.786370      0.792822
  H       6.233978     -1.500807     -0.850963
  H       4.241542      2.311186     -1.445848
  H       5.614404      1.339204     -2.067740
  H       5.723061      2.104039     -0.453415
  H       3.780284      0.878171     -4.181433
  H       2.876380     -0.196052     -5.294981
  H       4.353879     -0.799657     -4.476599
  H       1.219571     -2.932354     -2.365596
  H       2.747043     -3.243226     -3.261771
  H       1.289356     -2.666306     -4.137666
  Pt     -2.638496      0.837372      0.566721
  O      -3.412462     -0.303085     -0.722798
  O      -1.830190      1.777071      1.992068
  P      -2.630071     -1.083899     -1.971173
  P      -2.612637      2.604186      3.205143
  O      -3.859563      1.647529      3.680759
  O      -2.982004      3.983044      2.720764
  O      -1.197140     -1.592548     -1.381559
  O      -2.562928     -0.161664     -3.166744
  C      -3.592857     -2.643945     -2.178230
  C      -1.456433      2.494333      4.637383
  C      -2.148563      3.187999      5.829222
  C      -0.183476      3.265188      4.228774
  C      -1.131917      1.024330      4.960122
  C      -3.605912     -3.447572     -0.865102
  C      -5.020114     -2.234815     -2.595823
  C      -2.908158     -3.440361     -3.308951
  H      -4.577608      1.682884      3.013665
  H      -0.511634     -0.878363     -1.501279
  H      -2.427686      4.231153      5.579749
  H      -1.452812      3.213048      6.693861
  H      -3.065119      2.648174      6.139331
  H      -0.418736      4.312156      3.953265
  H       0.318536      2.786692      3.364233
  H       0.527025      3.279272      5.081487
  H      -2.042213      0.454031      5.229717
  H      -0.431933      0.985366      5.821177
  H      -0.646012      0.517538      4.102621
  H      -4.091828     -2.881612     -0.045440
  H      -2.581200     -3.716262     -0.541664
  H      -4.177844     -4.387415     -1.015586
  H      -5.528911     -1.664000     -1.794405
  H      -5.617502     -3.146313     -2.806613
  H      -5.006202     -1.608165     -3.509504
  H      -1.881891     -3.748897     -3.027135
  H      -2.848745     -2.843523     -4.241073
  H      -3.498541     -4.356083     -3.521397
