66
Coordinates from ORCA-job my_molecule_reactant E -2537.143799377942
  O          -2.41775742025693      0.23308204242328     -0.03945464662660
  Si         -1.54953720779261      1.37844859924768      0.83132896378704
  Si         -2.45803143018788     -1.35814964957494     -0.59180123417448
  C          -2.68994379090617      2.86809221214973      1.07550832899043
  C          -3.90717497974184      3.07681074270200      0.34866600929959
  C          -3.40638103722051     -1.34658286343254     -2.21656657824272
  C          -3.90173482337817     -0.23472405834026     -2.79780344971638
  C          -0.98825640272795      0.67363758797934      2.49144221093400
  C          -0.04786551613102      1.93368778234689     -0.17588796829232
  C          -0.69903640833528     -1.99259514666934     -0.88396981573236
  C          -3.34169867427742     -2.44039070694581      0.67564239165639
  H          -2.19189023479279      3.77864793586702      1.47152215861829
  H          -4.26851744041491      2.32344112373930     -0.37385452597569
  H          -4.29391537216457      4.09674352158756      0.16990206603574
  H          -3.56646006197710     -2.31483983616899     -2.73148201665207
  H          -3.77365599206553      0.75763885233800     -2.33135805357388
  H          -4.45200672969859     -0.25972673933470     -3.75507072028223
  H          -1.85191542006209      0.26370608011373      3.05348236250230
  H          -0.51854954808428      1.46164645276044      3.11634941816989
  H          -0.24318751490834     -0.13736061192343      2.35425143138450
  H          -0.35976461848916      2.31556240602387     -1.16930692608184
  H           0.65827770138333      1.09307562081703     -0.33759567963620
  H           0.50449775420782      2.74442836303882      0.34340948353150
  H          -0.15285640195783     -1.34257145120819     -1.59753355005227
  H          -0.71691085436165     -3.01841516600089     -1.30788019230276
  H          -0.12106321777093     -2.03280486640901      0.06297048212104
  H          -4.34564423987619     -2.02002124694344      0.88838246440803
  H          -2.77360719353613     -2.48790555558950      1.62771805648975
  H          -3.46593897624420     -3.47759963566370      0.30071288311282
  Pt         -4.34563972705516      2.49990437391901      2.30214157345361
  O          -8.00521944848968      1.20341945008249      2.10538780274650
  O          -8.10116310101530      0.02642164679114      3.03862906364828
  P          -7.30464183960333      0.77763612958475      0.61653050697757
  P          -7.89514843101788      0.59748661404432      4.61373441795180
  O          -8.18644914669140     -0.85265452037791      5.32742143934470
  O          -8.76325022367122      1.74623057088367      5.02051083640062
  O          -5.88242157999155      0.07215123730902      0.97172308014724
  O          -7.27489772408592      2.08714432507259     -0.12177257688649
  C          -8.30527914866718     -0.57569173062567     -0.15736270369333
  C          -6.07035095952582      0.81190514129584      4.89658302252844
  C          -5.87803548369393      0.96516480118599      6.42175119212913
  C          -5.64860894588531      2.13543958362090      4.20792893368503
  C          -5.29418868280339     -0.40312368590868      4.36378385219661
  C          -8.07195034934459     -1.94297680603120      0.51114729726035
  C          -9.78383137469360     -0.14918712389623     -0.04992765977314
  C          -7.86040690332595     -0.61335093747585     -1.63697609951408
  H          -9.13680222939717     -0.90602058142381      5.55677731476352
  H          -5.22639944993217      0.77876430663730      1.31894312017973
  H          -6.48663175645779      1.79939081994939      6.82361902923628
  H          -4.80963347584476      1.17109521505786      6.64275682498136
  H          -6.16687099130932      0.03715419055871      6.95239575981451
  H          -6.06669474511435      3.02201084633947      4.72196898256299
  H          -6.08357692195526      2.19626306786774      3.14830401471698
  H          -4.51236286061807      2.23148841331615      4.29409135849071
  H          -5.62520430237822     -1.33106880346671      4.86954472823478
  H          -4.21068661418425     -0.26759659723032      4.56568378551442
  H          -5.42982958838812     -0.53381394443408      3.27416995211629
  H          -8.35570188212626     -1.93340223997022      1.58051027227926
  H          -7.01302013414181     -2.25738915498603      0.43501942231851
  H          -8.69354868413142     -2.70394760526779     -0.00679027739156
  H         -10.12738741742254     -0.13477127005661      1.00276539471492
  H         -10.41329584658924     -0.86960643648914     -0.61282945019386
  H          -9.94545219334706      0.85946701422417     -0.48015641157478
  H          -6.79208119473105     -0.89402947965279     -1.73687883826230
  H          -8.00330852040494      0.37112340696641     -2.12388228232107
  H          -8.46744207019349     -1.36837202634396     -2.17933003248376
