66
Coordinates from ORCA-job my_molecule_im5 E -2537.095856093072
  O           2.55335312874689     -0.12683972621466     -1.39619579359782
  Si          3.38491271016841      0.89577091614117     -0.37081352260229
  Si          2.51503815800780     -1.47038233073477     -2.42740429754894
  C           2.03269269509944      2.06392153560556      0.32242180290419
  C           1.20043860262005      2.94652523550191     -0.44684007908634
  C           1.44199800976450     -0.93245022134871     -3.87145492784546
  C           0.98711099104929      0.32772435442681     -4.02667884699860
  C           4.25879246441440     -0.02037524040247      1.02506503787951
  C           4.75529210456612      1.75677054687931     -1.35745530529358
  C           4.24274334986789     -1.93406899535708     -3.03835353751741
  C           1.77623001769487     -2.87991364737542     -1.42062041282004
  H           2.22239266336223      2.43223349586620      1.36230787807939
  H           1.19839664505294      2.86264265799321     -1.54804241151811
  H           0.97265290187371      3.96747725627973     -0.08645476990555
  H           1.15492319166255     -1.68376171694858     -4.63185902114117
  H           1.23056741287667      1.11680382762944     -3.29337288007687
  H           0.33935921491266      0.63439595976892     -4.86495984469863
  H           3.57811749658113     -0.57619637236435      1.69839699926640
  H           4.86648963331545      0.67871622450186      1.63816137145425
  H           4.96699503048321     -0.74648433219888      0.57265119030205
  H           4.40790283079864      2.29259878035395     -2.26277645376451
  H           5.43294081883870      0.94357573448724     -1.69934533649560
  H           5.37478726507557      2.45105276115398     -0.75292650557151
  H           4.72858242718549     -1.09549233436895     -3.57709741320335
  H           4.16133754402066     -2.78321757743081     -3.75003747482398
  H           4.90700061964104     -2.25866347159798     -2.21070196216787
  H           0.80126176114041     -2.56695004421445     -0.99820715868239
  H           2.45298796072291     -3.14766133391992     -0.58244984958562
  H           1.60750607092308     -3.78877889464103     -2.03238100772404
  Pt         -0.02190003220533      1.59474400694862      0.60340245049214
  O          -1.77879029748449      1.29351533815963     -0.37116987754042
  O          -2.44158924615043      0.18742846930561      1.85243144700795
  P          -2.09799324073414      0.17168105014410     -1.46980113709858
  P          -2.85317029375126      0.92161522117686      3.17353209187363
  O          -3.60487402443100     -0.22266904766405      4.12507162596268
  O          -3.71182792810186      2.18204906433319      3.06318232880493
  O          -0.78220898110995     -0.81911452955429     -1.30090763094982
  O          -2.29852879077202      1.01848396393017     -2.72616943187874
  C          -3.40777029035526     -1.21632119021808     -1.56424088882783
  C          -1.26788968730240      1.15562698186282      4.11399632532104
  C          -1.50640347006935      1.34451828797149      5.61656101528361
  C          -0.63619623309360      2.43704003351716      3.55474134523781
  C          -0.40469591896766     -0.08945295376483      3.83384581476905
  C          -3.25235600926114     -2.36508025462428     -0.55699180137429
  C          -4.85187025616277     -0.68873740468643     -1.55722286563084
  C          -3.06737700896375     -1.71808447478492     -2.99699778048432
  H          -4.56816110099604     -0.21182549845266      3.95455470123812
  H           0.00092534042405     -0.28069417667874     -1.02823263509147
  H          -2.16981345399318      2.21186117691007      5.80480945388281
  H          -0.53221084546026      1.54312563610804      6.11071268446635
  H          -1.96127100243530      0.44732364587983      6.07632202407774
  H          -1.26002968762674      3.32963256962103      3.75295361465386
  H          -0.54147424324306      2.38328243403837      2.43955989749473
  H           0.38787911574339      2.58797921908083      3.95525086609555
  H          -0.89841649472540     -1.00351556666078      4.22295458097666
  H           0.59436670399421      0.00157966257739      4.30676274936397
  H          -0.27430931205792     -0.24940643555751      2.74211593963933
  H          -3.50682385025036     -2.06393079909361      0.47861303891984
  H          -2.23090827185890     -2.78993704547812     -0.56191898694825
  H          -3.95074880839275     -3.17882719674422     -0.86039992538913
  H          -5.20524101530617     -0.41409763368671     -0.54380591272104
  H          -5.50784754964468     -1.50747045641728     -1.92956155825418
  H          -4.98334712328945      0.17520099854549     -2.23635700449737
  H          -2.01887489368441     -2.06728605371329     -3.06541595775460
  H          -3.20265103606655     -0.89810255811778     -3.72726087164519
  H          -3.73840448268077     -2.56110753168432     -3.25749519669189
