66
Coordinates from ORCA-job my_molecule_product E -2537.179389551941
  O          -1.73121929841862     -0.44975040349022     -0.10814322724887
  Si         -0.70628408608164      0.12370730999342      1.09745235788225
  Si         -2.54699285447247     -0.28591681124748     -1.56391144999143
  C          -1.74857061438630      0.36570572629136      2.65012733376027
  C          -1.82052541700492      1.50269955621343      3.37341822824091
  C          -4.05141974850696      0.82706718809772     -1.29391784174738
  C          -4.34807920192873      1.46296690396248     -0.13570322976293
  C           0.59258779403627     -1.20788418928599      1.40526311682990
  C           0.09597544140559      1.74965776013773      0.56953091618820
  C          -1.42729382575644      0.48689851983624     -2.87429630059683
  C          -3.12164015734835     -1.99771642320245     -2.10458929695459
  H          -2.34577890479133     -0.50030656385935      2.99845276534912
  H          -1.26093876864113      2.41254118003984      3.09193155115653
  H          -2.44200832499357      1.58731578721780      4.28310921413324
  H          -4.75375078944286      0.97916698738380     -2.13857821801945
  H          -3.71777739702586      1.36080833790941      0.76634369760069
  H          -5.23574136996716      2.11410548453560     -0.03924628822468
  H           0.11324119047536     -2.16468310602678      1.69658772631605
  H           1.28487005567043     -0.91039274497926      2.21959443640730
  H           1.19386357108228     -1.39393387410297      0.49146689169941
  H          -0.66503514409559      2.52793178081977      0.35588143493680
  H           0.69948537887419      1.60242316469862     -0.34964360146561
  H           0.77483239821560      2.14042917946867      1.35555016996211
  H          -1.07355691726097      1.48988321829730     -2.56049470346921
  H          -1.96956778729914      0.60510664230216     -3.83536881533375
  H          -0.53928482160916     -0.15165643174581     -3.06162653516347
  H          -3.80509580588216     -2.44132684478025     -1.35270006265748
  H          -2.25743416583489     -2.68053692566364     -2.23613608671441
  H          -3.66672594729270     -1.94317647925504     -3.06984003317960
  Pt         -7.65018748247443      1.02945665786075      1.94319375995181
  O          -8.41227438845915      0.09825964778825      0.48902529619137
  O          -6.86431227381738      1.74249733916600      3.50587182089729
  P          -7.61052292418842     -0.53435148296029     -0.82901847648807
  P          -7.66355745828604      2.42569043651457      4.79519159119401
  O          -8.95343500327390      1.45632427397871      5.09975786431114
  O          -7.97572767944755      3.86852549695773      4.49011745207410
  O          -6.21413386058318     -1.16498030216256     -0.27040025799834
  O          -7.47548773838276      0.53671191363460     -1.88684322646949
  C          -8.61066719991272     -2.01956611278605     -1.27332550569419
  C          -6.56095460556278      2.08663107209009      6.23375813229474
  C          -7.27313279873328      2.63746481487577      7.48678554105397
  C          -5.25278929700088      2.86213816946476      5.97130472474181
  C          -6.29069020289273      0.57663935243343      6.36510780663999
  C          -8.69225322889616     -2.99068665397253     -0.08145788836296
  C         -10.01020039907199     -1.51070043317835     -1.67480992536441
  C          -7.91100679176971     -2.68009297085816     -2.47989060754420
  H          -9.64679199820409      1.60459909171305      4.42217501369844
  H          -5.50440202474490     -0.46456305259606     -0.27207608773492
  H          -7.51300457616231      3.71336572838267      7.37185223132467
  H          -6.60707568644983      2.52334530807264      8.36748821863704
  H          -8.21514280381912      2.09201897232438      7.69355635088761
  H          -5.44783708517514      3.94382930298910      5.83242088320551
  H          -4.73551508328740      2.48701590006797      5.06570218667603
  H          -4.57190686283036      2.73825819110619      6.83916268079329
  H          -7.22594171966861      0.00621885391046      6.52783476966270
  H          -5.62214703958297      0.39945568578817      7.23376208304777
  H          -5.79057326627622      0.17308946574686      5.46217938045335
  H          -9.18935726204340     -2.52347335319767      0.79196555465411
  H          -7.68752850299555     -3.33438075123587      0.23356346457485
  H          -9.28581509581954     -3.88227572111537     -0.37438143999895
  H         -10.52939241593573     -1.03547234678459     -0.81948981766599
  H         -10.62629280635819     -2.36529799112620     -2.02440907310304
  H          -9.94664189796818     -0.76831311279460     -2.49487847670411
  H          -6.90445826687027     -3.05773852041436     -2.21141415933549
  H          -7.80222889901132     -1.96629008166954     -3.32086830764443
  H          -8.52016785575886     -3.53888671758025     -2.83148770679117
