66
Coordinates from ORCA-job my_molecule_reactant E -2537.143798090823
  O      -2.415564      0.232470     -0.040311
  Si     -1.549521      1.378796      0.831386
  Si     -2.454389     -1.358941     -0.592198
  C      -2.691234      2.867866      1.073235
  C      -3.908291      3.074695      0.345541
  C      -3.395919     -1.347737     -2.220940
  C      -3.887643     -0.235896     -2.805284
  C      -0.990158      0.675003      2.492554
  C      -0.046741      1.934596     -0.173860
  C      -0.694506     -1.994379     -0.876767
  C      -3.343947     -2.440239      0.671923
  H      -2.194250      3.779318      1.468514
  H      -4.268688      2.320136     -0.376208
  H      -4.295730      4.094117      0.165400
  H      -3.554793     -2.316278     -2.735695
  H      -3.760491      0.756771     -2.339231
  H      -4.433878     -0.261199     -3.764853
  H      -1.854280      0.264552      3.053498
  H      -0.522026      1.463658      3.117832
  H      -0.244199     -0.135412      2.356766
  H      -0.357515      2.316079     -1.167784
  H       0.660037      1.094304     -0.334451
  H       0.504541      2.745735      0.345958
  H      -0.145141     -1.345128     -1.588585
  H      -0.711188     -3.020489     -1.300029
  H      -0.120379     -2.034208      0.072526
  H      -4.348710     -2.019443      0.879924
  H      -2.780124     -2.487371      1.626554
  H      -3.466843     -3.477637      0.297075
  Pt     -4.346999      2.499793      2.299374
  O      -8.009668      1.202880      2.108643
  O      -8.102639      0.025229      3.041378
  P      -7.310478      0.779111      0.618618
  P      -7.893806      0.595773      4.616297
  O      -8.182860     -0.854788      5.330032
  O      -8.761686      1.743922      5.025219
  O      -5.887418      0.074164      0.971505
  O      -7.282455      2.089440     -0.118299
  C      -8.311015     -0.574065     -0.155582
  C      -6.068559      0.811061      4.895600
  C      -5.873401      0.964655      6.420362
  C      -5.648589      2.134652      4.205869
  C      -5.292850     -0.403691      4.361488
  C      -8.076609     -1.941719      0.511789
  C      -9.789672     -0.148258     -0.046795
  C      -7.867212     -0.610444     -1.635544
  H      -9.132736     -0.908865      5.561176
  H      -5.231649      0.780835      1.318838
  H      -6.481737      1.798577      6.823257
  H      -4.804705      1.171311      6.639258
  H      -6.160634      0.036552      6.951713
  H      -6.066729      3.021147      4.719990
  H      -6.084696      2.194529      3.146711
  H      -4.512273      2.231403      4.290852
  H      -5.622637     -1.331766      4.867819
  H      -4.209047     -0.267762      4.561488
  H      -5.430333     -0.534436      3.272108
  H      -8.359795     -1.933076      1.581317
  H      -7.017542     -2.255514      0.434885
  H      -8.698095     -2.702629     -0.006368
  H     -10.132477     -0.134558      1.006156
  H     -10.419271     -0.868616     -0.609621
  H      -9.952005      0.860585     -0.476307
  H      -6.798850     -0.890606     -1.736441
  H      -8.010889      0.374340     -2.121605
  H      -8.474357     -1.365284     -2.178030
66
Coordinates from ORCA-job my_molecule_reactant E -2537.143773894997
  O      -2.431277      0.232305     -0.032607
  Si     -1.557405      1.378914      0.830843
  Si     -2.474810     -1.358972     -0.584497
  C      -2.695721      2.869735      1.077479
  C      -3.914024      3.079490      0.352742
  C      -3.444833     -1.349771     -2.196438
  C      -3.951328     -0.239263     -2.770616
  C      -0.987943      0.677346      2.489533
  C      -0.060703      1.930878     -0.185528
  C      -0.718269     -1.989068     -0.899966
  C      -3.338984     -2.443362      0.694486
  H      -2.196220      3.779929      1.472500
  H      -4.276969      2.326492     -0.369390
  H      -4.300339      4.099738      0.174871
  H      -3.609129     -2.318403     -2.709316
  H      -3.819988      0.753369     -2.305624
  H      -4.514470     -0.265695     -3.720334
  H      -1.848889      0.269137      3.056965
  H      -0.514549      1.466460      3.110253
  H      -0.244039     -0.134365      2.350245
  H      -0.377637      2.310856     -1.178082
  H       0.643923      1.089379     -0.349224
  H       0.495064      2.742308      0.329041
  H      -0.183244     -1.337796     -1.620808
  H      -0.739273     -3.014979     -1.323513
  H      -0.127643     -2.027756      0.039192
  H      -4.340863     -2.025178      0.920819
  H      -2.758067     -2.489759      1.638844
  H      -3.466032     -3.480783      0.321087
  Pt     -4.349864      2.502145      2.306341
  O      -7.987636      1.201229      2.100426
  O      -8.092640      0.024143      3.032715
  P      -7.279499      0.774347      0.615425
  P      -7.894826      0.594256      4.609255
  O      -8.186741     -0.856889      5.320634
  O      -8.766545      1.741336      5.012970
  O      -5.862379      0.062457      0.978227
  O      -7.239734      2.084624     -0.121028
  C      -8.280865     -0.573781     -0.166511
  C      -6.071629      0.811653      4.899584
  C      -5.885074      0.964535      6.425505
  C      -5.650243      2.136163      4.212739
  C      -5.291388     -0.401631      4.368727
  C      -8.059536     -1.942413      0.503315
  C      -9.758059     -0.139943     -0.070309
  C      -7.824726     -0.613257     -1.642660
  H      -9.137997     -0.912101      5.545760
  H      -5.204720      0.766244      1.328135
  H      -6.496791      1.797328      6.825601
  H      -4.817890      1.172537      6.650410
  H      -6.173909      0.035676      6.954667
  H      -6.068301      3.022131      4.727846
  H      -6.086020      2.197871      3.153581
  H      -4.513901      2.232156      4.298104
  H      -5.622627     -1.330538      4.872571
  H      -4.208869     -0.264366      4.574683
  H      -5.422787     -0.531737      3.278512
  H      -8.351383     -1.931695      1.570488
  H      -7.001683     -2.262175      0.435176
  H      -8.681025     -2.700082     -0.019572
  H     -10.109609     -0.123996      0.979719
  H     -10.386786     -0.857106     -0.638171
  H      -9.911323      0.869594     -0.501523
  H      -6.757083     -0.899346     -1.734358
  H      -7.958837      0.372076     -2.130327
  H      -8.431353     -1.365012     -2.189977
66
Coordinates from ORCA-job my_molecule_reactant E -2537.143798088412
  O      -2.417638      0.233360     -0.037192
  Si     -1.547941      1.377895      0.833213
  Si     -2.459403     -1.357328     -0.590951
  C      -2.686791      2.868730      1.077431
  C      -3.903231      3.079111      0.349723
  C      -3.412030     -1.344239     -2.213208
  C      -3.908988     -0.231869     -2.792097
  C      -0.986951      0.672628      2.493223
  C      -0.045968      1.931458     -0.174477
  C      -0.701201     -1.991579     -0.888301
  C      -3.339870     -2.440738      0.677716
  H      -2.188080      3.778602      1.474186
  H      -4.264643      2.326575     -0.373622
  H      -4.288710      4.099562      0.171218
  H      -3.573505     -2.312035     -2.728554
  H      -3.779780      0.760069     -2.325044
  H      -4.461833     -0.256022     -3.747905
  H      -1.850843      0.263528      3.055511
  H      -0.516372      1.460260      3.117952
  H      -0.242648     -0.139055      2.355912
  H      -0.357787      2.313660     -1.167798
  H       0.659177      1.090054     -0.336424
  H       0.507491      2.741593      0.344598
  H      -0.156896     -1.341004     -1.602798
  H      -0.720271     -3.017051     -1.313002
  H      -0.120706     -2.032599      0.057057
  H      -4.343246     -2.020515      0.893416
  H      -2.769368     -2.489157      1.628304
  H      -3.465122     -3.477596      0.302149
  Pt     -4.343923      2.501484      2.302604
  O      -8.007387      1.203514      2.103476
  O      -8.101438      0.026778      3.037252
  P      -7.306484      0.778161      0.614669
  P      -7.895411      0.598597      4.612099
  O      -8.187337     -0.851122      5.326376
  O      -8.763211      1.747792      5.018237
  O      -5.882858      0.075527      0.969856
  O      -7.279425      2.087298     -0.124392
  C      -8.304749     -0.577482     -0.158177
  C      -6.070578      0.812422      4.895344
  C      -5.878519      0.964999      6.420607
  C      -5.648102      2.136158      4.207446
  C      -5.294665     -0.402619      4.362187
  C      -8.069531     -1.943705      0.511843
  C      -9.783996     -0.153139     -0.051713
  C      -7.859269     -0.615983     -1.637589
  H      -9.137743     -0.904084      5.555604
  H      -5.228065      0.783682      1.316311
  H      -6.487044      1.799165      6.822704
  H      -4.810124      1.170665      6.641881
  H      -6.167605      0.036814      6.950817
  H      -6.065863      3.022642      4.721905
  H      -6.082746      2.197697      3.147782
  H      -4.511796      2.231502      4.293975
  H      -5.626107     -1.330691      4.867434
  H      -4.211168     -0.267537      4.564413
  H      -5.430075     -0.532781      3.272482
  H      -8.353780     -1.933478      1.581069
  H      -7.010062     -2.256496      0.436535
  H      -8.689680     -2.706204     -0.005585
  H     -10.127950     -0.138067      1.000842
  H     -10.412170     -0.875146     -0.614021
  H      -9.947001      0.854795     -0.483105
  H      -6.790487     -0.895171     -1.736809
  H      -8.003460      0.367783     -2.125548
  H      -8.464979     -1.372448     -2.179410
66
Coordinates from ORCA-job my_molecule_reactant E -2537.143790720123
  O      -2.415782      0.231661     -0.045182
  Si     -1.553694      1.380396      0.827256
  Si     -2.450994     -1.361011     -0.593700
  C      -2.699330      2.866639      1.067925
  C      -3.918100      3.068893      0.341829
  C      -3.380510     -1.353311     -2.229340
  C      -3.867203     -0.242622     -2.820044
  C      -0.994117      0.678399      2.489122
  C      -0.051352      1.939879     -0.176608
  C      -0.689229     -1.997440     -0.863980
  C      -3.349902     -2.439205      0.666458
  H      -2.204221      3.780051      1.461042
  H      -4.277917      2.311898     -0.377677
  H      -4.308588      4.086924      0.160385
  H      -3.535931     -2.322989     -2.742998
  H      -3.742918      0.751105     -2.355498
  H      -4.406193     -0.269943     -3.783645
  H      -1.857758      0.265935      3.049334
  H      -0.528504      1.468319      3.114686
  H      -0.246056     -0.130219      2.354191
  H      -0.362074      2.320291     -1.170958
  H       0.657811      1.101411     -0.336219
  H       0.497222      2.752602      0.343604
  H      -0.134512     -1.349832     -1.573137
  H      -0.702990     -3.024466     -1.285121
  H      -0.122101     -2.035300      0.089599
  H      -4.356082     -2.017780      0.866154
  H      -2.793027     -2.484215      1.625258
  H      -3.470244     -3.477444      0.293120
  Pt     -4.351977      2.496648      2.297354
  O      -8.005152      1.201740      2.114098
  O      -8.101430      0.023217      3.045385
  P      -7.307257      0.777876      0.623464
  P      -7.892118      0.591867      4.620892
  O      -8.178502     -0.859939      5.333178
  O      -8.761107      1.738422      5.031932
  O      -5.887314      0.066141      0.975369
  O      -7.273334      2.089500     -0.110886
  C      -8.313521     -0.569436     -0.153632
  C      -6.066924      0.809515      4.898250
  C      -5.870346      0.964874      6.422663
  C      -5.649773      2.132812      4.206426
  C      -5.290283     -0.404783      4.364500
  C      -8.084010     -1.939804      0.509879
  C      -9.790438     -0.138203     -0.042702
  C      -7.870949     -0.603557     -1.634002
  H      -9.128098     -0.915589      5.565093
  H      -5.228476      0.769129      1.324295
  H      -6.479185      1.798523      6.825363
  H      -4.801650      1.172912      6.640259
  H      -6.156012      0.036993      6.955236
  H      -6.068703      3.019346      4.719828
  H      -6.087347      2.190658      3.147708
  H      -4.513547      2.231619      4.289795
  H      -5.618346     -1.332764      4.872124
  H      -4.206439     -0.267278      4.563195
  H      -5.428772     -0.536755      3.275383
  H      -8.366355     -1.932949      1.579627
  H      -7.026254     -2.257561      0.431290
  H      -8.708866     -2.696862     -0.009870
  H     -10.132483     -0.126108      1.010516
  H     -10.423179     -0.854562     -0.607110
  H      -9.949154      0.872438     -0.469325
  H      -6.803746     -0.887505     -1.736431
  H      -8.011232      0.383061     -2.117327
  H      -8.481362     -1.354642     -2.178035
66
Coordinates from ORCA-job my_molecule_reactant E -2537.143799305069
  O      -2.417558      0.232754     -0.039332
  Si     -1.549718      1.378416      0.831445
  Si     -2.457486     -1.358491     -0.591657
  C      -2.690372      2.867980      1.075027
  C      -3.907562      3.076262      0.347993
  C      -3.405076     -1.347062     -2.216867
  C      -3.900143     -0.235265     -2.798464
  C      -0.988721      0.674007      2.491821
  C      -0.047886      1.933646     -0.175538
  C      -0.698312     -1.992827     -0.882989
  C      -3.341680     -2.440757      0.675394
  H      -2.192534      3.778751      1.470826
  H      -4.268707      2.322585     -0.374309
  H      -4.294447      4.096075      0.168876
  H      -3.564887     -2.315364     -2.731773
  H      -3.772330      0.757148     -2.332040
  H      -4.449926     -0.260363     -3.756012
  H      -1.852435      0.264021      3.053737
  H      -0.519311      1.462228      3.116686
  H      -0.243465     -0.136875      2.354962
  H      -0.359621      2.315327     -1.169083
  H       0.658369      1.093074     -0.336969
  H       0.504299      2.744525      0.343734
  H      -0.151861     -1.342830     -1.596370
  H      -0.715936     -3.018684     -1.306818
  H      -0.120754     -2.032920      0.064209
  H      -4.345766     -2.020462      0.887614
  H      -2.774064     -2.488177      1.627757
  H      -3.465647     -3.477995      0.300456
  Pt     -4.346074      2.499904      2.301492
  O      -8.006733      1.203418      2.106158
  O      -8.101844      0.026276      3.039302
  P      -7.305880      0.778289      0.617257
  P      -7.894950      0.597219      4.614341
  O      -8.185761     -0.852998      5.328066
  O      -8.762880      1.745884      5.021710
  O      -5.883472      0.073150      0.972392
  O      -7.276493      2.088022     -0.120656
  C      -8.305960     -0.575150     -0.157138
  C      -6.070003      0.811703      4.896154
  C      -5.876813      0.964845      6.421220
  C      -5.648661      2.135287      4.207342
  C      -5.294098     -0.403231      4.362770
  C      -8.072410     -1.942515      0.511139
  C      -9.784650     -0.149062     -0.049958
  C      -7.860742     -0.612373     -1.636657
  H      -9.135978     -0.906454      5.557956
  H      -5.227826      0.779808      1.319998
  H      -6.485242      1.798988      6.823510
  H      -4.808300      1.170850      6.641617
  H      -6.165262      0.036767      6.951958
  H      -6.066707      3.021820      4.721476
  H      -6.083914      2.195976      3.147845
  H      -4.512396      2.231460      4.293209
  H      -5.624829     -1.331263      4.868557
  H      -4.210492     -0.267712      4.564113
  H      -5.430306     -0.533748      3.273198
  H      -8.356451     -1.933256      1.580425
  H      -7.013366     -2.256600      0.435232
  H      -8.693645     -2.703556     -0.007131
  H     -10.128451     -0.134910      1.002660
  H     -10.413800     -0.869554     -0.613119
  H      -9.946437      0.859624     -0.480047
  H      -6.792319     -0.892743     -1.736373
  H      -8.003800      0.372166     -2.123382
  H      -8.467453     -1.367436     -2.179313
66
Coordinates from ORCA-job my_molecule_reactant E -2537.143799377942
  O      -2.417757      0.233082     -0.039455
  Si     -1.549537      1.378449      0.831329
  Si     -2.458031     -1.358150     -0.591801
  C      -2.689944      2.868092      1.075508
  C      -3.907175      3.076811      0.348666
  C      -3.406381     -1.346583     -2.216567
  C      -3.901735     -0.234724     -2.797803
  C      -0.988256      0.673638      2.491442
  C      -0.047866      1.933688     -0.175888
  C      -0.699036     -1.992595     -0.883970
  C      -3.341699     -2.440391      0.675642
  H      -2.191890      3.778648      1.471522
  H      -4.268517      2.323441     -0.373855
  H      -4.293915      4.096744      0.169902
  H      -3.566460     -2.314840     -2.731482
  H      -3.773656      0.757639     -2.331358
  H      -4.452007     -0.259727     -3.755071
  H      -1.851915      0.263706      3.053482
  H      -0.518550      1.461646      3.116349
  H      -0.243188     -0.137361      2.354251
  H      -0.359765      2.315562     -1.169307
  H       0.658278      1.093076     -0.337596
  H       0.504498      2.744428      0.343409
  H      -0.152856     -1.342571     -1.597534
  H      -0.716911     -3.018415     -1.307880
  H      -0.121063     -2.032805      0.062970
  H      -4.345644     -2.020021      0.888382
  H      -2.773607     -2.487906      1.627718
  H      -3.465939     -3.477600      0.300713
  Pt     -4.345640      2.499904      2.302142
  O      -8.005219      1.203419      2.105388
  O      -8.101163      0.026422      3.038629
  P      -7.304642      0.777636      0.616531
  P      -7.895148      0.597487      4.613734
  O      -8.186449     -0.852655      5.327421
  O      -8.763250      1.746231      5.020511
  O      -5.882422      0.072151      0.971723
  O      -7.274898      2.087144     -0.121773
  C      -8.305279     -0.575692     -0.157363
  C      -6.070351      0.811905      4.896583
  C      -5.878035      0.965165      6.421751
  C      -5.648609      2.135440      4.207929
  C      -5.294189     -0.403124      4.363784
  C      -8.071950     -1.942977      0.511147
  C      -9.783831     -0.149187     -0.049928
  C      -7.860407     -0.613351     -1.636976
  H      -9.136802     -0.906021      5.556777
  H      -5.226399      0.778764      1.318943
  H      -6.486632      1.799391      6.823619
  H      -4.809633      1.171095      6.642757
  H      -6.166871      0.037154      6.952396
  H      -6.066695      3.022011      4.721969
  H      -6.083577      2.196263      3.148304
  H      -4.512363      2.231488      4.294091
  H      -5.625204     -1.331069      4.869545
  H      -4.210687     -0.267597      4.565684
  H      -5.429830     -0.533814      3.274170
  H      -8.355702     -1.933402      1.580510
  H      -7.013020     -2.257389      0.435019
  H      -8.693549     -2.703948     -0.006790
  H     -10.127387     -0.134771      1.002765
  H     -10.413296     -0.869606     -0.612829
  H      -9.945452      0.859467     -0.480156
  H      -6.792081     -0.894029     -1.736879
  H      -8.003309      0.371123     -2.123882
  H      -8.467442     -1.368372     -2.179330
