66
Coordinates from ORCA-job my_molecule_im3 E -2537.123844130024
  O           2.58445652434951     -0.16766768679620     -1.42830110073138
  Si          3.42941719112268      0.91248034060795     -0.46255337595179
  Si          2.52128005628569     -1.49514140090053     -2.47017363307043
  C           2.16414999818225      2.21595872664621      0.16072932081878
  C           1.56323811393268      3.20601933397308     -0.68142635969192
  C           1.41697759195474     -0.93577568553506     -3.88664602422006
  C           0.96281363230343      0.33027540147803     -3.99797895843406
  C           4.25897366288215      0.00358289517244      0.96877914336987
  C           4.82187287362758      1.73400061604166     -1.45692864150535
  C           4.23578727718948     -1.95463179579659     -3.12195650573854
  C           1.80098121413051     -2.92522619146197     -1.47531767566578
  H           2.35740672850898      2.55519325013461      1.20271799478962
  H           1.71948233802276      3.16948325511530     -1.77562814784878
  H           1.39898490413273      4.22938928442349     -0.29352242534403
  H           1.13350465326762     -1.66035840957075     -4.67404578510526
  H           1.20733441935395      1.09308088882203     -3.23826130597520
  H           0.32407183659920      0.66612635983542     -4.83293743719842
  H           3.54323053466281     -0.52972058205381      1.62470996802638
  H           4.85686381548554      0.69845936959394      1.59513562839079
  H           4.96555043753064     -0.74665193022364      0.55346959577687
  H           4.46635068360462      2.29101807458473     -2.34677121080495
  H           5.53087844137929      0.95385030427086     -1.80951331476188
  H           5.40392466154525      2.43653344966554     -0.82338961984103
  H           4.71591808872712     -1.10468973480566     -3.64825951869405
  H           4.15257296472378     -2.79221580511488     -3.84698303090003
  H           4.90838776465654     -2.28985652239820     -2.30485708550937
  H           0.83844896866171     -2.62446274824250     -1.01831982286497
  H           2.49780636949215     -3.20784540475926     -0.65886010496778
  H           1.61752686661625     -3.82387786802715     -2.09787764035908
  Pt          0.03600962708711      1.87631367637142      0.00695210258047
  O          -1.83985184027649      0.86387479459840      0.65819851137964
  O          -3.11382569447837     -0.17457120921894      1.91013553244435
  P          -1.99033052944270      0.06632459242669     -0.77808169978166
  P          -3.16918708544491      0.83044072106745      3.17101318694093
  O          -3.82135221212433     -0.27709264339180      4.24782386590768
  O          -3.98145907226636      2.10007850167407      3.08345620290045
  O          -0.72213078475714     -0.97456711733595     -0.78114330834321
  O          -1.73726192735600      1.27741972266758     -1.71793152287502
  C          -3.32213321652717     -1.17252822455522     -1.32411478606313
  C          -1.45943388255496      1.07632622462050      3.88236963083606
  C          -1.60328089089607      1.35754726409202      5.39386425952685
  C          -0.81815304916900      2.32554792761518      3.24327462160883
  C          -0.62155840192757     -0.18878537540604      3.63811337613960
  C          -3.25759542863261     -2.47509502820335     -0.49220259551512
  C          -4.77154037427762     -0.65763024350630     -1.35386447604746
  C          -2.87817917309178     -1.45790753809480     -2.78796873409711
  H          -4.79477038955123     -0.18699829162113      4.18885676349601
  H           0.09768874047233     -0.41421962717617     -0.71789309217056
  H          -2.22266153867233      2.25874077764367      5.57535455446545
  H          -0.59657108836039      1.54092015315049      5.82818311290970
  H          -2.06619956261539      0.50449333934026      5.92626618740831
  H          -1.44852527889631      3.22554105477473      3.38684956609687
  H          -0.66528936477216      2.22047904654528      2.13942350612273
  H           0.18095037221147      2.50467731125404      3.69478387584894
  H          -1.08784605769926     -1.07043779156847      4.12118022219789
  H           0.39668568872926     -0.06122912786148      4.06440732391641
  H          -0.53328500061626     -0.40684252017344      2.55642783805270
  H          -3.58861799537473     -2.31661601826774      0.55132431940886
  H          -2.24614001740080     -2.92137825584039     -0.48390155221572
  H          -3.94433005844711     -3.21327349912765     -0.96544605505701
  H          -5.18064838685366     -0.46087439847401     -0.34541726682458
  H          -5.38826551761534     -1.46229997931199     -1.81694060986034
  H          -4.89067394135634      0.24312770579558     -1.98631416961284
  H          -1.83338102253857     -1.81708396694714     -2.84564676090747
  H          -2.97469050429319     -0.55388249879628     -3.42125180287241
  H          -3.54035775314573     -2.24586924343818     -3.20517305393326
