66
Coordinates from ORCA-job my_molecule_im8 E -2537.155826311282
  O           2.95010943809207     -0.31987111853370     -1.25712876031081
  Si          4.02931960583879      0.58163897919541     -0.33696927390584
  Si          2.54455211615128     -1.21010066737685     -2.61817272728259
  C           2.99485222472883      1.68594514629387      0.79999282677777
  C           2.40965878170806      2.82804179516113      0.43600936332161
  C           1.19307058285804     -0.25174779819552     -3.50571022488075
  C           0.79489275451167      0.98824300498358     -3.14160482386336
  C           5.05430961879076     -0.60314034256114      0.70754614902441
  C           5.14228816629750      1.61762883350131     -1.45692773372582
  C           4.05113600203271     -1.42935046896847     -3.73420712236989
  C           1.83852390521034     -2.86680072259224     -2.06055325285990
  H           2.85266681177991      1.34503522438557      1.84761694595518
  H           2.49393277529484      3.23944147353364     -0.59055506018327
  H           1.79639048622390      3.43553684747009      1.13467077582002
  H           0.66975079891903     -0.72682511109339     -4.35846439913720
  H           1.27671570483613      1.50930463388062     -2.29479054683704
  H          -0.03014449400048      1.51001869185015     -3.65090200254580
  H           4.39365644940067     -1.25573698396991      1.31426282401260
  H           5.72461544605677     -0.05249378990832      1.39915794184156
  H           5.68367476970317     -1.25504300726016      0.06793686830968
  H           4.55873724995735      2.27460570110041     -2.13330482744077
  H           5.78198040009552      0.96467079746428     -2.08583573361342
  H           5.80961284213942      2.26254405760146     -0.84887544285094
  H           4.46152580009429     -0.44259353150069     -4.02979635329898
  H           3.77990788799214     -1.97460801992335     -4.66101108679344
  H           4.85170535398033     -2.00096229119117     -3.22186625325897
  H           0.95389237759848     -2.69933622790120     -1.41288280727797
  H           2.58420021453812     -3.45534168740536     -1.48966342081337
  H           1.51230892027108     -3.47106386969581     -2.93201236311919
  Pt         -2.78180084108506      1.65855911191510      0.40831910031677
  O          -3.57457579450240      0.42120653447128     -0.75694275437411
  O          -1.98626371664549      1.36189938992881      2.08042991613274
  P          -2.60854709000021     -0.41809732100767     -1.84034606016570
  P          -2.83079517649800      1.76791065307209      3.46026729625282
  O          -3.68975066303371      0.42840523644176      3.88418906433991
  O          -3.65917112244248      3.01990644480246      3.37112116083729
  O          -1.25357691448422     -0.87935222073904     -1.03333302798726
  O          -2.37208550248567      0.40001057745021     -3.08175154500931
  C          -3.59311324141031     -1.96600482619496     -2.02198063178051
  C          -1.32809607623870      1.73899962661347      4.53543558754634
  C          -1.77258055024538      2.08996942347545      5.96370494598984
  C          -0.40158330180121      2.83055563733476      3.95444820942713
  C          -0.67501048265912      0.34611415116589      4.45695771540486
  C          -3.42689609863870     -2.89697119091836     -0.80727563344668
  C          -5.06903315557657     -1.53946828151462     -2.17584275130160
  C          -3.06255622255574     -2.61399283916254     -3.31377258630368
  H          -4.63731787695456      0.61231744702486      3.71524195770168
  H          -0.48953513108356     -0.34083678282293     -1.34876594913300
  H          -2.31193042715274      3.05741068600926      5.98649071624507
  H          -0.87714330881298      2.17272053533530      6.61352303875435
  H          -2.43683911539056      1.30859794485131      6.38213953192499
  H          -0.90128922064809      3.82009360074437      3.96171190415303
  H          -0.12258266232095      2.59726133015635      2.90833221861174
  H           0.52646453732110      2.89588346819615      4.55676236502854
  H          -1.36179770837311     -0.44510074446712      4.81725321331225
  H           0.23907992812803      0.32924084698551      5.08552902474235
  H          -0.38780651105310      0.09929005264631      3.41664343226401
  H          -3.77900976342562     -2.42170808591182      0.13070788334869
  H          -2.37436972783412     -3.20700571945906     -0.66158660003188
  H          -4.03843178781887     -3.80959957330014     -0.97089315204421
  H          -5.46299178033544     -1.12228417003149     -1.22895108713141
  H          -5.68067536508543     -2.42228386775590     -2.45263781563950
  H          -5.19301495154586     -0.76954455691725     -2.96368041669706
  H          -1.99853138104052     -2.90780083091266     -3.20400077472187
  H          -3.13270084409903     -1.90223878866734     -4.15933858218811
  H          -3.65198394327235     -3.52170244718205     -3.55406839307202
