66
Coordinates from ORCA-job my_molecule_im7 E -2537.135453825727
  O           2.75168669938239     -0.13172433879768     -1.31613546092388
  Si          3.78794729204500      0.79722617430780     -0.37444663137351
  Si          2.54858872707730     -1.32465649566730     -2.49142533476057
  C           2.73043805584398      2.09858608125662      0.51491074454956
  C           1.93353709455481      2.97808282695872     -0.07767542776113
  C           1.35160818098797     -0.60084420464210     -3.74537848973009
  C           0.90915315991223      0.65891890495989     -3.70394248094216
  C           4.66712521128319     -0.28894332957166      0.89195097082948
  C           5.06984252393324      1.64432196299478     -1.47296460618197
  C           4.18821567334528     -1.75583265037160     -3.32465079977624
  C           1.80155239548557     -2.84134709622442     -1.65690701548306
  H           2.82061686656539      2.15234757490663      1.62314947023993
  H           1.78459028466349      3.01015194977003     -1.18011985952816
  H           1.37269770700566      3.76302784304437      0.48312808296694
  H           0.96851712084365     -1.26076685221981     -4.55372876292230
  H           1.25065291843017      1.35902593022584     -2.91366781215893
  H           0.16947846876740      1.06785472060000     -4.41783767899017
  H           3.94952979512959     -0.84762162112576      1.52688897003575
  H           5.31172473461718      0.32338506504748      1.55727671470885
  H           5.32072958105440     -1.02752549214170      0.38282406494605
  H           4.58936110132290      2.24485276445884     -2.27199379010123
  H           5.72746420939395      0.89241632306606     -1.95693927069582
  H           5.71309040268713      2.32480302789461     -0.87713290466804
  H           4.65219704543435     -0.85820871833431     -3.78165035723449
  H           4.01519377125763     -2.49231650764464     -4.13717165434191
  H           4.91289744773454     -2.20377007719652     -2.61393713109481
  H           0.85592496744512     -2.56764371992050     -1.14613999357895
  H           2.49687874082382     -3.26913843065129     -0.90588835526485
  H           1.56984926271486     -3.63276594721182     -2.39935614667325
  Pt         -2.27685040079685      1.91765541214056      0.66055537362308
  O          -3.22221118637240      0.71853739399845     -0.51247584751003
  O          -2.40228917175639      0.56793117084892      2.05107683389564
  P          -2.41988429945899     -0.10541479416072     -1.66951172861510
  P          -2.86160606445823      1.29390415956558      3.43966030712805
  O          -3.69210691893568      0.11727238708790      4.21463088754341
  O          -3.59647171835524      2.60096113458384      3.22472107094577
  O          -1.07561031938255     -0.75900256050189     -0.97476468842461
  O          -2.15773506906646      0.74947080400933     -2.88229911555830
  C          -3.52188596411139     -1.58490817781778     -1.87677145232849
  C          -1.27528486729015      1.39681264638907      4.35930501477277
  C          -1.57759382263937      1.67921656666322      5.83985041161664
  C          -0.52540401782298      2.58329686825470      3.71621991848096
  C          -0.50341863987850      0.07760340892150      4.16764823396493
  C          -3.33609041328484     -2.61865006888624     -0.74936404910465
  C          -4.99201993850435     -1.12016087802464     -1.92106263199204
  C          -3.08615996303995     -2.15971618987713     -3.23794684465647
  H          -4.62900510016808      0.13482976423000      3.93370981443821
  H          -0.29456100435195     -0.19656602055411     -1.15488604347893
  H          -2.19432047324181      2.59398143093261      5.95417154802711
  H          -0.62973564795092      1.82572104844175      6.39777101807725
  H          -2.12707294677770      0.83291356004201      6.29703230432450
  H          -1.07860442743982      3.53225243331697      3.85458722164938
  H          -0.36893347706300      2.43368090629884      2.61962270891157
  H           0.48461977248957      2.68479827861944      4.16499150130241
  H          -1.08124214913393     -0.78437065518033      4.55627412729443
  H           0.46389091127573      0.12287130085806      4.70824298822908
  H          -0.30195544658535     -0.11102060764840      3.09578324246168
  H          -3.63361448739681     -2.21342006785696      0.23872520876108
  H          -2.29042614180092     -2.97284276266270     -0.67452093338305
  H          -3.98301051751579     -3.49765975056891     -0.96362064157304
  H          -5.33683399363194     -0.77726288302968     -0.92598839832476
  H          -5.63200732933630     -1.97263432694727     -2.23475221292671
  H          -5.14565130660414     -0.29276984786537     -2.64149385956394
  H          -2.02160067550513     -2.47108582155590     -3.21056365986017
  H          -3.19313925855221     -1.39387772207419     -4.03084954888043
  H          -3.70526296529736     -3.04424320776111     -3.49474713335829
