66
Coordinates from ORCA-job my_molecule_initial_path E   0.000000000000
  O       2.515242      0.048421     -1.387631
  Si      3.383462      1.193788     -0.516847
  Si      2.474968     -1.542811     -1.939978
  C       2.243055      2.683431     -0.272668
  C       1.025824      2.892150     -0.999510
  C       1.526618     -1.531244     -3.564743
  C       1.031264     -0.419385     -4.145980
  C       3.944743      0.488977      1.143266
  C       4.885134      1.749027     -1.524064
  C       4.233963     -2.177256     -2.232146
  C       1.591300     -2.625052     -0.672534
  H       2.741109      3.593987      0.123346
  H       0.664482      2.138780     -1.722031
  H       0.639084      3.912083     -1.178274
  H       1.366539     -2.499501     -4.079658
  H       1.159343      0.572978     -3.679534
  H       0.480992     -0.444388     -5.103247
  H       3.081084      0.079045      1.705306
  H       4.414450      1.276986      1.768173
  H       4.689812     -0.322022      1.006075
  H       4.573234      2.130901     -2.517483
  H       5.591277      0.908415     -1.685772
  H       5.437497      2.559767     -1.004767
  H       4.780143     -1.527232     -2.945710
  H       4.216088     -3.203076     -2.656057
  H       4.811936     -2.217466     -1.285206
  H       0.587355     -2.204682     -0.459794
  H       2.159392     -2.672566      0.279542
  H       1.467060     -3.662261     -1.047463
  Pt      0.587359      2.315243      0.953965
  O      -3.072220      1.018759      0.757211
  O      -3.168164     -0.158239      1.690453
  P      -2.371643      0.592975     -0.731646
  P      -2.962149      0.412826      3.265558
  O      -3.253450     -1.037315      3.979245
  O      -3.830251      1.561570      3.672334
  O      -0.949422     -0.112510     -0.376453
  O      -2.341899      1.902483     -1.469949
  C      -3.372280     -0.760353     -1.505539
  C      -1.137352      0.627244      3.548407
  C      -0.945036      0.780504      5.073575
  C      -0.715610      1.950779      2.859753
  C      -0.361190     -0.587785      3.015607
  C      -3.138951     -2.127638     -0.837029
  C      -4.850832     -0.333848     -1.398104
  C      -2.927408     -0.798012     -2.985152
  H      -4.203803     -1.090681      4.208601
  H      -0.293400      0.594103     -0.029233
  H      -1.553633      1.614730      5.475443
  H       0.123366      0.986434      5.294580
  H      -1.233872     -0.147507      5.604219
  H      -1.133696      2.837350      3.373793
  H      -1.150578      2.011602      1.800128
  H       0.420636      2.046828      2.945915
  H      -0.692205     -1.515730      3.521368
  H       0.722312     -0.452258      3.217507
  H      -0.496830     -0.718475      1.925994
  H      -3.422703     -2.118063      0.232334
  H      -2.080021     -2.442050     -0.913157
  H      -3.760550     -2.888609     -1.354967
  H      -5.194388     -0.319432     -0.345411
  H      -5.480297     -1.054267     -1.961006
  H      -5.012453      0.674806     -1.828333
  H      -1.859082     -1.078690     -3.085055
  H      -3.070309      0.186462     -3.472059
  H      -3.534443     -1.553033     -3.527506
66
Coordinates from ORCA-job my_molecule_initial_path E   0.000000000000
  O       2.615233      0.025323     -1.383597
  Si      3.544004      1.098141     -0.493072
  Si      2.512951     -1.485171     -2.104671
  C       2.471516      2.606382     -0.144909
  C       1.365594      3.071723     -0.911666
  C       1.492594     -1.294851     -3.667277
  C       1.015047     -0.122321     -4.125130
  C       4.199486      0.266458      1.070145
  C       5.000018      1.714550     -1.533602
  C       4.236127     -2.089699     -2.602139
  C       1.664109     -2.688346     -0.936294
  H       2.943474      3.395694      0.478472
  H       0.959430      2.488797     -1.750277
  H       0.948383      4.091173     -0.834118
  H       1.318687     -2.190565     -4.296550
  H       1.226179      0.815375     -3.587498
  H       0.482189     -0.016236     -5.085767
  H       3.366971     -0.177437      1.651672
  H       4.721857      0.989913      1.730425
  H       4.922713     -0.542373      0.834686
  H       4.648829      2.167162     -2.483317
  H       5.690139      0.885024     -1.792192
  H       5.592834      2.479586     -0.989519
  H       4.755194     -1.360317     -3.257294
  H       4.177323     -3.051702     -3.153245
  H       4.867095     -2.264929     -1.706376
  H       0.677490     -2.291012     -0.625677
  H       2.277177     -2.855066     -0.027250
  H       1.514428     -3.674152     -1.423642
  Pt      0.461312      2.084107      0.970065
  O      -3.151779      0.985633      0.491539
  O      -3.127469     -0.036656      1.866507
  P      -2.417657      0.401123     -0.911312
  P      -3.047810      0.647526      3.391877
  O      -3.433812     -0.760427      4.145103
  O      -3.913949      1.836300      3.671450
  O      -1.004255     -0.285544     -0.504426
  O      -2.407382      1.664264     -1.727644
  C      -3.437227     -0.994241     -1.578355
  C      -1.243447      0.812608      3.796264
  C      -1.150043      1.018820      5.324628
  C      -0.765475      2.117021      3.112721
  C      -0.466339     -0.434681      3.350689
  C      -3.210665     -2.307248     -0.809518
  C      -4.919927     -0.570816     -1.530322
  C      -3.001736     -1.156017     -3.050827
  H      -4.406873     -0.786146      4.254537
  H      -0.330879      0.426704     -0.226987
  H      -1.760162      1.880328      5.662445
  H      -0.092633      1.199581      5.610864
  H      -1.503246      0.118154      5.862966
  H      -1.169701      3.038397      3.577992
  H      -1.226831      2.161978      2.067211
  H       0.361645      2.181423      3.273535
  H      -0.851853     -1.336010      3.866772
  H       0.603579     -0.318014      3.621989
  H      -0.530359     -0.617223      2.262490
  H      -3.507968     -2.214516      0.251634
  H      -2.150559     -2.622045     -0.848474
  H      -3.824446     -3.111669     -1.268075
  H      -5.273274     -0.467932     -0.486391
  H      -5.546277     -1.337446     -2.033162
  H      -5.080137      0.398700     -2.043203
  H      -1.931850     -1.433581     -3.114464
  H      -3.152088     -0.214747     -3.614272
  H      -3.595502     -1.958830     -3.536168
66
Coordinates from ORCA-job my_molecule_initial_path E   0.000000000000
  O       2.707636     -0.016506     -1.369054
  Si      3.670903      1.001567     -0.459653
  Si      2.546910     -1.427523     -2.254838
  C       2.603313      2.454051      0.079015
  C       1.684750      3.209693     -0.688954
  C       1.457637     -1.046269     -3.730539
  C       0.996121      0.177806     -4.044832
  C       4.414532      0.053849      0.997806
  C       5.082488      1.677868     -1.525286
  C       4.228976     -1.987966     -2.919250
  C       1.732658     -2.756805     -1.209781
  H       3.089114      3.105149      0.838926
  H       1.379271      2.911244     -1.701383
  H       1.310788      4.208894     -0.397574
  H       1.268333     -1.850856     -4.468929
  H       1.274648      1.045440     -3.428146
  H       0.457584      0.406649     -4.980151
  H       3.606992     -0.422168      1.588580
  H       4.989169      0.712119      1.682912
  H       5.113952     -0.744642      0.671386
  H       4.703472      2.185392     -2.435735
  H       5.762948      0.869561     -1.865615
  H       5.701073      2.409987     -0.964498
  H       4.729169     -1.191458     -3.507590
  H       4.128168     -2.875871     -3.578415
  H       4.901899     -2.280356     -2.087084
  H       0.757548     -2.412756     -0.813579
  H       2.379845     -3.029085     -0.351416
  H       1.560362     -3.679230     -1.802614
  Pt     -0.015582      1.930291      0.728307
  O      -3.207750      0.883616      0.244137
  O      -3.054042      0.167128      1.996085
  P      -2.471024      0.186969     -1.094952
  P      -3.089409      0.887749      3.495393
  O      -3.564973     -0.493528      4.246020
  O      -3.955724      2.095879      3.679861
  O      -1.080641     -0.521667     -0.654014
  O      -2.489126      1.406097     -1.978581
  C      -3.505367     -1.238788     -1.659673
  C      -1.310246      1.023614      4.004550
  C      -1.310375      1.243667      5.535196
  C      -0.761013      2.316618      3.358513
  C      -0.545210     -0.254106      3.634692
  C      -3.293123     -2.487635     -0.787529
  C      -4.984474     -0.801228     -1.655716
  C      -3.066545     -1.518570     -3.112307
  H      -4.544705     -0.507906      4.247781
  H      -0.351078      0.159575     -0.488124
  H      -1.921638      2.120768      5.828986
  H      -0.267513      1.401528      5.882151
  H      -1.722179      0.362109      6.063716
  H      -1.111853      3.259819      3.831013
  H      -1.252788      2.438608      2.344454
  H       0.362744      2.319530      3.495074
  H      -0.977871     -1.136308      4.148473
  H       0.510220     -0.152698      3.962058
  H      -0.545207     -0.480950      2.553598
  H      -3.595965     -2.302908      0.260098
  H      -2.237644     -2.819947     -0.793607
  H      -3.910902     -3.321077     -1.184522
  H      -5.342234     -0.613129     -0.625381
  H      -5.614349     -1.600594     -2.099901
  H      -5.136574      0.125721     -2.244124
  H      -1.999461     -1.808078     -3.148573
  H      -3.214845     -0.624772     -3.748459
  H      -3.661792     -2.353174     -3.538401
66
Coordinates from ORCA-job my_molecule_initial_path E   0.000000000000
  O       2.769524     -0.071123     -1.327471
  Si      3.780851      0.896032     -0.421975
  Si      2.560640     -1.362739     -2.368487
  C       2.698306      2.253584      0.304620
  C       1.833131      3.156915     -0.333298
  C       1.407845     -0.797202     -3.729433
  C       0.981155      0.468207     -3.894792
  C       4.611044     -0.145263      0.927797
  C       5.136950      1.636323     -1.513396
  C       4.194733     -1.882841     -3.174130
  C       1.770669     -2.792433     -1.448576
  H       3.229842      2.788409      1.126042
  H       1.773690      3.187828     -1.433167
  H       1.580127      4.139389      0.114224
  H       1.188911     -1.501911     -4.556371
  H       1.300608      1.256277     -3.195798
  H       0.430218      0.804613     -4.789697
  H       3.833853     -0.655739      1.530718
  H       5.237340      0.455360      1.621264
  H       5.282894     -0.928561      0.517314
  H       4.725106      2.184674     -2.384862
  H       5.810047      0.854112     -1.923702
  H       5.774620      2.346324     -0.945510
  H       4.684859     -1.035697     -3.696415
  H       4.046251     -2.692398     -3.919815
  H       4.902031     -2.276715     -2.415454
  H       0.816595     -2.482617     -0.980863
  H       2.445826     -3.164796     -0.651418
  H       1.567711     -3.643922     -2.130850
  Pt     -0.919811      2.282081      0.213647
  O      -3.332885      0.678241      0.025856
  O      -2.943748      0.432218      2.056588
  P      -2.537758     -0.024911     -1.279570
  P      -3.061289      1.141914      3.540195
  O      -3.644932     -0.221339      4.259569
  O      -3.883116      2.386047      3.622140
  O      -1.114484     -0.643451     -0.803416
  O      -2.656120      1.124345     -2.256319
  C      -3.568049     -1.478209     -1.746043
  C      -1.330790      1.213776      4.173993
  C      -1.440548      1.431536      5.699594
  C      -0.648861      2.466561      3.598771
  C      -0.580041     -0.081207      3.839400
  C      -3.353296     -2.647695     -0.773911
  C      -5.049272     -1.046295     -1.785466
  C      -3.106019     -1.857441     -3.166763
  H      -4.621360     -0.218086      4.179129
  H      -0.402008      0.044156     -0.593398
  H      -2.043407      2.330493      5.938777
  H      -0.424599      1.556154      6.129604
  H      -1.913169      0.561016      6.194158
  H      -1.090547      3.424306      3.932516
  H      -0.813126      2.488234      2.493005
  H       0.446345      2.472034      3.867460
  H      -1.077740     -0.955309      4.303376
  H       0.447066     -0.022556      4.254948
  H      -0.500365     -0.246862      2.749757
  H      -3.667487     -2.383537      0.253267
  H      -2.294954     -2.967558     -0.742129
  H      -3.962130     -3.512527     -1.112764
  H      -5.423074     -0.788935     -0.775562
  H      -5.670228     -1.879003     -2.177251
  H      -5.206091     -0.167733     -2.442994
  H      -2.038452     -2.145898     -3.166054
  H      -3.251643     -1.018044     -3.873559
  H      -3.697386     -2.720604     -3.537053
66
Coordinates from ORCA-job my_molecule_initial_path E   0.000000000000
  O       2.853150     -0.156279     -1.290875
  Si      3.921212      0.748608     -0.388539
  Si      2.553343     -1.273603     -2.494131
  C       2.866294      2.028528      0.491862
  C       1.997498      3.024152      0.031493
  C       1.325555     -0.497191     -3.671392
  C       0.942291      0.792828     -3.647166
  C       4.836119     -0.394204      0.821088
  C       5.189237      1.593375     -1.502812
  C       4.117607     -1.721615     -3.462861
  C       1.791664     -2.798926     -1.718098
  H       3.382599      2.389092      1.411179
  H       2.075189      3.345307     -1.022360
  H       1.757443      3.911193      0.653617
  H       1.041062     -1.069313     -4.576479
  H       1.313071      1.466333     -2.859446
  H       0.371449      1.264904     -4.464956
  H       4.099514     -0.947473      1.438144
  H       5.520675      0.146662      1.509107
  H       5.470599     -1.145184      0.304623
  H       4.720821      2.193142     -2.309207
  H       5.847757      0.852775     -2.003971
  H       5.847020      2.275307     -0.924059
  H       4.597449     -0.822767     -3.901144
  H       3.898494     -2.421514     -4.296852
  H       4.860988     -2.226247     -2.811781
  H       0.871529     -2.528256     -1.166524
  H       2.496225     -3.283272     -1.011580
  H       1.543340     -3.553232     -2.492797
  Pt     -1.417923      2.475637      0.070324
  O      -3.394552      0.482116     -0.132462
  O      -2.799294      0.706023      2.067688
  P      -2.596392     -0.217318     -1.428959
  P      -3.042410      1.401775      3.535818
  O      -3.734357      0.077100      4.226260
  O      -3.825230      2.675647      3.532786
  O      -1.152103     -0.747348     -0.928229
  O      -2.767361      0.859531     -2.470358
  C      -3.597324     -1.718218     -1.811716
  C      -1.364114      1.414765      4.296326
  C      -1.592822      1.698862      5.797047
  C      -0.586505      2.595618      3.686992
  C      -0.644204      0.076601      4.074852
  C      -3.386939     -2.804230     -0.746321
  C      -5.085764     -1.320895     -1.911010
  C      -3.107410     -2.203099     -3.189376
  H      -4.697497      0.103579      4.048015
  H      -0.486097     -0.012760     -0.737942
  H      -2.165097      2.635812      5.948718
  H      -0.614097      1.798281      6.311342
  H      -2.143039      0.869723      6.283233
  H      -1.075011      3.568698      3.878191
  H      -0.519027      2.489589      2.571953
  H       0.439595      2.634486      4.152888
  H      -1.218878     -0.759063      4.519377
  H       0.344344      0.111051      4.577898
  H      -0.482141     -0.132434      3.000766
  H      -3.728959     -2.467439      0.250506
  H      -2.322992     -3.094211     -0.664188
  H      -3.970443     -3.707026     -1.025315
  H      -5.481818     -0.987514     -0.932248
  H      -5.687125     -2.192792     -2.244004
  H      -5.244718     -0.502081     -2.640892
  H      -2.037605     -2.477429     -3.144964
  H      -3.242467     -1.424236     -3.964120
  H      -3.681418     -3.099928     -3.502958
66
Coordinates from ORCA-job my_molecule_initial_path E   0.000000000000
  O       2.950133     -0.280960     -1.284352
  Si      4.047659      0.589388     -0.382946
  Si      2.541847     -1.189527     -2.621055
  C       2.960474      1.753012      0.613317
  C       2.247679      2.913237      0.334874
  C       1.238113     -0.233634     -3.560723
  C       0.898284      1.047853     -3.323479
  C       5.055013     -0.631361      0.671312
  C       5.219556      1.570569     -1.484177
  C       4.028588     -1.491751     -3.751802
  C       1.827583     -2.813485     -2.020706
  H       3.346258      1.798412      1.653614
  H       2.438112      3.453736     -0.609618
  H       2.005268      3.661316      1.114495
  H       0.853538     -0.667114     -4.504270
  H       1.323475      1.586582     -2.462285
  H       0.288401      1.649169     -4.019097
  H       4.375061     -1.258658      1.283655
  H       5.769928     -0.123376      1.353655
  H       5.669904     -1.316553      0.050825
  H       4.699510      2.215304     -2.221264
  H       5.872107      0.894250     -2.075912
  H       5.876539      2.225209     -0.874526
  H       4.485628     -0.539428     -4.089620
  H       3.737703     -2.060613     -4.659950
  H       4.811898     -2.085150     -3.236390
  H       0.943116     -2.636222     -1.380197
  H       2.572333     -3.391763     -1.436334
  H       1.533157     -3.446396     -2.882693
  Pt     -1.643283      2.371947     -0.001281
  O      -3.389531      0.305405     -0.256478
  O      -2.662711      0.946186      2.077015
  P      -2.620744     -0.426409     -1.548668
  P      -3.028831      1.662933      3.511669
  O      -3.820560      0.382650      4.174764
  O      -3.769718      2.961676      3.429434
  O      -1.177892     -0.944261     -1.038310
  O      -2.796977      0.591763     -2.643194
  C      -3.613621     -1.948003     -1.867571
  C      -1.422932      1.641875      4.414353
  C      -1.756533      1.979923      5.883593
  C      -0.565189      2.773455      3.816559
  C      -0.736195      0.272842      4.293585
  C      -3.431008     -2.963490     -0.729073
  C      -5.096930     -1.550978     -2.023811
  C      -3.097769     -2.523722     -3.199973
  H      -4.757168      0.418609      3.888491
  H      -0.507157     -0.213259     -0.874006
  H      -2.302514      2.940999      5.964116
  H      -0.817390      2.062092      6.469790
  H      -2.375470      1.187087      6.347362
  H      -1.037921      3.766752      3.936518
  H      -0.413681      2.622229      2.715897
  H       0.412491      2.804500      4.371010
  H      -1.373419     -0.530399      4.712116
  H       0.208762      0.290043      4.875407
  H      -0.494061      0.022720      3.243162
  H      -3.796032     -2.560687      0.234941
  H      -2.370168     -3.250180     -0.601929
  H      -4.011762     -3.881318     -0.960712
  H      -5.507509     -1.146827     -1.078322
  H      -5.697602     -2.440404     -2.308149
  H      -5.236450     -0.784312     -2.811849
  H      -2.032444     -2.805195     -3.114071
  H      -3.202940     -1.795083     -4.026534
  H      -3.674004     -3.433209     -3.470201
66
Coordinates from ORCA-job my_molecule_initial_path E   0.000000000000
  O       3.055153     -0.418339     -1.309255
  Si      4.165029      0.445295     -0.411280
  Si      2.523491     -1.112691     -2.725486
  C       3.072123      1.482913      0.693307
  C       2.531687      2.744289      0.676840
  C       1.155470     -0.028402     -3.398250
  C       0.844715      1.200913     -2.939416
  C       5.263832     -0.793769      0.515102
  C       5.220206      1.579464     -1.473857
  C       3.926345     -1.233677     -3.986858
  C       1.859216     -2.814355     -2.309280
  H       3.033489      1.019028      1.693386
  H       2.783474      3.443376     -0.138159
  H       2.330467      3.306243      1.605040
  H       0.669655     -0.335310     -4.344519
  H       1.313042      1.602663     -2.025726
  H       0.176963      1.892747     -3.481176
  H       4.668272     -1.529884      1.094223
  H       5.949624     -0.268652      1.213042
  H       5.894402     -1.377204     -0.187241
  H       4.631343      2.255048     -2.126560
  H       5.864731      0.981352     -2.151635
  H       5.876639      2.207927     -0.837408
  H       4.351745     -0.237358     -4.223583
  H       3.565096     -1.674316     -4.939545
  H       4.748308     -1.879935     -3.615072
  H       1.018009     -2.748861     -1.593384
  H       2.646282     -3.458266     -1.865770
  H       1.507433     -3.316590     -3.233421
  Pt     -1.948441      2.232106     -0.068796
  O      -3.374961      0.138899     -0.368332
  O      -2.489390      1.156604      2.085613
  P      -2.630934     -0.621654     -1.656718
  P      -2.982006      1.911938      3.466338
  O      -3.876225      0.685162      4.097661
  O      -3.668596      3.235312      3.305449
  O      -1.194582     -1.145642     -1.132142
  O      -2.771183      0.334331     -2.811376
  C      -3.624077     -2.152774     -1.926566
  C      -1.463660      1.866048      4.509825
  C      -1.896499      2.267323      5.936116
  C      -0.514802      2.935917      3.933458
  C      -0.833406      0.464097      4.501874
  C      -3.479658     -3.107528     -0.730562
  C      -5.097143     -1.744929     -2.137957
  C      -3.078531     -2.803413     -3.212431
  H      -4.772040      0.720363      3.701484
  H      -0.513974     -0.420157     -1.014426
  H      -2.405010      3.251821      5.940565
  H      -1.002649      2.334580      6.591101
  H      -2.585481      1.518482      6.373821
  H      -0.957444      3.950193      3.973503
  H      -0.282216      2.733009      2.857511
  H       0.410863      2.955870      4.565555
  H      -1.532640     -0.300362      4.893689
  H       0.064968      0.466729      5.153598
  H      -0.525972      0.159721      3.483231
  H      -3.865778     -2.649931      0.200593
  H      -2.425187     -3.397124     -0.560267
  H      -4.064541     -4.030725     -0.927959
  H      -5.521963     -1.284148     -1.225149
  H      -5.703241     -2.640845     -2.388130
  H      -5.207675     -1.021195     -2.969841
  H      -2.021202     -3.099215     -3.081793
  H      -3.145604     -2.118118     -4.079287
  H      -3.665359     -3.714395     -3.453312
66
Coordinates from ORCA-job my_molecule_initial_path E   0.000000000000
  O       3.144107     -0.535175     -1.355761
  Si      4.240772      0.317479     -0.422943
  Si      2.488219     -1.017402     -2.808255
  C       3.189271      1.156906      0.866433
  C       2.801091      2.449594      1.035525
  C       1.061571      0.133765     -3.198724
  C       0.765128      1.261745     -2.517715
  C       5.425665     -0.927370      0.364420
  C       5.182099      1.597030     -1.426545
  C       3.788030     -0.918974     -4.175831
  C       1.875266     -2.777657     -2.598517
  H       2.841628      0.449374      1.640337
  H       3.110830      3.258992      0.354867
  H       2.548155      2.832438      2.037283
  H       0.484445     -0.058932     -4.123931
  H       1.280199      1.526879     -1.578071
  H       0.017923      1.990974     -2.876162
  H       4.893227     -1.735422      0.907397
  H       6.103219     -0.416617      1.079746
  H       6.049540     -1.419624     -0.409904
  H       4.518785      2.297291     -1.973501
  H       5.809180      1.092483     -2.190751
  H       5.851537      2.195438     -0.774951
  H       4.176785      0.112382     -4.297006
  H       3.354594     -1.226677     -5.150126
  H       4.646113     -1.589839     -3.963377
  H       1.088726     -2.840336     -1.821983
  H       2.702135     -3.460454     -2.314045
  H       1.455557     -3.143281     -3.557856
  Pt     -2.300348      1.944326     -0.069095
  O      -3.389326     -0.039823     -0.480384
  O      -2.254879      1.357086      2.091200
  P      -2.643513     -0.804372     -1.766368
  P      -2.883026      2.157528      3.394664
  O      -3.892648      1.002758      3.982655
  O      -3.490308      3.507235      3.136204
  O      -1.213401     -1.327583     -1.213091
  O      -2.721918      0.104108     -2.967560
  C      -3.626929     -2.348017     -1.995449
  C      -1.471153      2.087273      4.579478
  C      -2.005170      2.576989      5.941549
  C      -0.417630      3.076029      4.039626
  C      -0.917276      0.656919      4.692224
  C      -3.525227     -3.242142     -0.748223
  C      -5.088742     -1.939877     -2.271290
  C      -3.038582     -3.059848     -3.229717
  H      -4.732937      1.038438      3.478916
  H      -0.523452     -0.607115     -1.178313
  H      -2.455964      3.585757      5.858217
  H      -1.168351      2.629908      6.669135
  H      -2.771414      1.886697      6.345871
  H      -0.812858      4.108680      3.973478
  H      -0.087917      2.792598      3.011837
  H       0.444513      3.091719      4.750216
  H      -1.686897     -0.053592      5.052308
  H      -0.073256      0.648146      5.412994
  H      -0.540359      0.286177      3.719649
  H      -3.941019     -2.739213      0.146547
  H      -2.477740     -3.525380     -0.528587
  H      -4.106069     -4.172947     -0.919933
  H      -5.538376     -1.434065     -1.394768
  H      -5.692401     -2.843697     -2.497441
  H      -5.165025     -1.255848     -3.139692
  H      -1.990275     -3.362983     -3.047389
  H      -3.064826     -2.413491     -4.128510
  H      -3.629099     -3.973385     -3.451013
66
Coordinates from ORCA-job my_molecule_initial_path E   0.000000000000
  O       3.212645     -0.637659     -1.410957
  Si      4.283883      0.194146     -0.423109
  Si      2.441892     -0.916678     -2.865418
  C       3.254823      0.811596      1.012112
  C       3.030944      2.097404      1.367877
  C       0.957378      0.234188     -2.973916
  C       0.664112      1.213259     -2.087911
  C       5.564238     -1.042863      0.200695
  C       5.105485      1.619563     -1.339658
  C       3.617381     -0.566889     -4.302153
  C       1.879612     -2.710052     -2.878120
  H       2.783380      0.023873      1.631091
  H       3.414026      2.970066      0.813926
  H       2.625011      2.346180      2.361588
  H       0.299238      0.143633     -3.860483
  H       1.246226      1.354659     -1.159776
  H      -0.172313      1.917927     -2.240402
  H       5.087129     -1.910937      0.699995
  H       6.251667     -0.562597      0.927220
  H       6.169285     -1.438234     -0.641100
  H       4.367850      2.330136     -1.765276
  H       5.711018      1.230685     -2.184250
  H       5.785203      2.187310     -0.671239
  H       3.966638      0.485518     -4.295657
  H       3.110808     -0.744821     -5.273414
  H       4.507146     -1.228600     -4.258941
  H       1.159796     -2.913515     -2.060907
  H       2.742412     -3.397880     -2.763431
  H       1.384273     -2.944829     -3.842645
  Pt     -2.535393      1.422937      0.154201
  O      -3.437090     -0.228638     -0.609155
  O      -1.989534      1.605641      2.084858
  P      -2.646758     -0.978157     -1.874032
  P      -2.753671      2.400517      3.318610
  O      -3.870756      1.320425      3.842622
  O      -3.255805      3.764925      2.932327
  O      -1.221263     -1.488489     -1.283112
  O      -2.659783     -0.070660     -3.080475
  C      -3.623293     -2.529304     -2.075914
  C      -1.455675      2.309325      4.626593
  C      -2.080311      2.902067      5.905704
  C      -0.295102      3.202089      4.140206
  C      -1.002733      0.855666      4.849617
  C      -3.570108     -3.370145     -0.788207
  C      -5.071197     -2.124425     -2.421134
  C      -2.983022     -3.283511     -3.258525
  H      -4.647736      1.349367      3.245302
  H      -0.526027     -0.777627     -1.345573
  H      -2.456173      3.929989      5.732058
  H      -1.308733      2.944447      6.702610
  H      -2.922276      2.280676      6.269042
  H      -0.623739      4.244398      3.959246
  H       0.132919      2.823000      3.186499
  H       0.496772      3.219474      4.922772
  H      -1.843534      0.210490      5.171227
  H      -0.225141      0.835894      5.641620
  H      -0.563670      0.414518      3.933279
  H      -4.020871     -2.833861      0.070149
  H      -2.531457     -3.642110     -0.516830
  H      -4.143446     -4.308063     -0.945086
  H      -5.555486     -1.588849     -1.581218
  H      -5.667950     -3.035129     -2.637267
  H      -5.106899     -1.469435     -3.314154
  H      -1.944735     -3.588723     -3.024402
  H      -2.968468     -2.664232     -4.177037
  H      -3.573048     -4.199075     -3.472161
66
Coordinates from ORCA-job my_molecule_initial_path E   0.000000000000
  O       3.257302     -0.718877     -1.487559
  Si      4.299999      0.058518     -0.419268
  Si      2.383364     -0.795303     -2.916538
  C       3.305139      0.482301      1.125525
  C       3.211497      1.707824      1.682666
  C       0.844113      0.289158     -2.744553
  C       0.562909      1.073222     -1.676843
  C       5.664065     -1.166845      0.019777
  C       5.013491      1.620239     -1.205394
  C       3.421514     -0.177879     -4.368816
  C       1.862199     -2.586766     -3.184598
  H       2.757894     -0.346087      1.617726
  H       3.721743      2.587764      1.251925
  H       2.620225      1.899179      2.596296
  H       0.105983      0.292859     -3.572204
  H       1.229087      1.124505     -0.796512
  H      -0.347334      1.698585     -1.636737
  H       5.236268     -2.088883      0.463559
  H       6.372130     -0.730614      0.754106
  H       6.239286     -1.459844     -0.882688
  H       4.213162      2.331521     -1.495298
  H       5.589113      1.364939     -2.118775
  H       5.703200      2.144175     -0.511732
  H       3.743780      0.871976     -4.215425
  H       2.840423     -0.218532     -5.313472
  H       4.328294     -0.803808     -4.500596
  H       1.225606     -2.942710     -2.349558
  H       2.749091     -3.249349     -3.253939
  H       1.280832     -2.691089     -4.124242
  Pt     -2.640857      0.821764      0.578442
  O      -3.415009     -0.335457     -0.695935
  O      -1.829850      1.779649      1.990077
  P      -2.635396     -1.120718     -1.943257
  P      -2.610128      2.610910      3.201713
  O      -3.846201      1.648721      3.694185
  O      -2.993598      3.982743      2.708440
  O      -1.194440     -1.613318     -1.359612
  O      -2.583846     -0.208112     -3.146958
  C      -3.587471     -2.689826     -2.130381
  C      -1.443041      2.522054      4.626557
  C      -2.132120      3.220392      5.817434
  C      -0.179023      3.299221      4.202459
  C      -1.104851      1.057373      4.959284
  C      -3.585027     -3.482423     -0.810508
  C      -5.020768     -2.295244     -2.541221
  C      -2.904593     -3.490448     -3.259230
  H      -4.569181      1.672913      3.031945
  H      -0.515363     -0.894909     -1.490186
  H      -2.421088      4.259221      5.561224
  H      -1.430509      3.258094      6.676860
  H      -3.042246      2.676156      6.138568
  H      -0.424344      4.341981      3.919870
  H       0.320584      2.817334      3.338409
  H       0.537339      3.325970      5.049946
  H      -2.008766      0.482372      5.240116
  H      -0.398536      1.031068      5.815631
  H      -0.621080      0.547127      4.102625
  H      -4.069536     -2.913333      0.007817
  H      -2.556007     -3.740471     -0.492130
  H      -4.150688     -4.427880     -0.949040
  H      -5.528321     -1.721628     -1.741015
  H      -5.612528     -3.213061     -2.740111
  H      -5.018163     -1.676234     -3.460195
  H      -1.874001     -3.788678     -2.982148
  H      -2.856389     -2.901054     -4.196717
  H      -3.489328     -4.412450     -3.459790
