66
Coordinates from ORCA-job my_molecule_im9 E -2537.179428214903
  O           3.26216766187002     -0.73166168676085     -1.47057165361309
  Si          4.30320172315502      0.02863596016627     -0.38843636056363
  Si          2.39785150464969     -0.78932206330861     -2.90627237242949
  C           3.30067305160865      0.44717296732062      1.15282669112643
  C           3.21251911001913      1.66867736133700      1.71961005298315
  C           0.86581787388344      0.30558272412254     -2.73600388551611
  C           0.58307831853656      1.08283399089279     -1.66372652945542
  C           5.65462717813307     -1.21092134657836      0.04986553870207
  C           5.03428410550588      1.59130442818871     -1.15631709280726
  C           3.45103401815345     -0.16782962731718     -4.34594029659826
  C           1.86481290996341     -2.57437868353739     -3.19309888058706
  H           2.74357143323178     -0.38103734790436      1.63415536630202
  H           3.73258432152838      2.54820872540915      1.29991156663384
  H           2.61625516873281      1.85695556169867      2.63063202070992
  H           0.13364371320920      0.32195095059054     -3.56877867227319
  H           1.24335376797310      1.12156416209127     -0.77831809844279
  H          -0.32258111892318      1.71488967901344     -1.62476541806069
  H           5.21658968820333     -2.13329811337719      0.48282984114581
  H           6.36079267095718     -0.78636983396371      0.79282183815487
  H           6.23397751552486     -1.50080663282283     -0.85096287529045
  H           4.24154228090914      2.31118625909782     -1.44584752616340
  H           5.61440437890295      1.33920407733091     -2.06773993801267
  H           5.72306071245674      2.10403928671216     -0.45341495088247
  H           3.78028383021494      0.87817102606249     -4.18143317081283
  H           2.87638036667690     -0.19605207555959     -5.29498069628337
  H           4.35387920347540     -0.79965661363461     -4.47659920482148
  H           1.21957136217459     -2.93235353533706     -2.36559621266919
  H           2.74704314917764     -3.24322555117932     -3.26177074527125
  H           1.28935643851541     -2.66630644332398     -4.13766630969355
  Pt         -2.63849612175327      0.83737248064238      0.56672127598591
  O          -3.41246168510736     -0.30308509095390     -0.72279823510756
  O          -1.83018982827603      1.77707079613853      1.99206840309160
  P          -2.63007050077856     -1.08389859706150     -1.97117264049046
  P          -2.61263702698598      2.60418594809176      3.20514326856232
  O          -3.85956339561649      1.64752941028942      3.68075896706109
  O          -2.98200435404672      3.98304352598487      2.72076440839951
  O          -1.19713997680771     -1.59254790941206     -1.38155851618662
  O          -2.56292752529276     -0.16166411090558     -3.16674439797164
  C          -3.59285729920466     -2.64394549550854     -2.17822990737057
  C          -1.45643308980131      2.49433290763531      4.63738293392700
  C          -2.14856319587995      3.18799887388468      5.82922155442217
  C          -0.18347611584501      3.26518846950243      4.22877367066529
  C          -1.13191700414585      1.02432989150945      4.96012229674287
  C          -3.60591152559568     -3.44757196997725     -0.86510154726582
  C          -5.02011445552485     -2.23481522930489     -2.59582323324136
  C          -2.90815831372605     -3.44036148575468     -3.30895136994463
  H          -4.57760803769050      1.68288384867091      3.01366477058295
  H          -0.51163391039551     -0.87836316044594     -1.50127894860514
  H          -2.42768586871307      4.23115268882193      5.57974913627385
  H          -1.45281157054227      3.21304803075499      6.69386089734822
  H          -3.06511900002543      2.64817407237022      6.13933084164131
  H          -0.41873614113947      4.31215602109441      3.95326525653794
  H           0.31853647430617      2.78669204035859      3.36423265936845
  H           0.52702545324089      3.27927151531616      5.08148709133063
  H          -2.04221251196193      0.45403099885450      5.22971719693229
  H          -0.43193316313329      0.98536587256672      5.82117694876843
  H          -0.64601170154184      0.51753763530672      4.10262115373265
  H          -4.09182834402257     -2.88161197375880     -0.04544027971620
  H          -2.58120005112134     -3.71626177724207     -0.54166360521276
  H          -4.17784409797457     -4.38741503812967     -1.01558567968474
  H          -5.52891097104076     -1.66399991654544     -1.79440466563243
  H          -5.61750194469357     -3.14631327160609     -2.80661287011404
  H          -5.00620196888619     -1.60816486629708     -3.50950436145290
  H          -1.88189100760509     -3.74889727892177     -3.02713483345863
  H          -2.84874536536394     -2.84352254626477     -4.24107279754979
  H          -3.49854119572699     -4.35608291513326     -3.52139686787963
