26
image2
O    -1.8349743925    0.6451647457    2.1257966079
Si   -0.2581997515    0.1316905382    2.3594640532
Si   -3.4247391289    0.5509133746    2.6575682648
C     0.8127763999    1.0258807369    1.0950111906
C     2.1443007745    1.2474307018    1.2681041007
H     0.2580159460    1.6801254536    0.4105967090
H     2.6911345046    1.9995465481    0.6954705113
H     2.7527304885    0.6267966388    1.9339954472
Si    0.6123499571   -0.8901322956   -1.4701544127
O    -0.8533824172   -0.3183924635   -2.0060136175
O     1.9583586848   -0.3153739640   -2.3051655946
Si    3.5931633722   -0.1010639653   -1.9590374490
Si   -2.4520030745   -0.2740641003   -1.1951258799
H     0.7282106382   -0.2782053534   -0.0396078094
H    -3.5820356186    1.5353371956    3.7772359809
H     0.1991593361    0.5562112395    3.7128469042
H    -3.7097785860   -0.8381916809    3.1661185907
H    -0.1846222028   -1.3553268893    2.2310823715
H    -3.2894121189   -0.7224894131   -2.3370613058
H    -2.1583797493   -1.3019131952   -0.1283528219
H    -2.4550234668    1.2035879032   -0.9199786562
H     3.8830092779    1.3629124847   -1.9058551184
H     3.9688676570   -0.7188747463   -0.6446925673
H     4.4210035959   -0.7287246682   -3.0346791365
H     0.7332963484   -2.3924431493   -1.4699729256
H    -3.9337648818   -0.1364585114   -0.2054020461
