26
image1
O    -1.8967402728    0.6434527635    2.1272336878
Si   -0.2949510203    0.2032675472    2.4160785033
Si   -3.4172636348    0.6451724681    2.8336813762
C     0.7609491240    1.2151028716    1.2450972285
C     2.1014160332    1.2944067870    1.2909409528
H     0.2387779171    1.7814560316    0.4636051582
H     2.6635231763    1.9409610055    0.6143305901
H     2.6868749220    0.7172105479    2.0128285987
Si    0.6741391798   -1.0167490310   -1.5458931379
O    -0.7210753011   -0.3202064016   -2.1498917061
O     1.9698018878   -0.3086154971   -2.3119811706
Si    3.5922507684   -0.0955740972   -1.9569646370
Si   -2.2371994742   -0.2514634716   -1.3954907222
H     0.7289580762   -0.7872017916   -0.0927860223
H    -3.5074453730    1.6596483047    3.9478225551
H     0.0732362974    0.5364294840    3.8248368767
H    -3.7242478031   -0.7307563882    3.3564609978
H    -0.1819709984   -1.2779857479    2.2143699473
H    -3.2481555333   -0.6931829853   -2.3942980784
H    -2.2828409323   -1.1707758757   -0.1966379669
H    -2.4690500127    1.1599803482   -0.9580989584
H     3.8843599712    1.3640015896   -1.9013301119
H     3.9130550385   -0.7184535456   -0.6379029762
H     4.4008809881   -0.7279675253   -3.0314946585
H     0.7133466286   -2.4851980170   -1.7746710171
H    -4.0638935736   -0.2339380871   -0.1017978132
