26
image4
O    -1.8265093792    0.6470899252    2.1288432456
Si   -0.2555549290    0.1321232194    2.3446562066
Si   -3.4514610939    0.4420208226    2.4148358858
C     0.7743608110    0.8420168506    0.9165843833
C     2.1684263002    1.2186362803    1.2483166839
H     0.2383117878    1.6723713241    0.4325840598
H     2.6771744311    2.0281862672    0.7264856927
H     2.7696196566    0.6015108445    1.9161576071
Si    0.5682009758   -1.1125255236   -2.0545991272
O    -0.8413004326   -0.3016343463   -1.9684344998
O     1.9852583666   -0.3002649983   -2.2822532909
Si    3.6226809283   -0.0960570711   -1.9463072919
Si   -2.4309474424   -0.2609061533   -1.1552317478
H     0.7374230386    0.0048633577    0.1688028348
H    -3.7058797402    1.5114568950    3.5036093756
H     0.2186280206    0.5689757876    3.6894859505
H    -3.7193247173   -0.8571199813    3.1243468738
H    -0.1930789413   -1.3583282121    2.2466363510
H    -3.3085056932   -0.7142036319   -2.2745184023
H    -2.1576120372   -1.2946646508   -0.1188129073
H    -2.4499289037    1.2011884567   -0.9053197546
H     3.8884509754    1.3668168206   -1.9047876438
H     3.9811718129   -0.7213630205   -0.6398659930
H     4.4250869566   -0.7270585838   -3.0339456595
H     0.7586666008   -2.3846623249   -1.2959678656
H    -3.9163411386    0.0340812156    0.3358512913
