26
image3
O    -1.8345849264    0.6476723779    2.1268597520
Si   -0.2908476538    0.1270931347    2.3617332514
Si   -3.4492789202    0.5370691315    2.6107256549
C     0.7903962215    0.9055052878    0.9699642505
C     2.1568683888    1.2284086745    1.2508999505
H     0.2471170665    1.6717197617    0.4050384502
H     2.6890178445    2.0141494165    0.7140176561
H     2.7574703594    0.6106596424    1.9204182274
Si    0.5909662965   -0.9384756712   -1.6718155973
O    -0.8030271331   -0.3155306093   -2.0120635224
O     1.9820740520   -0.3160531436   -2.2933856025
Si    3.6259738008   -0.1009354159   -1.9582022497
Si   -2.7054985664   -0.2490745923   -1.0235020751
H     0.7339448003   -0.0999526988    0.1033665948
H    -3.6213646109    1.5530537818    3.6924689544
H     0.2021014063    0.5719674406    3.6932467091
H    -3.7038953390   -0.8331893286    3.1598631057
H    -0.1752899555   -1.3536548632    2.2365545426
H    -3.2578956066   -0.7205011261   -2.3427992744
H    -2.1031908023   -1.3122361223   -0.1442579196
H    -2.3999030634    1.2121324944   -0.9407279768
H     3.8843556381    1.3661324238   -1.9051788046
H     3.9812146494   -0.7219743409   -0.6366744640
H     4.4421990715   -0.7302293689   -3.0379182998
H     0.7698878457   -2.4118355780   -1.4468133086
H    -3.9976734033   -0.1084576107   -0.0956419150
