26
image5
O    -1.8501731648    0.6432808397    2.1301860459
Si   -0.2462877346    0.3152020375    2.4830634136
Si   -3.4400845146    0.3317056752    2.5338841189
C     0.7459350838    1.1150714742    1.0968820868
C     2.2206243414    1.2075929137    1.2834127240
H     0.3057631122    2.1127197835    0.9159733136
H     2.8040911247    1.8814526504    0.6555454488
H     2.7725506615    0.5187014707    1.9215705991
Si    0.3099138078   -1.6878834386   -2.1535289410
O    -0.6041836893   -0.3101303394   -1.8299710898
O     1.8980316094   -1.2660851643   -2.2993414621
Si    3.3851706464   -0.5032279753   -2.2900119383
Si   -2.2345559864   -0.2103100986   -1.3877391815
H     0.5189098321    0.5345442224    0.1788874193
H    -4.0051560458    1.4912852269    3.2964997006
H     0.0996420481    0.8807223166    3.8204817032
H    -3.5535666448   -0.9028868965    3.3690242114
H    -0.0518630198   -1.1735322914    2.5265516201
H    -3.1079431594   -0.5521927242   -2.5456001465
H    -2.4767487911   -1.1936373826   -0.2929872806
H    -2.4684434403    1.1878353903   -0.9431855434
H     3.2524863592    0.9785141171   -2.4197444231
H     4.0524674366   -0.8399405764   -0.9960890580
H     4.1759695735   -1.0394594670   -3.4459160599
H     0.2204848012   -2.6112605679   -0.9555348470
H    -4.1976459434    0.1109709166    1.2639144923
