26
image1
O    -1.8842280585    0.6425694848    2.1274992054
Si   -0.2857140555    0.1943921985    2.4120432421
Si   -3.4162756868    0.6260106374    2.8050809124
C     0.7761431411    1.1996684046    1.2437169174
C     2.1126316505    1.3169943771    1.3188239423
H     0.2454693042    1.7750371419    0.4742059481
H     2.6669768324    1.9689802498    0.6406519881
H     2.7126973433    0.7324479482    2.0260186814
Si    0.6591518888   -1.0001481719   -1.5317191178
O    -0.7357078085   -0.3207713428   -2.1484235767
O     1.9604045794   -0.3100410184   -2.3115985783
Si    3.5810298728   -0.0953813147   -1.9526501828
Si   -2.2470194991   -0.2584492588   -1.3760154815
H     0.7239361771   -0.6960511921   -0.0901131457
H    -3.5271660524    1.6332312477    3.9164328371
H     0.1001433223    0.5370784290    3.8118857453
H    -3.7249314738   -0.7541451704    3.3110243494
H    -0.1826876114   -1.2882020703    2.2187422925
H    -3.2646491404   -0.7025375510   -2.3713067715
H    -2.2424098888   -1.1932423680   -0.1946469097
H    -2.4645816070    1.1597874556   -0.9490374604
H     3.8797526824    1.3645068211   -1.9007260918
H     3.9175278217   -0.7181219454   -0.6367192593
H     4.3891296520   -0.7287967098   -3.0302629027
H     0.6981127106   -2.4715534423   -1.7376501134
H    -4.0463726883   -0.2347451708   -0.1670077387
