26
image2
O    -1.8261209885    0.6445800247    2.1273232326
Si   -0.2522131616    0.1237477938    2.3589807821
Si   -3.4190602814    0.5346709470    2.6428646317
C     0.8137176078    1.0139114619    1.0866894622
C     2.1422862751    1.2494264942    1.2699236895
H     0.2559090872    1.6778649380    0.4154400808
H     2.6803737986    2.0062390426    0.6956929170
H     2.7538435900    0.6354679389    1.9369256856
Si    0.6039183687   -0.8800999059   -1.4841461903
O    -0.8582217518   -0.3159147252   -2.0196936932
O     1.9559235098   -0.3140191069   -2.3079654222
Si    3.5903228914   -0.0996648978   -1.9552800237
Si   -2.4389908750   -0.2714020304   -1.1933649314
H     0.7201860473   -0.2465109510   -0.0431404467
H    -3.6017004006    1.5309353857    3.7421386238
H     0.2226792573    0.5501147855    3.7060303100
H    -3.7076783977   -0.8523374890    3.1555273441
H    -0.1907314314   -1.3620409058    2.2319569538
H    -3.3264585664   -0.7303532881   -2.2949088122
H    -2.1484819502   -1.2984516908   -0.1242399773
H    -2.4457124325    1.2037141064   -0.9127202153
H     3.8808909996    1.3630263077   -1.9037549278
H     3.9594270074   -0.7204631186   -0.6424045485
H     4.4010606295   -0.7292991874   -3.0368206695
H     0.7122996396   -2.3747857527   -1.4458818517
H    -3.9046959673   -0.1378447937   -0.1936737589
