26
image5
O    -1.8513870087    0.6444312374    2.1291539542
Si   -0.2443287981    0.3144188307    2.4789873937
Si   -3.4402876317    0.3322356569    2.5403167234
C     0.7505215198    1.1154072423    1.0977769884
C     2.2216183358    1.2004462557    1.2758617443
H     0.3182454857    2.1164748373    0.9246226069
H     2.7971906871    1.8982909807    0.6695673105
H     2.7753812170    0.5171786187    1.9161794912
Si    0.3120674528   -1.6971944990   -2.1580259145
O    -0.5989660956   -0.3129871810   -1.8299974349
O     1.9026685975   -1.2659861885   -2.2998412781
Si    3.3950300154   -0.5050958810   -2.2720173641
Si   -2.2312958132   -0.2126924220   -1.3876236657
H     0.4970756374    0.5544929985    0.1725658230
H    -4.0094895333    1.4920263213    3.3005930456
H     0.0966844494    0.8839424271    3.8202687532
H    -3.5548016918   -0.9026070562    3.3709445155
H    -0.0527634180   -1.1714317079    2.5306372511
H    -3.1061922951   -0.5535691634   -2.5459651641
H    -2.4763343656   -1.1936934548   -0.2919756458
H    -2.4665320260    1.1890193648   -0.9452085077
H     3.2571887205    0.9822518143   -2.3783070932
H     4.0599800809   -0.8521724263   -0.9831753504
H     4.1988781748   -1.0127081249   -3.4223206911
H     0.2328032078   -2.6090969834   -0.9554045734
H    -4.2060745566    0.1148903008    1.2733820943
