26
image3
O    -1.8240947161    0.6458153389    2.1287086680
Si   -0.2799557066    0.1184980631    2.3610875309
Si   -3.4308321660    0.5404343811    2.6483668326
C     0.7910188783    0.8827089471    0.9575570668
C     2.1576121398    1.2281256017    1.2508309512
H     0.2488689190    1.6686340242    0.4143662225
H     2.6762967125    2.0223794583    0.7151216678
H     2.7601112540    0.6202493157    1.9250740362
Si    0.5825847853   -0.9033221003   -1.6282083628
O    -0.8185403882   -0.3097268430   -2.0253902237
O     1.9753969010   -0.3130479172   -2.2925205478
Si    3.6172951427   -0.0985448786   -1.9544343696
Si   -2.6513462075   -0.2514899316   -1.0452977531
H     0.7342517524   -0.0802775976    0.1164261480
H    -3.5827544810    1.5263757826    3.7622998753
H     0.2285886682    0.5593644490    3.6918849334
H    -3.7021141887   -0.8459482688    3.1571297090
H    -0.1834485892   -1.3606483482    2.2356193882
H    -3.2882052557   -0.7327832803   -2.3191260719
H    -2.1069050362   -1.3129064342   -0.1335488395
H    -2.3930477103    1.2158945997   -0.9342236231
H     3.8809849544    1.3662993875   -1.9026094670
H     3.9614742218   -0.7215108303   -0.6389241609
H     4.4092008409   -0.7315726157   -3.0408740799
H     0.7309982678   -2.3807758994   -1.4229243463
H    -3.9271694632   -0.1390030221   -0.1964283824
