26
image4
O    -1.8166696423    0.6466384527    2.1294474100
Si   -0.2482447219    0.1235162019    2.3411826036
Si   -3.4442633832    0.4344078194    2.3991349449
C     0.7771736898    0.8375486108    0.9160078538
C     2.1676022141    1.2178975054    1.2433332008
H     0.2367878909    1.6649992140    0.4343892872
H     2.6681398563    2.0343647884    0.7262783315
H     2.7716499415    0.6114017772    1.9178203854
Si    0.5596221992   -1.1035000010   -2.0540351016
O    -0.8526137359   -0.2976279060   -1.9749612083
O     1.9793030760   -0.2951752037   -2.2783201244
Si    3.6139086914   -0.0947257708   -1.9428457767
Si   -2.4263762211   -0.2631811913   -1.1526169377
H     0.7413452647   -0.0048118820    0.1682398468
H    -3.7041664613    1.4982716088    3.4988934008
H     0.2353226378    0.5638867491    3.6832393242
H    -3.7210301662   -0.8642638540    3.1064056845
H    -0.2004527262   -1.3669579963    2.2479300740
H    -3.3421805443   -0.7191816239   -2.2429480759
H    -2.1510671187   -1.2942715553   -0.1134803628
H    -2.4469655837    1.1995746593   -0.8970808798
H     3.8869342590    1.3660843391   -1.9019406695
H     3.9730180811   -0.7220520071   -0.6382405604
H     4.4011527294   -0.7279463488   -3.0362197976
H     0.7293915804   -2.3533293859   -1.2725972464
H    -3.8872066778    0.0324770407    0.3130283540
