26
Coordinates from ORCA-job my_molecule E -1757.263875268985
  O          -1.73453976194107      1.08198525039698      2.30170227825410
  Si         -0.28885302535345      0.38474534716192      2.74983317316488
  Si         -3.32344397573476      0.82484050826117      1.82232583712782
  C           1.01156193759129      0.61829934172107      1.38517400821125
  C           2.17991700464118     -0.21522481704456      1.33238330820863
  H           1.11836299897039      1.65816298740158      1.01755656953984
  H           3.13554595854850      0.23775921793360      1.03457053555007
  H           2.23987589498300     -1.08263649500530      2.01047527913771
  Si          1.13421996995417     -0.62530823920899     -0.48024188314219
  O           0.12958651445128     -0.73625247011684     -1.89963290956887
  O           2.36403379532371      0.19161312493254     -1.29534403762303
  Si          2.37065071855540      0.68229742225586     -2.92093455874587
  Si         -1.38623369968462     -1.36946262450871     -2.22643931144971
  H           0.00275525494192      0.24039105398592      0.30968668189439
  H          -4.24449703536977      1.39829505578709      2.86186602203511
  H           0.23947014376573      1.07506631550125      3.97413386820449
  H          -3.58897214070084     -0.64984363560846      1.67543718982654
  H          -0.44237452794036     -1.09180849028256      2.99191363030717
  H          -1.60065836529698     -1.34237022619032     -3.71247000155136
  H          -1.50815638071612     -2.79053980076845     -1.73455741903004
  H          -2.46889354660670     -0.55312442723159     -1.56242820739622
  H           1.28031461298940      1.67495137604918     -3.21509118473998
  H           3.69773262789945      1.36548657943647     -3.10848515434840
  H           2.29221552539014     -0.48040914657585     -3.86843312115112
  H           0.94283417153890     -2.01518927858728      0.04576484422790
  H          -3.55245467019980      1.51827607030429      0.51123456305693
