26
Coordinates from ORCA-job my_molecule_product E -1757.381910586156
  O          -1.49324168080989      0.02687269809403      1.54417475576332
  Si         -0.65587382248515      1.05774117014492      2.59103275811363
  Si         -2.65737128695383     -1.18408234676077      1.66417011597071
  C           0.80385880464583      1.78175532485387      1.64637720995204
  C           1.76318255385455      0.76561534827963      0.99304611580442
  H           1.34821457151466      2.42799858874918      2.37281875790618
  H           2.65642435797851      1.28603019797654      0.58160647839473
  H           2.16164281838669      0.04572763127122      1.74270990985084
  Si          1.08115351376066     -0.22752183206060     -0.46128765712690
  O           0.04524045598361      0.72471728884397     -1.36737266526180
  O           2.40752132510535     -0.60409187432051     -1.41163125006467
  Si          2.77460761205871     -1.25850514875079     -2.91024976519179
  Si         -1.55087961971867      1.08739792657360     -1.71261944866306
  H           0.39408588477468      2.47557382054231      0.88013568045533
  H          -4.03365316495064     -0.59107683621149      1.53474581221701
  H          -1.56720562249617      2.15799310978435      3.06967645031556
  H          -2.54542958689218     -1.87902989386817      2.99638717991453
  H          -0.19284651408922      0.25882072113752      3.78478851039789
  H          -1.62708953148716      1.51628135348203     -3.15089108264853
  H          -2.44392451269229     -0.10918236079059     -1.51554294647931
  H          -2.03295266581101      2.21743227065072     -0.84460497812972
  H           2.53851076348181     -0.25354709737662     -4.00467489259183
  H           4.22512584082540     -1.64664456284803     -2.90045905477765
  H           1.93623114578019     -2.48115984413063     -3.18346544243194
  H           0.39596531752225     -1.51335023866095     -0.09757854268853
  H          -2.42672665848668     -2.17125646610472      0.55875845559952
