69
Coordinates from ORCA-job my_molecule
  Pt         -0.60939722017387     -0.16130394076466      0.48873136977589
  O           0.60344336963401      0.24651920622332      2.04000187872221
  O          -3.47524158657103     -1.46182104071824      1.22442780953774
  P           1.11640740711079      1.68443784775205      2.51010056468155
  P          -2.74697649762254     -1.96410016765544     -0.00625844745744
  O          -1.49421121894213     -2.99159134849833      0.48379710456108
  O          -1.94573689980553     -0.90039342280126     -0.89397306092221
  O          -0.26434898515671      2.50675491423060      2.94467087282348
  O           1.93235730579366      2.50200826005475      1.52113550377643
  C           1.99665806087586      1.33577482801663      4.10842674020361
  C          -3.77246243503897     -2.94606410519089     -1.19445905962939
  C          -2.88186164816985     -3.51269819414625     -2.31422769421321
  C          -4.83878785959526     -1.98779606433319     -1.76330181889920
  C          -4.44092647889684     -4.07958083238647     -0.39211933779437
  C           1.07337191127320      0.56080597900692      5.06458454196747
  C           3.26230624422830      0.52059879294852      3.77830935420243
  C           2.38539379960156      2.70196794922495      4.70866009372169
  H          -1.69901374907953     -3.26069825752109      1.40273390856038
  H          -0.13639755581955      3.44126830097151      2.68890703397470
  H          -2.38767456980574     -2.70234713745428     -2.88569200313750
  H          -3.49916772362511     -4.10933707044298     -3.01924332256370
  H          -2.09101952294621     -4.17179759780286     -1.90393807022338
  H          -4.37223141502586     -1.15496223621524     -2.32637987803675
  H          -5.45564318513503     -1.55105668630689     -0.95266237233663
  H          -5.51030835845439     -2.54070588262512     -2.45395744484442
  H          -3.68753559791368     -4.78066885833361      0.02146514265460
  H          -5.11658971207556     -4.66122628158309     -1.05410867243962
  H          -5.03714249652633     -3.67497506379130      0.44963032536279
  H           0.79626407091793     -0.42550651742645      4.64438443041441
  H           0.13945795965643      1.12208272511454      5.26695832771215
  H           1.59247280065061      0.39339783927933      6.03249146906575
  H           3.00457072765048     -0.46697373404875      3.34647467933907
  H           3.85008636958344      0.34804041986416      4.70478447326910
  H           3.90595470551489      1.05857448656214      3.05397582486069
  H           1.48745318608113      3.29780564181527      4.96976040885489
  H           3.00057113221409      3.28936373584797      3.99808373391472
  H           2.97395855733928      2.54964362677835      5.63779755821723
  Si          2.49396149595828     -0.99701677036376     -1.42275430255936
  C           4.34585580785830     -0.72317647926603     -1.73457521324846
  C           2.26519611187120     -2.11335415918295      0.08744455437213
  C           1.69072037579423     -1.81748877886590     -2.93570309544205
  H           4.82290500012072     -0.21484626514786     -0.87097435214455
  H           4.52187677015921     -0.09705564043657     -2.63382458191591
  H           4.87065054785012     -1.68873185912722     -1.88880669000671
  H           1.21537443136393     -2.45787782096243      0.19203067276903
  H           2.54782372793730     -1.59285484375217      1.02431347260652
  H           2.90501472566107     -3.01474721736748     -0.02028990382323
  H           0.60973716941594     -2.00210300014918     -2.76063204691022
  H           2.16338938349171     -2.79967308581069     -3.14484306299334
  H           1.79379831106891     -1.19519234542244     -3.84922965243337
  H          -0.31072110224784      0.21482412824829     -1.98057092717770
  C           1.72938876769773      0.75697517703265     -1.21669773783304
  C           0.21266376516308      0.84745235079994     -1.23294088782831
  H           2.12260699884803      1.32188924178925     -2.09465877027229
  H           2.13374638982610      1.27581991359757     -0.31958268674650
  Si         -0.50373316726540      2.64511874706804     -1.84385179694330
  H          -0.48095250896798      1.32493045469084     -0.25060180262042
  C          -0.23501356227282      3.95362824204941     -0.51613728123030
  C          -2.32851606811824      2.36905951000945     -2.22397870827036
  C           0.47356240989390      3.01672649694597     -3.41958426526782
  H          -1.03725578099281      3.89039414578106      0.24822228405398
  H          -0.26061571569451      4.97097721589721     -0.95842727152724
  H           0.73620687876687      3.79704850295563      0.00058067336435
  H          -2.86539700590173      1.97783684705050     -1.33618445491111
  H          -2.46742446945288      1.64031130029905     -3.04782934242930
  H          -2.80513598176629      3.32571619039043     -2.52335533564371
  H           1.52322636482061      3.29774491307837     -3.20378248882219
  H          -0.01126594079017      3.87532476474442     -3.93078988876609
  H           0.47027397815740      2.15890200978209     -4.12196107707530
