69
Coordinates from ORCA-job my_molecule E -2464.548144429224
  Pt          0.47182594259745     -0.46305693250646      0.23878467945853
  O           1.21948942095879      0.37897881995841      1.90898022804954
  O          -2.80674702846036     -0.81889057696210      0.02878846623483
  P           2.39964554854140      1.41400690200685      2.19837216895834
  P          -1.99473677764449     -1.87120333828763     -0.70736525869373
  O          -1.68837615624475     -3.16645124020569      0.30258901379098
  O          -0.54548038220581     -1.44236722244594     -1.24398060280133
  O           1.87196896433008      2.85194646606220      1.51863953660364
  O           3.80175565298246      1.10295500176289      1.71089852818016
  C           2.27823017912823      1.69313987034858      4.03250676803425
  C          -2.83474955630949     -2.61538699925946     -2.18532688220437
  C          -1.98034903124091     -3.75729086674898     -2.76247212275067
  C          -3.03241924576355     -1.49325965875590     -3.22347741217468
  C          -4.19975492536789     -3.14202935493276     -1.69959675650186
  C           0.85526491217729      2.14019405847096      4.41019974924580
  C           2.64355532391015      0.36924960818868      4.73182321030709
  C           3.30729675806575      2.78540789544446      4.38528307937517
  H          -2.23670786411461     -3.03069555521734      1.10101924264854
  H           2.65921710515829      3.27056215054797      1.11729611394929
  H          -0.99806974646533     -3.38802346350423     -3.11694163433302
  H          -2.50672300265638     -4.22254037039762     -3.62327991585096
  H          -1.79870350257540     -4.54425223957636     -2.00379894919620
  H          -2.06041450981924     -1.10755055834864     -3.58961721107830
  H          -3.60117406102060     -0.64506638245246     -2.79150294386769
  H          -3.60066380249061     -1.88289881969232     -4.09466513492441
  H          -4.07540155440024     -3.95158414914789     -0.95225817587171
  H          -4.77089808186891     -3.55449568863058     -2.55796963648078
  H          -4.79776687406084     -2.33209292402647     -1.23659115237377
  H           0.10799572814695      1.36344785408604      4.15571209986584
  H           0.57578145932711      3.07466822040293      3.88389242153211
  H           0.80010749349809      2.33138637296459      5.50321615506990
  H           1.91920821752020     -0.43139379617625      4.48343635167405
  H           2.63605800312721      0.51266175313204      5.83330211139393
  H           3.65512108414117      0.02537326420082      4.43647709058378
  H           3.05738913859078      3.74773725327713      3.89406454477905
  H           4.32730143659899      2.48920554858669      4.06969088328048
  H           3.31377423305314      2.95564173172459      5.48253548568194
  Si          2.49679452769967     -1.30652488958343     -0.70494668247865
  C           3.46382684797921      0.14037529326247     -1.43169778138302
  C           3.40755941047413     -2.09002904441068      0.75135956229781
  C           2.09613043371206     -2.59101119428005     -2.02878904381461
  H           3.75946797758956      0.82537067158728     -0.61149804386446
  H           2.89315151644771      0.68491950252004     -2.21001501268864
  H           4.38660295036463     -0.26184349319969     -1.90341290248371
  H           2.77629334983833     -2.80529181937197      1.31551385549734
  H           3.76652354923274     -1.28763898883614      1.42618577528891
  H           4.28282872135213     -2.64822899453508      0.35304099976937
  H           1.50137570786656     -3.42910191875316     -1.61712571124135
  H           3.05686489759165     -2.99382603995011     -2.41722253310343
  H           1.52866241747260     -2.14908571005231     -2.86994902258490
  H          -1.93186460989471      1.28299981006487     -0.16837782962212
  C           0.14097568899163      1.28535099725812     -0.81277525711160
  C          -1.03521318385645      1.94355495179926     -0.16560433711828
  H          -0.03583776025742      0.93636251493312     -1.84958974035195
  H           1.08628911947349      1.85154921586354     -0.71571596978857
  Si         -1.54408225364233      3.58541796395429     -1.04623152465165
  H          -0.80333462221325      2.23815296932313      0.87963474861949
  C          -0.06450388555535      4.76992658019047     -1.03464845459380
  C          -2.98034625574560      4.31053167981837     -0.04971858214975
  C          -2.09202238107725      3.21624091057530     -2.82206728347344
  H           0.36203490361647      4.83964021921138     -0.01272690665015
  H          -0.35925982529470      5.78898239084096     -1.36010135462708
  H           0.73977474469965      4.41969500053727     -1.71422592298953
  H          -2.67419969565563      4.52946788065223      0.99380537243427
  H          -3.83650976690178      3.60630875498066     -0.01232237142472
  H          -3.33657156060262      5.25807550349628     -0.50508226422948
  H          -1.26057146687082      2.80425024062343     -3.43029681492334
  H          -2.44892186482205      4.13887206317333     -3.32531309419640
  H          -2.92090813115642      2.47857434441602     -2.83779001195627
