29
.geom to .xyz and scaled by factor of 0.529177
O -0.9897623725 0.0286535139 0.5379344843
Si -0.5149930385 1.6421116577 0.5610232739
Si -1.0121396727 -1.3045836413 -0.5042721607
C -1.7200436412 2.5580239569 1.6656739155
C -3.0075840400 2.6326588942 1.2934039771
C -2.2131822805 -0.8574025149 -1.8135447675
C -3.5421198386 -0.4796825990 -1.5037292631
C 1.2047735518 1.7494658332 1.2870842683
C -0.5448015846 2.3605929244 -1.1678723427
C 0.6843891405 -1.6960257312 -1.2196624409
C -1.6581497744 -2.6928318159 0.5617765267
H -1.3855102285 3.0711231444 2.5795987700
H -3.3515116893 2.1270296775 0.3841305902
H -3.8001150625 3.1206323119 1.8670127773
H -1.8922629520 -0.8501979938 -2.8562981703
H -3.8485373241 -0.3642294507 -0.4588495240
H -4.3147265477 -0.3778248132 -2.2740655456
H 1.1625132328 1.3565705916 2.3159049026
H 1.5934786024 2.7823000072 1.3448062714
H 1.8815580734 1.1322250779 0.6749638910
H -1.5610367377 2.3665387183 -1.5953743750
H 0.1155439008 1.8189420236 -1.8571508099
H -0.1576738467 3.3858561591 -1.1214774145
H 1.0923663101 -0.8832509523 -1.8398599545
H 0.6290478973 -2.6002908005 -1.8436816498
H 1.3813646044 -1.8762233743 -0.3908583060
H -2.5809827700 -2.3763419759 1.0772705221
H -0.9056135318 -2.8983779731 1.3412988713
H -1.8563650053 -3.5937938663 -0.0376464884
