26
image5
O    -1.2197163984   -0.5150183023    2.0967524389
Si   -0.1945321779    0.5849431055    2.8439887203
Si   -3.0282188308   -0.5493351440    1.9570439146
C     0.7603590396    1.6054477301    1.4431523732
C     1.6251538462    0.8126506656    0.5073347301
H     1.3595043662    2.2388871191    2.1256091596
H     2.0792839700    1.4792907989   -0.2564199762
H     2.4234852365    0.2564768385    1.0238390645
Si    0.7197493109   -0.4140370987   -0.6543274989
O    -0.3756869115    0.5060628862   -1.5081964783
O     1.8713019268   -1.1213930213   -1.6499794887
Si    3.2484115020   -0.7809647783   -2.5548890297
Si   -1.9622101000    0.4274871543   -2.1008136509
H     0.0231028717    2.2293680324    0.9247931512
H    -3.6123740033    0.6157812664    2.6609010741
H    -0.8438047244    1.5485731822    3.7698542685
H    -3.0991274216   -1.8542522062    2.7178612103
H     0.8853578100   -0.2156301278    3.4968525887
H    -1.8352596796    0.7145388951   -3.5575605551
H    -2.5576714048   -0.9204105320   -1.8994473514
H    -2.7775294083    1.4761419853   -1.4245497488
H     3.2511041601    0.6613321023   -2.9497194444
H     4.4590542273   -1.0694116433   -1.7297273459
H     3.2332581392   -1.6543378161   -3.7630654184
H     0.0939900460   -1.5109405898    0.1442607783
H    -3.2393834508   -0.6680838924    0.4860796933
