26
image1
O    -1.2486665127   -0.3262160728    2.1335130139
Si   -0.1373980649    0.7123524660    2.8419198494
Si   -2.8968301815   -0.5791979488    1.9991838040
C     0.8127254856    1.7557439451    1.5812637517
C     1.7944269418    1.0523260696    0.7316007972
H     1.3189258792    2.4932587853    2.2421274115
H     1.9462562362    1.3479213017   -0.3055722064
H     2.5068771264    0.3478811166    1.1573681921
Si    0.3787103564   -1.2803396050   -1.1821780882
O    -0.4628541905    0.1773456941   -1.3400710390
O     1.9715513948   -1.1158154442   -1.6476927878
Si    3.2708681614   -0.7607039627   -2.6345119225
Si   -1.9290683279    0.4817779406   -2.1189156292
H     0.0919201913    2.3238411867    0.9731521897
H    -3.6755366585    0.5637161240    2.5703845957
H    -0.8627624852    1.6355421825    3.7823851131
H    -3.2557167920   -1.8404701586    2.7090237449
H     0.8445997650   -0.1085697187    3.6197832513
H    -1.6750500592    0.8650321678   -3.5383752617
H    -2.7863625939   -0.7363648487   -2.0687758019
H    -2.6054491545    1.6120261311   -1.4159227224
H     3.2366175801    0.6824974552   -3.0269163889
H     4.5189883181   -1.0316004563   -1.8677306732
H     3.2376633021   -1.6448029385   -3.8359672560
H     0.3950802653   -1.6526282664    0.2791302327
H    -3.2411107785   -0.7174334862    0.5526537352
