26
image3
O    -1.2539497650   -0.4834040972    2.1321810700
Si   -0.1566428794    0.5792111422    2.7977545282
Si   -2.9264365510   -0.5931988716    1.9867061217
C     0.7375114053    1.5923159146    1.4621822436
C     1.6665367606    0.8838792121    0.5476876578
H     1.3569430519    2.2546409556    2.1082590023
H     2.0424345698    1.4594674331   -0.3053398988
H     2.4133203736    0.2250280365    1.0027698250
Si    0.4845974751   -0.6967337041   -0.9502932847
O    -0.3995970772    0.6738651989   -1.3906717956
O     1.9761744507   -1.1112080627   -1.5771336574
Si    3.2844773708   -0.7693863859   -2.5640554770
Si   -1.9416104044    0.4447218355   -2.1104279396
H     0.0363979558    2.2402216400    0.9187787021
H    -3.5982014155    0.5792600091    2.6437723720
H    -0.8414072421    1.5231481722    3.7509393166
H    -3.2147837487   -1.8590068747    2.7038827169
H     0.8818548125   -0.2242835630    3.5073139964
H    -1.8351316017    0.7169348556   -3.5710695794
H    -2.5474074145   -0.9024954347   -1.8954382715
H    -2.7801261543    1.4840941579   -1.4350228787
H     3.2542244967    0.6709694648   -2.9696099250
H     4.5022688176   -1.0523368697   -1.7497756235
H     3.2376637930   -1.6534826682   -3.7681409387
H     0.1720169656   -1.4633897960    0.3103770503
H    -3.2592406747   -0.6735292267    0.5293502717
