26
image4
O    -1.2523784406   -0.4877920493    2.1234490411
Si   -0.1744279607    0.5768319768    2.8158291913
Si   -2.9580547584   -0.5743208094    1.9754918482
C     0.7419009008    1.5919475404    1.4535709456
C     1.6417497133    0.8460275106    0.5278789368
H     1.3610425464    2.2381277722    2.1166391984
H     2.0625760100    1.4679379998   -0.2781030153
H     2.4182422502    0.2440969788    1.0196134855
Si    0.6300360718   -0.5105015116   -0.7716685801
O    -0.3817274874    0.6164368190   -1.4795054121
O     1.9261171781   -1.1209623553   -1.6196754122
Si    3.2782696832   -0.7740324929   -2.5636359819
Si   -1.9590737196    0.4327515314   -2.1120571564
H     0.0299476450    2.2348094530    0.9193977173
H    -3.6086010519    0.5988055769    2.6511427912
H    -0.8437722408    1.5374213127    3.7615577788
H    -3.1504577759   -1.8521008090    2.7086242712
H     0.8840887313   -0.2191140707    3.5018655632
H    -1.8400166552    0.7162665025   -3.5661380668
H    -2.5538765790   -0.9178140472   -1.8970259799
H    -2.7770297474    1.4784488468   -1.4263069875
H     3.2510605000    0.6671071185   -2.9565543578
H     4.4809060135   -1.0626375832   -1.7373420396
H     3.2339750175   -1.6556857904   -3.7664255646
H     0.1157440652   -1.4967337417    0.2302965579
H    -3.2509668516   -0.6676801932    0.5089969917
