26
image2
O    -1.2445032589   -0.4826787908    2.1344312795
Si   -0.1380857748    0.5897365875    2.7935840986
Si   -2.9087776185   -0.6173227421    2.0185727472
C     0.7730754290    1.6469468829    1.5193222458
C     1.7380211308    0.9608590110    0.6328455391
H     1.3321566792    2.3299618942    2.1956865972
H     1.9972812553    1.4128390935   -0.3243111405
H     2.4396319133    0.2294936085    1.0349323709
Si    0.3708049723   -0.9915104209   -1.1296256619
O    -0.4118487558    0.5068951625   -1.3502081110
O     1.9615749035   -1.1102800046   -1.6263168623
Si    3.2840273560   -0.7614187212   -2.5862895207
Si   -1.9441360218    0.4607438159   -2.0986936166
H     0.0694454395    2.2723274638    0.9490454627
H    -3.5789749550    0.5583520787    2.6620453445
H    -0.8471905087    1.5046412341    3.7544769404
H    -3.2895806326   -1.8760977806    2.7101699230
H     0.8781962457   -0.2324146226    3.5149123381
H    -1.8177385916    0.7282450485   -3.5626370494
H    -2.5910211245   -0.8728407514   -1.9058471302
H    -2.7685646292    1.5136103869   -1.4380654539
H     3.2546752334    0.6770379001   -2.9997633266
H     4.5056559887   -1.0344155164   -1.7695170261
H     3.2527768460   -1.6481253643   -3.7888850344
H     0.2529422949   -1.4609760419    0.2981838423
H    -3.2711996636   -0.6944804114    0.5737467064
