69
Coordinates from ORCA-job my_molecule_NEB-HEI_converged E -2464.440958248217
  Pt          0.05469040506588     -1.29494796593162      0.98698529305374
  O           0.54342179262219      0.03359347024850      2.33696600390606
  O          -2.82894285468674     -1.81272988071722      0.83065613419228
  P           1.72135091956309      1.14237845476585      2.54218426488609
  P          -2.22205425883404     -2.87405077690115     -0.07734210581515
  O          -2.19205720230075     -4.37717683172570      0.59249007829177
  O          -0.65178935781559     -2.51980101527694     -0.38438603964693
  O           0.97758893696245      2.55656050057235      2.10353357723307
  O           3.02282472278889      0.94499162009403      1.79724498319794
  C           1.86624288210475      1.27892512074664      4.38319831135356
  C          -3.06521416967122     -3.20935224001508     -1.69367257969535
  C          -2.24621165202745     -4.23658108372183     -2.49950613010540
  C          -3.17916561376537     -1.87473211360534     -2.45656204428122
  C          -4.47208428201470     -3.76232046114523     -1.37567395016154
  C           0.54337011223592      1.77849583006209      4.99008105472993
  C           2.23092558077130     -0.11417505615012      4.93424644034731
  C           3.00887166097612      2.27708039632811      4.65895687909660
  H          -2.10220949638686     -4.28161625534258      1.56229880060222
  H           1.41486873563272      2.87715779523818      1.28703366842500
  H          -1.23767604065283     -3.85115249330477     -2.74598465955389
  H          -2.77108839828285     -4.45568521938164     -3.45333466102831
  H          -2.13151412518271     -5.18927343403678     -1.94660404533970
  H          -2.18205409116976     -1.45721674235110     -2.70005579823840
  H          -3.74052918343094     -1.12097938913833     -1.86972112508893
  H          -3.72039221448736     -2.04251951457338     -3.41142240216993
  H          -4.41777066834832     -4.72334999928710     -0.82853294585174
  H          -5.01883774832434     -3.93961986047654     -2.32610217781817
  H          -5.06484085422980     -3.04814213851841     -0.76960020929479
  H          -0.29301152857919      1.08675431595104      4.76941139290124
  H           0.27581486930441      2.78044081550691      4.60195826361185
  H           0.65250232771876      1.85017541116097      6.09304594967525
  H           1.41909300890707     -0.84781885475957      4.76146982595389
  H           2.39908862197895     -0.04011418962130      6.02926928365633
  H           3.15937453936391     -0.50691246001184      4.47252105383018
  H           2.77538478550558      3.28151529458869      4.25251899039768
  H           3.95927701509792      1.93479239535641      4.20474476814963
  H           3.15437555561605      2.37463019786661      5.75540989511388
  Si          2.13119717484541     -0.77165065805586     -1.52152808408189
  C           3.69358744919529     -0.01395251210679     -2.30118498102107
  C           2.80048469048582     -1.63635724367114      0.06308422657929
  C           1.49366500810516     -2.13256692066817     -2.68781607458917
  H           4.13953066809687      0.74178670931842     -1.62145571617899
  H           3.45523925332366      0.48563787112383     -3.26333376936161
  H           4.46118896653398     -0.78959444272141     -2.50094298392090
  H           2.12123584519101     -2.27921766731192      0.68723924878505
  H           3.25569347828802     -0.88975736241789      0.74462011220696
  H           3.57983167276189     -2.34819011595555     -0.29970625793933
  H           0.82601068530320     -2.83721203445120     -2.15556396277500
  H           2.35352583350565     -2.70789708732855     -3.09283787213481
  H           0.93640289227085     -1.71456614821717     -3.55040125829722
  H          -1.17507181486569      0.43866112625788     -1.32936450896707
  C           1.01785808233152      0.82800077387210     -1.46346179571828
  C          -0.40901178993282      1.15766324856658     -0.96383942143242
  H           1.06345721266420      1.06366843523850     -2.55215354322639
  H           1.72291920904432      1.54713728728997     -0.99019404835762
  Si         -1.04410941087953      2.91316765469274     -1.43850699328164
  H          -0.47897873366465      1.13019174784069      0.14731243190528
  C           0.28500432334416      4.23325659993118     -1.09615473371452
  C          -2.56972130619512      3.31054850049398     -0.38430641425283
  C          -1.49997873082849      2.96507192422014     -3.28282262334829
  H           0.49263324768059      4.32914837528643     -0.00947695415417
  H          -0.06073392715860      5.23135925022693     -1.43868281051781
  H           1.23969031688389      4.01776974732753     -1.61802556103142
  H          -2.30386664417967      3.31825664738290      0.69296271234118
  H          -3.37232621625486      2.55750363709038     -0.52314524513750
  H          -2.99415467096038      4.30567489329381     -0.63357278426976
  H          -0.62799798908039      2.74115976774076     -3.93119102065446
  H          -1.88349262395017      3.96487820042453     -3.57618783601133
  H          -2.29133488393025      2.22319615279358     -3.51708551595829
