69
Coordinates from ORCA-job my_molecule_MEP E -2464.548145301367
  Pt      0.376166     -0.870829      0.215123
  O       1.124523     -0.029065      1.884998
  O      -2.899522     -1.228484      0.013525
  P       2.303036      1.007785      2.174252
  P      -2.090693     -2.278899     -0.728836
  O      -1.784285     -3.578885      0.274990
  O      -0.642061     -1.849928     -1.266836
  O       1.774088      2.444571      1.492659
  O       3.706139      0.698195      1.688729
  C       2.179219      1.288312      4.008074
  C      -2.934583     -3.015522     -2.208470
  C      -2.083025     -4.156281     -2.792115
  C      -3.132284     -1.888271     -3.241077
  C      -4.299662     -3.542282     -1.722970
  C       0.754762      1.732579      4.383955
  C       2.546367     -0.034191      4.708934
  C       3.205475      2.383079      4.361015
  H      -2.330919     -3.445928      1.075042
  H       2.561144      2.863604      1.091360
  H      -1.100605     -3.787107     -3.146314
  H      -2.611416     -4.616812     -3.654207
  H      -1.901666     -4.946814     -2.037098
  H      -2.160165     -1.502627     -3.607052
  H      -3.698485     -1.041036     -2.803806
  H      -3.702999     -2.272699     -4.112942
  H      -4.175515     -4.355285     -0.979355
  H      -4.872633     -3.950170     -2.582304
  H      -4.895776     -2.733428     -1.255617
  H       0.009402      0.954367      4.128429
  H       0.473929      2.666518      3.857487
  H       0.697603      1.923628      5.476898
  H       1.823950     -0.836525      4.460404
  H       2.537105      0.110267      5.810265
  H       3.559046     -0.376120      4.415132
  H       2.954022      3.344465      3.868777
  H       4.226507      2.088835      4.046864
  H       3.210299      2.554156      5.458153
  Si      2.401045     -1.714184     -0.728797
  C       3.368579     -0.266975     -1.454308
  C       3.311364     -2.499255      0.726876
  C       1.999887     -2.997383     -2.053753
  H       3.664238      0.417534     -0.633685
  H       2.798141      0.278223     -2.232347
  H       4.291187     -0.669268     -1.926286
  H       2.679690     -3.214429      1.290666
  H       3.670835     -1.697407      1.402044
  H       4.186121     -3.057862      0.328047
  H       1.405657     -3.836038     -1.642469
  H       2.960395     -3.399610     -2.443346
  H       1.431697     -2.554678     -2.894006
  H      -2.028140      0.873216     -0.192357
  C       0.044309      0.876421     -0.837792
  C      -1.132126      1.534696     -0.191045
  H      -0.132553      0.526276     -1.874245
  H       0.989325      1.443343     -0.741517
  Si     -1.643334      3.175029     -1.073152
  H      -0.900009      1.830954      0.853680
  C      -0.165436      4.361713     -1.062740
  C      -3.080461      3.899024     -0.077033
  C      -2.190923      2.803161     -2.848514
  H       0.260363      4.433497     -0.040714
  H      -0.461407      5.379886     -1.389851
  H       0.639767      4.011696     -1.741338
  H      -2.774228      4.118959      0.966245
  H      -3.935734      3.193758     -0.038915
  H      -3.437940      4.845831     -0.532931
  H      -1.358726      2.392188     -3.456412
  H      -2.549678      3.724620     -3.352588
  H      -3.018392      2.063891     -2.863486
69
Coordinates from ORCA-job my_molecule_MEP E -2464.507284198940
  Pt      0.389717     -0.950739      0.224518
  O       0.884377     -0.002942      1.951093
  O      -2.607830     -1.696194      0.706457
  P       1.869688      1.183509      2.370357
  P      -2.048913     -2.732719     -0.253577
  O      -1.882569     -4.212003      0.485450
  O      -0.604403     -2.362855     -0.878708
  O       1.053414      2.591551      1.977601
  O       3.235013      1.166729      1.708217
  C       1.891504      1.250414      4.251164
  C      -3.049627     -3.170500     -1.754436
  C      -2.274992     -4.225237     -2.568315
  C      -3.220650     -1.862848     -2.550264
  C      -4.424508     -3.725171     -1.335377
  C       0.555522      1.743103      4.841645
  C       2.234238     -0.139796      4.819794
  C       3.014711      2.251620      4.601197
  H      -2.073525     -4.091972      1.437464
  H       1.630899      3.064798      1.347106
  H      -1.273818     -3.853165     -2.859096
  H      -2.837426     -4.475119     -3.492671
  H      -2.139814     -5.156938     -1.983562
  H      -2.235555     -1.435688     -2.824468
  H      -3.773354     -1.109236     -1.953419
  H      -3.790613     -2.055109     -3.482863
  H      -4.328018     -4.670287     -0.765530
  H      -5.022573     -3.938577     -2.247471
  H      -4.992930     -3.001063     -0.718100
  H      -0.283558      1.054757      4.618584
  H       0.289163      2.751211      4.469762
  H       0.654968      1.804058      5.948343
  H       1.422980     -0.870266      4.633040
  H       2.373180     -0.057865      5.920160
  H       3.174453     -0.541735      4.392234
  H       2.786070      3.264910      4.213563
  H       3.984483      1.931506      4.174119
  H       3.116824      2.325765      5.705144
  Si      2.336229     -1.385356     -1.151133
  C       3.421029     -0.059485     -1.992981
  C       3.337757     -2.083557      0.266055
  C       1.685311     -2.441614     -2.575645
  H       3.822577      0.723586     -1.320977
  H       2.999401      0.409622     -2.905914
  H       4.292687     -0.666137     -2.337212
  H       2.719169     -2.765269      0.878716
  H       3.589827     -1.191069      0.881569
  H       4.264827     -2.592638     -0.059376
  H       1.001175     -3.227230     -2.212859
  H       2.529471     -2.882661     -3.143353
  H       1.107995     -1.799972     -3.275754
  H      -1.695865      0.745209     -1.116384
  C       0.443315      0.739000     -0.981337
  C      -0.872197      1.388593     -0.744174
  H       0.609334      0.434893     -2.038179
  H       1.322778      1.319046     -0.627737
  Si     -1.201602      3.137001     -1.447524
  H      -1.017566      1.523340      0.346781
  C       0.244131      4.314665     -1.103592
  C      -2.723943      3.574729     -0.420074
  C      -1.552158      3.047464     -3.307362
  H       0.449374      4.368677     -0.015141
  H       0.000396      5.341565     -1.445685
  H       1.175619      4.005222     -1.622338
  H      -2.426443      3.557472      0.649786
  H      -3.485552      2.778117     -0.555116
  H      -3.184756      4.554152     -0.647230
  H      -0.642898      2.780731     -3.885712
  H      -1.918425      4.021291     -3.692548
  H      -2.327529      2.284710     -3.526725
69
Coordinates from ORCA-job my_molecule_MEP E -2464.447386190927
  Pt      0.300129     -0.931615      0.316365
  O       0.702891      0.034508      2.084537
  O      -2.731412     -1.771798      0.786447
  P       1.761063      1.169056      2.471167
  P      -2.142329     -2.828746     -0.131379
  O      -2.122781     -4.334587      0.563330
  O      -0.613105     -2.540204     -0.582264
  O       1.003747      2.608764      2.086428
  O       3.097862      1.063773      1.758814
  C       1.860846      1.268312      4.341572
  C      -3.060146     -3.203329     -1.703436
  C      -2.257304     -4.237487     -2.515639
  C      -3.181605     -1.872416     -2.470286
  C      -4.461635     -3.752603     -1.370501
  C       0.541540      1.770398      4.958071
  C       2.221736     -0.119395      4.906121
  C       3.000625      2.267849      4.640717
  H      -2.099222     -4.231878      1.536098
  H       1.487423      2.970628      1.317940
  H      -1.247315     -3.857305     -2.762283
  H      -2.786967     -4.463058     -3.465480
  H      -2.139064     -5.184165     -1.952199
  H      -2.182788     -1.454174     -2.709343
  H      -3.740277     -1.120986     -1.876802
  H      -3.723572     -2.036445     -3.425089
  H      -4.401910     -4.711770     -0.820073
  H      -5.019551     -3.933615     -2.314800
  H      -5.047908     -3.037196     -0.759774
  H      -0.302178      1.083486      4.749314
  H       0.273041      2.775680      4.579943
  H       0.659333      1.839345      6.062080
  H       1.410932     -0.855040      4.738922
  H       2.387874     -0.035973      6.002353
  H       3.152524     -0.516812      4.454196
  H       2.769102      3.275906      4.241807
  H       3.955621      1.931838      4.192097
  H       3.136334      2.357243      5.740243
  Si      2.243350     -1.102820     -1.345134
  C       3.576585     -0.018948     -2.207820
  C       3.081300     -1.848916      0.138869
  C       1.518733     -2.220309     -2.673115
  H       4.055719      0.741281     -1.558750
  H       3.300950      0.454922     -3.174187
  H       4.373920     -0.763006     -2.449667
  H       2.349138     -2.448897      0.713051
  H       3.392915     -0.989006      0.773005
  H       3.942208     -2.466203     -0.168496
  H       0.813164     -2.925456     -2.197480
  H       2.360900     -2.773851     -3.137386
  H       0.986955     -1.678657     -3.482114
  H      -1.390165      0.597687     -1.285962
  C       0.731184      0.735058     -1.099052
  C      -0.637390      1.303126     -0.877887
  H       0.916758      0.594369     -2.199462
  H       1.571889      1.356906     -0.716245
  Si     -1.102595      3.043798     -1.469042
  H      -0.793868      1.343568      0.216472
  C       0.283270      4.282098     -1.106671
  C      -2.613717      3.389349     -0.394809
  C      -1.516837      3.008230     -3.312876
  H       0.482754      4.341885     -0.016728
  H      -0.019343      5.296224     -1.437356
  H       1.230930      4.030397     -1.626605
  H      -2.312713      3.363331      0.673667
  H      -3.377497      2.596721     -0.538183
  H      -3.078906      4.370291     -0.605977
  H      -0.630350      2.764002     -3.934210
  H      -1.904661      3.990762     -3.648519
  H      -2.296134      2.245878     -3.520543
69
Coordinates from ORCA-job my_molecule_MEP E -2464.440901473110
  Pt      0.054690     -1.294948      0.986985
  O       0.543422      0.033593      2.336966
  O      -2.828943     -1.812730      0.830656
  P       1.721351      1.142378      2.542184
  P      -2.222054     -2.874051     -0.077342
  O      -2.192057     -4.377177      0.592490
  O      -0.651789     -2.519801     -0.384386
  O       0.977589      2.556561      2.103534
  O       3.022825      0.944992      1.797245
  C       1.866243      1.278925      4.383198
  C      -3.065214     -3.209352     -1.693673
  C      -2.246212     -4.236581     -2.499506
  C      -3.179166     -1.874732     -2.456562
  C      -4.472084     -3.762320     -1.375674
  C       0.543370      1.778496      4.990081
  C       2.230926     -0.114175      4.934246
  C       3.008872      2.277080      4.658957
  H      -2.102209     -4.281616      1.562299
  H       1.414869      2.877158      1.287034
  H      -1.237676     -3.851152     -2.745985
  H      -2.771088     -4.455685     -3.453335
  H      -2.131514     -5.189273     -1.946604
  H      -2.182054     -1.457217     -2.700056
  H      -3.740529     -1.120979     -1.869721
  H      -3.720392     -2.042520     -3.411422
  H      -4.417771     -4.723350     -0.828533
  H      -5.018838     -3.939620     -2.326102
  H      -5.064841     -3.048142     -0.769600
  H      -0.293012      1.086754      4.769411
  H       0.275815      2.780441      4.601958
  H       0.652502      1.850175      6.093046
  H       1.419093     -0.847819      4.761470
  H       2.399089     -0.040114      6.029269
  H       3.159375     -0.506912      4.472521
  H       2.775385      3.281515      4.252519
  H       3.959277      1.934792      4.204745
  H       3.154376      2.374630      5.755410
  Si      2.131197     -0.771651     -1.521528
  C       3.693587     -0.013953     -2.301185
  C       2.800485     -1.636357      0.063084
  C       1.493665     -2.132567     -2.687816
  H       4.139531      0.741787     -1.621456
  H       3.455239      0.485638     -3.263334
  H       4.461189     -0.789594     -2.500943
  H       2.121236     -2.279218      0.687239
  H       3.255693     -0.889757      0.744620
  H       3.579832     -2.348190     -0.299706
  H       0.826011     -2.837212     -2.155564
  H       2.353526     -2.707897     -3.092838
  H       0.936403     -1.714566     -3.550401
  H      -1.175072      0.438661     -1.329365
  C       1.017858      0.828001     -1.463462
  C      -0.409012      1.157663     -0.963839
  H       1.063457      1.063668     -2.552154
  H       1.722919      1.547137     -0.990194
  Si     -1.044109      2.913168     -1.438507
  H      -0.478979      1.130192      0.147312
  C       0.285004      4.233257     -1.096155
  C      -2.569721      3.310549     -0.384306
  C      -1.499979      2.965072     -3.282823
  H       0.492633      4.329148     -0.009477
  H      -0.060734      5.231359     -1.438683
  H       1.239690      4.017770     -1.618026
  H      -2.303867      3.318257      0.692963
  H      -3.372326      2.557504     -0.523145
  H      -2.994155      4.305675     -0.633573
  H      -0.627998      2.741160     -3.931191
  H      -1.883493      3.964878     -3.576188
  H      -2.291335      2.223196     -3.517086
69
Coordinates from ORCA-job my_molecule_MEP E -2464.453446997366
  Pt     -0.070395     -1.316793      1.169495
  O       0.377870      0.028136      2.514542
  O      -2.923118     -1.893621      0.934950
  P       1.588403      1.119146      2.646716
  P      -2.277839     -2.927517      0.021495
  O      -2.266489     -4.449719      0.646693
  O      -0.702426     -2.556638     -0.224359
  O       0.850035      2.529195      2.188024
  O       2.859341      0.881946      1.863147
  C       1.804275      1.289936      4.475036
  C      -3.053626     -3.216740     -1.633404
  C      -2.221224     -4.239032     -2.431446
  C      -3.117365     -1.866627     -2.374902
  C      -4.478329     -3.751614     -1.374347
  C       0.503947      1.811031      5.110909
  C       2.171381     -0.105681      5.019656
  C       2.969193      2.275990      4.697270
  H      -2.163444     -4.390725      1.618099
  H       1.270986      2.813115      1.350177
  H      -1.202822     -3.860069     -2.645342
  H      -2.721396     -4.435537     -3.403237
  H      -2.129511     -5.201867     -1.892590
  H      -2.106035     -1.468745     -2.591330
  H      -3.673898     -1.107903     -1.790110
  H      -3.639685     -2.007812     -3.344293
  H      -4.454925     -4.722180     -0.841957
  H      -4.995781     -3.900956     -2.345361
  H      -5.074742     -3.038099     -0.771310
  H      -0.343855      1.126399      4.912420
  H       0.239741      2.811928      4.717340
  H       0.634717      1.893312      6.210423
  H       1.344523     -0.828252      4.873592
  H       2.380541     -0.035587      6.107626
  H       3.076260     -0.509241      4.521483
  H       2.734479      3.279397      4.288622
  H       3.897431      1.914998      4.212024
  H       3.159129      2.385726      5.785901
  Si      2.229567     -0.674164     -1.760834
  C       3.858202     -0.088588     -2.544682
  C       2.695186     -1.448106     -0.093290
  C       1.447931     -2.051117     -2.806570
  H       4.337889      0.672826     -1.895130
  H       3.673364      0.375978     -3.535443
  H       4.577283     -0.920956     -2.682326
  H       1.790882     -1.805806      0.516161
  H       3.217452     -0.745028      0.584351
  H       3.285901     -2.376382     -0.248759
  H       0.689255     -2.593685     -2.207057
  H       2.233733     -2.780444     -3.096235
  H       0.968788     -1.682680     -3.735667
  H      -0.923578      0.380282     -1.466318
  C       1.198803      0.951081     -1.727452
  C      -0.197389      1.142927     -1.106604
  H       1.163292      1.217821     -2.810210
  H       1.901440      1.690816     -1.281994
  Si     -0.977080      2.865628     -1.439646
  H      -0.167412      1.018764     -0.000023
  C       0.293242      4.238053     -1.086314
  C      -2.479389      3.138343     -0.318834
  C      -1.499119      2.963271     -3.263213
  H       0.522949      4.317842     -0.002518
  H      -0.110912      5.224816     -1.394635
  H       1.245185      4.083509     -1.633854
  H      -2.177968      3.113300      0.748832
  H      -3.258047      2.362555     -0.468584
  H      -2.944037      4.127215     -0.517416
  H      -0.643983      2.783257     -3.946958
  H      -1.917904      3.961662     -3.507144
  H      -2.278873      2.207714     -3.493283
69
Coordinates from ORCA-job my_molecule_MEP E -2464.491517664193
  Pt      0.202329     -1.492980      0.802531
  O       0.560552     -0.095338      2.268474
  O      -2.020790     -1.692509      0.838988
  P       1.630879      1.071512      2.501293
  P      -1.949801     -2.988786     -0.052400
  O      -2.429690     -4.316595      0.775023
  O      -0.403999     -3.057288     -0.428378
  O       0.848377      2.484240      2.074272
  O       2.978019      1.011416      1.794459
  C       1.785319      1.232925      4.361565
  C      -2.988712     -3.184537     -1.591062
  C      -2.249699     -4.236245     -2.453081
  C      -3.049800     -1.832181     -2.324883
  C      -4.414192     -3.687342     -1.284418
  C       0.468627      1.747927      4.968320
  C       2.153832     -0.144269      4.944894
  C       2.929949      2.233306      4.637368
  H      -2.061309     -4.317265      1.681583
  H       1.437946      2.931528      1.434711
  H      -1.231998     -3.901417     -2.728726
  H      -2.827274     -4.400732     -3.386667
  H      -2.167401     -5.209665     -1.929987
  H      -2.039530     -1.441077     -2.555538
  H      -3.594804     -1.069140     -1.735148
  H      -3.586233     -1.971625     -3.286928
  H      -4.405823     -4.672608     -0.782097
  H      -4.954667     -3.805735     -2.248443
  H      -4.995990     -2.978259     -0.663128
  H      -0.373517      1.061777      4.751193
  H       0.210866      2.747212      4.566920
  H       0.573876      1.831475      6.071832
  H       1.340584     -0.880006      4.792688
  H       2.336376     -0.047546      6.037120
  H       3.079714     -0.545454      4.484206
  H       2.705215      3.240754      4.232344
  H       3.884761      1.890697      4.192784
  H       3.070299      2.334971      5.735638
  Si      2.080831     -0.643081     -1.697209
  C       3.820216     -0.194453     -2.328087
  C       2.315028     -1.358214      0.088022
  C       1.404548     -2.012943     -2.815407
  H       4.306978      0.577951     -1.698475
  H       3.714447      0.227793     -3.351602
  H       4.500538     -1.066812     -2.404003
  H       1.778534     -1.953041      1.067341
  H       2.892565     -0.609107      0.678749
  H       2.909556     -2.285008     -0.092362
  H       0.588163     -2.565724     -2.312874
  H       2.213255     -2.739261     -3.042441
  H       1.035777     -1.614593     -3.782078
  H      -0.970207      0.426433     -1.460823
  C       1.134259      1.006673     -1.775852
  C      -0.244123      1.199347     -1.123283
  H       1.091533      1.238260     -2.866814
  H       1.851840      1.747636     -1.357337
  Si     -1.023355      2.911572     -1.438925
  H      -0.167543      1.075278     -0.021589
  C       0.252416      4.276266     -1.083356
  C      -2.515221      3.147241     -0.296908
  C      -1.543624      3.004486     -3.264425
  H       0.485465      4.325060      0.000729
  H      -0.138517      5.271850     -1.378438
  H       1.200107      4.112286     -1.636406
  H      -2.188114      3.091777      0.762284
  H      -3.281872      2.360611     -0.454208
  H      -2.999867      4.132789     -0.456130
  H      -0.677002      2.826087     -3.935089
  H      -1.968537      3.995913     -3.523780
  H      -2.310365      2.235783     -3.496548
69
Coordinates from ORCA-job my_molecule_MEP E -2464.470009891070
  Pt     -0.112627     -1.169478      1.168748
  O      -0.239411      0.267296      2.606728
  O      -2.134211     -1.624709      0.948616
  P       1.161613      1.033510      2.632375
  P      -1.860108     -2.896318      0.019786
  O      -2.257783     -4.262164      0.824832
  O      -0.314421     -2.773101     -0.251451
  O       0.942222      2.606131      2.176456
  O       2.118709      0.299168      1.680837
  C       1.667480      1.236469      4.400341
  C      -2.890923     -3.110068     -1.515361
  C      -2.177550     -4.174758     -2.382792
  C      -2.960845     -1.769578     -2.272153
  C      -4.311524     -3.593980     -1.156670
  C       0.426160      1.779710      5.136241
  C       2.075546     -0.151633      4.931696
  C       2.851150      2.216853      4.529058
  H      -1.822208     -4.277393      1.701970
  H       1.220698      2.717270      1.244856
  H      -1.169876     -3.844955     -2.701864
  H      -2.784107     -4.345046     -3.297601
  H      -2.081733     -5.144452     -1.855923
  H      -1.954280     -1.389109     -2.534541
  H      -3.490275     -0.992821     -1.686446
  H      -3.519405     -1.926979     -3.218931
  H      -4.295833     -4.570460     -0.637133
  H      -4.886695     -3.716322     -2.099335
  H      -4.856977     -2.866420     -0.523433
  H      -0.440126      1.103938      4.998919
  H       0.146115      2.780432      4.751197
  H       0.640228      1.870330      6.221123
  H       1.262624     -0.893812      4.807410
  H       2.312258     -0.075321      6.013932
  H       2.975150     -0.533073      4.408372
  H       2.606193      3.216805      4.122229
  H       3.759735      1.842506      4.014982
  H       3.101720      2.336645      5.605270
  Si      2.184834     -0.730374     -1.742002
  C       3.861451     -0.128205     -2.404574
  C       2.669294     -1.684436     -0.166374
  C       1.439685     -2.000247     -2.944416
  H       4.298596      0.602132     -1.691201
  H       3.777239      0.368177     -3.392208
  H       4.576392     -0.970961     -2.498373
  H       1.856535     -2.007882      0.530299
  H       3.366133     -1.092733      0.451504
  H       3.155099     -2.629273     -0.489113
  H       0.652995     -2.580791     -2.422966
  H       2.233616     -2.713982     -3.250532
  H       1.014096     -1.551550     -3.864236
  H      -0.969374      0.404822     -1.533981
  C       1.172114      0.918606     -1.718862
  C      -0.239820      1.148636     -1.144469
  H       1.172918      1.176213     -2.805542
  H       1.874418      1.654033     -1.265896
  Si     -1.001004      2.878169     -1.456526
  H      -0.247095      0.979409     -0.043588
  C       0.273641      4.245978     -1.097454
  C      -2.495037      3.157684     -0.319428
  C      -1.540944      2.995470     -3.274756
  H       0.500482      4.323123     -0.012465
  H      -0.124436      5.235116     -1.406720
  H       1.225486      4.084276     -1.643586
  H      -2.186856      3.122538      0.746362
  H      -3.283910      2.391101     -0.465599
  H      -2.953046      4.152064     -0.507316
  H      -0.689954      2.805336     -3.961368
  H      -1.952336      3.997264     -3.517261
  H      -2.327897      2.245177     -3.499695
69
Coordinates from ORCA-job my_molecule_MEP E -2464.510803866323
  Pt     -0.558277     -0.970497      1.475824
  O      -0.765858      0.572142      2.869226
  O      -2.488002     -1.676411      1.054703
  P       0.766106      0.971067      2.795303
  P      -1.944575     -2.849218      0.142833
  O      -2.164128     -4.313293      0.841719
  O      -0.405879     -2.504787      0.019772
  O       0.997282      2.442740      2.117243
  O       1.368333     -0.179958      1.900253
  C       1.520767      1.196949      4.465662
  C      -2.867056     -3.090564     -1.442930
  C      -2.130921     -4.145966     -2.295210
  C      -2.925649     -1.742322     -2.187950
  C      -4.293561     -3.570813     -1.098022
  C       0.427388      1.857010      5.333028
  C       1.876770     -0.210029      4.989145
  C       2.781795      2.081465      4.410901
  H      -1.711762     -4.333975      1.710165
  H       0.783558      2.427363      1.159738
  H      -1.113807     -3.811215     -2.580058
  H      -2.705020     -4.311403     -3.231511
  H      -2.048445     -5.116850     -1.769033
  H      -1.914745     -1.374307     -2.452249
  H      -3.436415     -0.964274     -1.587302
  H      -3.493584     -1.880548     -3.131901
  H      -4.281091     -4.548005     -0.578997
  H      -4.869386     -3.685189     -2.040596
  H      -4.829110     -2.841016     -0.458427
  H      -0.498476      1.249938      5.339945
  H       0.172957      2.868953      4.958379
  H       0.795978      1.957508      6.374655
  H       1.003877     -0.892315      4.970742
  H       2.228253     -0.127597      6.038720
  H       2.683562     -0.670641      4.385919
  H       2.560982      3.092923      4.020766
  H       3.580848      1.634182      3.785983
  H       3.182696      2.187954      5.441302
  Si      2.354345     -0.662746     -1.925579
  C       3.951913     -0.109362     -2.796377
  C       2.899675     -1.479220     -0.306891
  C       1.465891     -2.008473     -2.930551
  H       4.456361      0.666964     -2.182267
  H       3.764871      0.324263     -3.799705
  H       4.661201     -0.954639     -2.909693
  H       2.055763     -1.934144      0.243632
  H       3.411207     -0.781221      0.383249
  H       3.609986     -2.292240     -0.570640
  H       0.689151     -2.473345     -2.289186
  H       2.189749     -2.803332     -3.209175
  H       0.992607     -1.636399     -3.861533
  H      -0.772225      0.376784     -1.668953
  C       1.339354      0.975525     -1.866165
  C      -0.064792      1.125815     -1.248312
  H       1.303011      1.268087     -2.942557
  H       2.030212      1.720115     -1.408194
  Si     -0.897730      2.836219     -1.473531
  H      -0.047335      0.857594     -0.165978
  C       0.331540      4.237215     -1.078161
  C      -2.388114      3.023516     -0.311577
  C      -1.471734      3.010832     -3.275406
  H       0.603399      4.284642     -0.001606
  H      -0.121060      5.219161     -1.330543
  H       1.270210      4.142764     -1.661591
  H      -2.085492      2.940236      0.753219
  H      -3.160136      2.248068     -0.495226
  H      -2.867400      4.015957     -0.450373
  H      -0.631731      2.870382     -3.986684
  H      -1.912887      4.010946     -3.467123
  H      -2.245215      2.251031     -3.514263
69
Coordinates from ORCA-job my_molecule_MEP E -2464.527218468196
  Pt     -0.938632     -1.091510      1.693359
  O      -1.332878      0.445282      3.065297
  O      -2.645312     -2.303385      1.585092
  P       0.121456      1.044072      2.910695
  P      -2.010767     -3.198746      0.447902
  O      -1.996068     -4.782197      0.849928
  O      -0.547338     -2.615444      0.305873
  O       0.077488      2.619047      2.476869
  O       0.772680      0.124233      1.799166
  C       1.089566      1.112682      4.473035
  C      -2.978235     -3.221238     -1.116368
  C      -2.228064     -4.086303     -2.149664
  C      -3.081905     -1.759877     -1.599162
  C      -4.377148     -3.794937     -0.811286
  C       0.310155      1.971521      5.489285
  C       1.227307     -0.339069      4.975723
  C       2.474222      1.718759      4.167360
  H      -1.493947     -4.914694      1.680235
  H      -0.497903      2.752602      1.692040
  H      -1.212103     -3.690651     -2.350470
  H      -2.792293     -4.079904     -3.105745
  H      -2.134493     -5.136924     -1.811956
  H      -2.080818     -1.322838     -1.785107
  H      -3.601754     -1.123272     -0.856234
  H      -3.656829     -1.731276     -2.547899
  H      -4.320974     -4.845353     -0.465188
  H      -4.992698     -3.766785     -1.734704
  H      -4.897112     -3.198699     -0.034860
  H      -0.701597      1.557918      5.673355
  H       0.201838      3.017602      5.142250
  H       0.858100      1.981387      6.454634
  H       0.236915     -0.798692      5.163863
  H       1.798572     -0.341397      5.927189
  H       1.766579     -0.971547      4.243465
  H       2.393667      2.763445      3.808784
  H       3.015351      1.127571      3.401456
  H       3.085237      1.717873      5.094307
  Si      2.685391     -0.456475     -2.357968
  C       4.029463     -0.443977     -3.703112
  C       3.499461     -0.531241     -0.646251
  C       1.561937     -1.968534     -2.594732
  H       4.691483      0.441744     -3.605006
  H       3.583846     -0.419634     -4.719563
  H       4.669434     -1.348836     -3.639620
  H       2.742096     -0.457335      0.161999
  H       4.224133      0.299703     -0.514948
  H       4.051698     -1.484402     -0.509464
  H       0.868093     -2.083876     -1.735712
  H       2.166971     -2.896994     -2.662333
  H       0.964168     -1.888474     -3.527161
  H      -0.336303      0.443156     -1.957102
  C       1.664724      1.154692     -2.504491
  C       0.398934      1.208495     -1.620024
  H       1.398454      1.304694     -3.575292
  H       2.354179      1.994432     -2.256078
  Si     -0.492944      2.886326     -1.544400
  H       0.638041      0.924077     -0.570464
  C       0.650167      4.183851     -0.752880
  C      -2.073360      2.700725     -0.492411
  C      -0.989051      3.477555     -3.278460
  H       0.973561      3.886421      0.266533
  H       0.150718      5.172233     -0.677970
  H       1.569344      4.320745     -1.359578
  H      -1.908658      2.170795      0.471921
  H      -2.821026      2.084743     -1.035054
  H      -2.547326      3.680255     -0.273801
  H      -0.098668      3.591659     -3.930736
  H      -1.504868      4.459503     -3.240170
  H      -1.674358      2.754715     -3.768191
