69
Coordinates from ORCA-job my_molecule E -2464.440958316205
  Pt      0.054690     -1.294948      0.986985
  O       0.543422      0.033593      2.336966
  O      -2.828943     -1.812730      0.830656
  P       1.721351      1.142378      2.542184
  P      -2.222054     -2.874051     -0.077342
  O      -2.192057     -4.377177      0.592490
  O      -0.651789     -2.519801     -0.384386
  O       0.977589      2.556561      2.103534
  O       3.022825      0.944992      1.797245
  C       1.866243      1.278925      4.383198
  C      -3.065214     -3.209352     -1.693673
  C      -2.246212     -4.236581     -2.499506
  C      -3.179166     -1.874732     -2.456562
  C      -4.472084     -3.762320     -1.375674
  C       0.543370      1.778496      4.990081
  C       2.230926     -0.114175      4.934246
  C       3.008872      2.277080      4.658957
  H      -2.102209     -4.281616      1.562299
  H       1.414869      2.877158      1.287034
  H      -1.237676     -3.851152     -2.745985
  H      -2.771088     -4.455685     -3.453335
  H      -2.131514     -5.189273     -1.946604
  H      -2.182054     -1.457217     -2.700056
  H      -3.740529     -1.120979     -1.869721
  H      -3.720392     -2.042520     -3.411422
  H      -4.417771     -4.723350     -0.828533
  H      -5.018838     -3.939620     -2.326102
  H      -5.064841     -3.048142     -0.769600
  H      -0.293012      1.086754      4.769411
  H       0.275815      2.780441      4.601958
  H       0.652502      1.850175      6.093046
  H       1.419093     -0.847819      4.761470
  H       2.399089     -0.040114      6.029269
  H       3.159375     -0.506912      4.472521
  H       2.775385      3.281515      4.252519
  H       3.959277      1.934792      4.204745
  H       3.154376      2.374630      5.755410
  Si      2.131197     -0.771651     -1.521528
  C       3.693587     -0.013953     -2.301185
  C       2.800485     -1.636357      0.063084
  C       1.493665     -2.132567     -2.687816
  H       4.139531      0.741787     -1.621456
  H       3.455239      0.485638     -3.263334
  H       4.461189     -0.789594     -2.500943
  H       2.121236     -2.279218      0.687239
  H       3.255693     -0.889757      0.744620
  H       3.579832     -2.348190     -0.299706
  H       0.826011     -2.837212     -2.155564
  H       2.353526     -2.707897     -3.092838
  H       0.936403     -1.714566     -3.550401
  H      -1.175072      0.438661     -1.329365
  C       1.017858      0.828001     -1.463462
  C      -0.409012      1.157663     -0.963839
  H       1.063457      1.063668     -2.552154
  H       1.722919      1.547137     -0.990194
  Si     -1.044109      2.913168     -1.438507
  H      -0.478979      1.130192      0.147312
  C       0.285004      4.233257     -1.096155
  C      -2.569721      3.310549     -0.384306
  C      -1.499979      2.965072     -3.282823
  H       0.492633      4.329148     -0.009477
  H      -0.060734      5.231359     -1.438683
  H       1.239690      4.017770     -1.618026
  H      -2.303867      3.318257      0.692963
  H      -3.372326      2.557504     -0.523145
  H      -2.994155      4.305675     -0.633573
  H      -0.627998      2.741160     -3.931191
  H      -1.883493      3.964878     -3.576188
  H      -2.291335      2.223196     -3.517086
69
Coordinates from ORCA-job my_molecule E -2464.441016435750
  Pt      0.058308     -1.297298      0.981682
  O       0.545707      0.028091      2.334278
  O      -2.820261     -1.823344      0.844362
  P       1.720757      1.139020      2.540348
  P      -2.217720     -2.880359     -0.071490
  O      -2.185327     -4.386929      0.590817
  O      -0.649147     -2.524942     -0.384561
  O       0.974598      2.552422      2.103056
  O       3.022562      0.943751      1.795563
  C       1.865067      1.274647      4.381359
  C      -3.068056     -3.206917     -1.685470
  C      -2.254549     -4.232158     -2.499331
  C      -3.182434     -1.868887     -2.442128
  C      -4.474434     -3.757918     -1.363101
  C       0.536051      1.756540      4.989190
  C       2.247651     -0.114691      4.929636
  C       2.994847      2.287293      4.657570
  H      -2.091543     -4.296332      1.560750
  H       1.413445      2.875863      1.288859
  H      -1.246669     -3.847041     -2.749323
  H      -2.784563     -4.446807     -3.451345
  H      -2.138319     -5.187099     -1.950614
  H      -2.185569     -1.453489     -2.689989
  H      -3.737964     -1.115807     -1.848873
  H      -3.729880     -2.031179     -3.394349
  H      -4.419611     -4.721790     -0.821001
  H      -5.026534     -3.928805     -2.311545
  H      -5.061932     -3.045296     -0.750101
  H      -0.291321      1.054083      4.768201
  H       0.255216      2.755153      4.601895
  H       0.644489      1.828787      6.092161
  H       1.445158     -0.858269      4.755625
  H       2.415504     -0.040751      6.024708
  H       3.180799     -0.494578      4.466582
  H       2.747707      3.289189      4.252871
  H       3.949197      1.958242      4.201841
  H       3.140242      2.385206      5.753991
  Si      2.131230     -0.772440     -1.518607
  C       3.694029     -0.012023     -2.294166
  C       2.800153     -1.641474      0.063053
  C       1.491407     -2.125985     -2.691569
  H       4.140383      0.740616     -1.611306
  H       3.457601      0.491192     -3.254819
  H       4.460930     -0.787874     -2.495762
  H       2.120870     -2.285401      0.686214
  H       3.255279     -0.894895      0.744518
  H       3.579317     -2.352310     -0.301952
  H       0.825382     -2.833991     -2.161779
  H       2.350634     -2.698282     -3.102133
  H       0.931911     -1.702709     -3.550223
  H      -1.173764      0.441377     -1.331443
  C       1.018302      0.830488     -1.456354
  C      -0.409685      1.161078     -0.963781
  H       1.070181      1.068354     -2.543922
  H       1.723515      1.545932     -0.977923
  Si     -1.041485      2.915323     -1.445634
  H      -0.484176      1.135464      0.147196
  C       0.285866      4.235213     -1.096510
  C      -2.574636      3.313888     -0.402985
  C      -1.483490      2.963362     -3.293323
  H       0.489919      4.329491     -0.009001
  H      -0.059249      5.233515     -1.438984
  H       1.242396      4.020728     -1.615502
  H      -2.316325      3.323922      0.676122
  H      -3.375709      2.559945     -0.546107
  H      -2.997887      4.308197     -0.657436
  H      -0.606569      2.738059     -3.934625
  H      -1.864650      3.962625     -3.591447
  H      -2.273158      2.221018     -3.531933
69
Coordinates from ORCA-job my_molecule E -2464.441211541166
  Pt      0.054584     -1.297096      0.982802
  O       0.542111      0.028842      2.333484
  O      -2.823312     -1.821067      0.843924
  P       1.718643      1.138597      2.539557
  P      -2.219630     -2.879032     -0.070093
  O      -2.184656     -4.384224      0.595132
  O      -0.651608     -2.521891     -0.384339
  O       0.974021      2.552722      2.102244
  O       3.020516      0.941865      1.795289
  C       1.862138      1.273062      4.380499
  C      -3.069895     -3.209805     -1.683053
  C      -2.250786     -4.228860     -2.499044
  C      -3.194695     -1.872222     -2.438964
  C      -4.471842     -3.770368     -1.358455
  C       0.531074      1.749858      4.987883
  C       2.249181     -0.115641      4.927297
  C       2.988200      2.289552      4.657799
  H      -2.089870     -4.291632      1.564808
  H       1.414512      2.876893      1.289279
  H      -1.247254     -3.835274     -2.753656
  H      -2.782984     -4.448952     -3.448596
  H      -2.124091     -5.182275     -1.949979
  H      -2.201406     -1.450764     -2.690822
  H      -3.752456     -1.122473     -1.843578
  H      -3.744809     -2.037736     -3.389062
  H      -4.409513     -4.734537     -0.817687
  H      -5.024799     -3.943526     -2.305938
  H      -5.062536     -3.062367     -0.743168
  H      -0.293724      1.044763      4.765519
  H       0.247122      2.747828      4.601275
  H       0.638392      1.821370      6.090980
  H       1.449297     -0.861698      4.751931
  H       2.416346     -0.042507      6.022510
  H       3.183823     -0.491795      4.464150
  H       2.737421      3.290945      4.254034
  H       3.943767      1.964457      4.201820
  H       3.133119      2.386983      5.754304
  Si      2.130368     -0.770139     -1.521713
  C       3.695976     -0.014174     -2.296088
  C       2.795532     -1.640801      0.060784
  C       1.488619     -2.123791     -2.693881
  H       4.143204      0.737498     -1.612726
  H       3.461010      0.489817     -3.256649
  H       4.461415     -0.791441     -2.497295
  H       2.114541     -2.283161      0.683716
  H       3.252304     -0.895771      0.742866
  H       3.572661     -2.353906     -0.303828
  H       0.821826     -2.830931     -2.163594
  H       2.347011     -2.697447     -3.104120
  H       0.929487     -1.700278     -3.552777
  H      -1.168932      0.444360     -1.323747
  C       1.022622      0.833275     -1.460386
  C      -0.403075      1.164743     -0.961428
  H       1.069346      1.070281     -2.548618
  H       1.729800      1.549993     -0.986545
  Si     -1.035729      2.918434     -1.444586
  H      -0.472451      1.141498      0.150012
  C       0.291758      4.238259     -1.095707
  C      -2.569527      3.318643     -0.403476
  C      -1.476255      2.965417     -3.292708
  H       0.495062      4.332901     -0.008086
  H      -0.052752      5.236455     -1.439063
  H       1.248585      4.023071     -1.613901
  H      -2.312094      3.330116      0.675845
  H      -3.370882      2.564890     -0.546256
  H      -2.992149      4.312806     -0.659685
  H      -0.599097      2.738362     -3.933137
  H      -1.855747      3.964975     -3.591946
  H      -2.266837      2.224051     -3.531363
69
Coordinates from ORCA-job my_molecule E -2464.441595456397
  Pt      0.051679     -1.299214      0.985116
  O       0.539543      0.027292      2.336004
  O      -2.822692     -1.831499      0.853835
  P       1.716537      1.137063      2.540796
  P      -2.220429     -2.885664     -0.065538
  O      -2.179653     -4.392715      0.595084
  O      -0.654203     -2.524168     -0.384296
  O       0.971452      2.550971      2.103920
  O       3.017919      0.939767      1.795873
  C       1.860545      1.270646      4.381344
  C      -3.075704     -3.212538     -1.676180
  C      -2.254028     -4.221489     -2.502140
  C      -3.213210     -1.871716     -2.424193
  C      -4.472208     -3.783562     -1.346930
  C       0.524981      1.733346      4.989806
  C       2.261555     -0.115331      4.924765
  C       2.976713      2.297878      4.659087
  H      -2.080261     -4.302933      1.564593
  H       1.413242      2.876687      1.292326
  H      -1.256009     -3.817798     -2.762596
  H      -2.791491     -4.442325     -3.448560
  H      -2.114882     -5.176013     -1.957980
  H      -2.224353     -1.443767     -2.682503
  H      -3.769928     -1.127701     -1.820687
  H      -3.770245     -2.035623     -3.370507
  H      -4.400831     -4.750723     -0.812712
  H      -5.029854     -3.953578     -2.292168
  H      -5.063033     -3.082983     -0.723295
  H      -0.292462      1.019811      4.767247
  H       0.230370      2.728484      4.603774
  H       0.631906      1.805446      6.092875
  H       1.468839     -0.868742      4.748129
  H       2.429060     -0.043262      6.019974
  H       3.199335     -0.481077      4.459660
  H       2.715394      3.297304      4.257133
  H       3.935029      1.983084      4.201560
  H       3.121971      2.395158      5.755544
  Si      2.129493     -0.765965     -1.524049
  C       3.700247     -0.015123     -2.292965
  C       2.788313     -1.642007      0.058167
  C       1.484436     -2.115511     -2.699593
  H       4.148572      0.732748     -1.606154
  H       3.469028      0.492977     -3.252211
  H       4.463251     -0.794472     -2.494960
  H       2.104832     -2.282445      0.680508
  H       3.248149     -0.899646      0.741176
  H       3.561812     -2.358459     -0.307255
  H       0.817401     -2.823852     -2.170837
  H       2.341540     -2.689036     -3.112484
  H       0.924930     -1.688491     -3.556615
  H      -1.161390      0.447189     -1.319138
  C       1.029465      0.838941     -1.462150
  C      -0.395596      1.169699     -0.960757
  H       1.075298      1.079053     -2.550070
  H       1.737354      1.554884     -0.987962
  Si     -1.028319      2.921695     -1.449711
  H      -0.462619      1.149633      0.150903
  C       0.296794      4.242431     -1.095123
  C      -2.569182      3.323947     -0.419847
  C      -1.456361      2.965666     -3.300896
  H       0.496547      4.336553     -0.006713
  H      -0.047391      5.240446     -1.439282
  H       1.255531      4.028168     -1.610188
  H      -2.319302      3.338477      0.661212
  H      -3.369616      2.569888     -0.566343
  H      -2.989951      4.317425     -0.681866
  H      -0.575222      2.735810     -3.934875
  H      -1.831850      3.965413     -3.604500
  H      -2.246792      2.225446     -3.543582
69
Coordinates from ORCA-job my_molecule E -2464.442013287015
  Pt      0.048789     -1.300323      0.985732
  O       0.535749      0.025291      2.336337
  O      -2.819851     -1.836711      0.863754
  P       1.713163      1.134914      2.540665
  P      -2.219386     -2.888145     -0.060024
  O      -2.172120     -4.396173      0.597890
  O      -0.655328     -2.522506     -0.384645
  O       0.967261      2.548659      2.105091
  O       3.014209      0.937823      1.795148
  C       1.857499      1.266549      4.380919
  C      -3.080655     -3.213509     -1.667230
  C      -2.257041     -4.213572     -2.502093
  C      -3.231272     -1.870701     -2.409110
  C      -4.471578     -3.794328     -1.331753
  C       0.518804      1.718765      4.990426
  C       2.268259     -0.118099      4.920261
  C       2.966792      2.300826      4.660025
  H      -2.067133     -4.307959      1.566972
  H       1.409787      2.876050      1.294713
  H      -1.264200     -3.800717     -2.768069
  H      -2.799452     -4.435437     -3.445455
  H      -2.106487     -5.168851     -1.962252
  H      -2.247145     -1.436801     -2.675382
  H      -3.786193     -1.131376     -1.798238
  H      -3.795978     -2.034548     -3.350862
  H      -4.391026     -4.763373     -0.802337
  H      -5.034357     -3.962935     -2.274144
  H      -5.062098     -3.099946     -0.700906
  H      -0.293249      0.999381      4.767109
  H       0.216506      2.712075      4.605473
  H       0.625300      1.790630      6.093533
  H       1.480508     -0.876329      4.741839
  H       2.436282     -0.048278      6.015518
  H       3.207983     -0.475829      4.452918
  H       2.698199      3.299233      4.260345
  H       3.926956      1.993581      4.201136
  H       3.112444      2.396893      5.756524
  Si      2.130743     -0.760105     -1.527503
  C       3.707598     -0.014694     -2.289221
  C       2.780991     -1.642127      0.054772
  C       1.482404     -2.105061     -2.706779
  H       4.156562      0.728803     -1.598078
  H       3.481215      0.498202     -3.247027
  H       4.468167     -0.796174     -2.491814
  H       2.094000     -2.280199      0.676126
  H       3.244011     -0.902948      0.738975
  H       3.550300     -2.362749     -0.311022
  H       0.814486     -2.813859     -2.179522
  H       2.338066     -2.679126     -3.121759
  H       0.923249     -1.674299     -3.562247
  H      -1.151902      0.447492     -1.315570
  C       1.037464      0.845473     -1.465071
  C      -0.387286      1.173204     -0.960970
  H       1.081517      1.088210     -2.552610
  H       1.745166      1.561960     -0.991321
  Si     -1.022009      2.922956     -1.454930
  H      -0.451431      1.155178      0.150899
  C       0.299575      4.245603     -1.094058
  C      -2.570462      3.325685     -0.436688
  C      -1.437290      2.964464     -3.309141
  H       0.495420      4.339508     -0.004895
  H      -0.044823      5.243137     -1.439350
  H       1.260532      4.032800     -1.605616
  H      -2.328724      3.342928      0.646178
  H      -3.369490      2.570995     -0.587695
  H      -2.989673      4.318358     -0.704289
  H      -0.552106      2.732139     -3.936586
  H      -1.808715      3.964513     -3.616686
  H      -2.227497      2.225509     -3.556332
69
Coordinates from ORCA-job my_molecule E -2464.442976489497
  Pt      0.046524     -1.312399      0.993677
  O       0.530879      0.015335      2.342316
  O      -2.805985     -1.868188      0.898309
  P       1.706981      1.127806      2.542552
  P      -2.213666     -2.907583     -0.044421
  O      -2.156660     -4.423441      0.594150
  O      -0.653664     -2.533769     -0.379550
  O       0.956603      2.539238      2.107824
  O       3.007115      0.932294      1.795103
  C       1.853456      1.258593      4.381894
  C      -3.090067     -3.212151     -1.646493
  C      -2.275187     -4.200824     -2.503209
  C      -3.248871     -1.859959     -2.369511
  C      -4.476988     -3.796851     -1.301956
  C       0.505382      1.676929      4.994882
  C       2.298385     -0.118153      4.914230
  C       2.938474      2.318265      4.661007
  H      -2.039159     -4.347340      1.562883
  H       1.400709      2.870931      1.300038
  H      -1.287091     -3.781810     -2.777305
  H      -2.829333     -4.413134     -3.441940
  H      -2.115055     -5.161850     -1.976461
  H      -2.268142     -1.424924     -2.646909
  H      -3.792143     -1.126561     -1.741278
  H      -3.828895     -2.011654     -3.303915
  H      -4.390431     -4.773102     -0.786960
  H      -5.051699     -3.951356     -2.239429
  H      -5.058378     -3.110772     -0.653751
  H      -0.288967      0.938092      4.771414
  H       0.177777      2.663053      4.612024
  H       0.611774      1.749727      6.097878
  H       1.528445     -0.894076      4.733881
  H       2.467753     -0.049700      6.009314
  H       3.244956     -0.450795      4.442225
  H       2.644473      3.311214      4.265597
  H       3.904263      2.035760      4.197945
  H       3.085758      2.414273      5.757253
  Si      2.131060     -0.748318     -1.532291
  C       3.718619     -0.012905     -2.281586
  C       2.768614     -1.642538      0.048609
  C       1.476099     -2.084137     -2.719186
  H       4.168511      0.722892     -1.582813
  H       3.500294      0.508460     -3.236574
  H       4.474941     -0.797907     -2.485489
  H       2.077692     -2.278050      0.668684
  H       3.237612     -0.909105      0.735043
  H       3.530797     -2.369058     -0.319616
  H       0.809763     -2.797077     -2.194872
  H       2.329062     -2.656096     -3.142085
  H       0.913956     -1.645841     -3.569070
  H      -1.135582      0.448670     -1.325049
  C       1.053082      0.858435     -1.466873
  C      -0.375775      1.178386     -0.967886
  H       1.105394      1.117411     -2.551222
  H       1.756547      1.569973     -0.978900
  Si     -1.011368      2.924720     -1.471986
  H      -0.444731      1.161228      0.143813
  C       0.301956      4.250956     -1.093945
  C      -2.577644      3.328196     -0.481539
  C      -1.395931      2.962139     -3.333042
  H       0.488967      4.341978     -0.002864
  H      -0.043368      5.248210     -1.439088
  H       1.267862      4.043151     -1.598238
  H      -2.355315      3.350398      0.605393
  H      -3.373362      2.572307     -0.643999
  H      -2.992877      4.319392     -0.760934
  H      -0.500175      2.728925     -3.945051
  H      -1.762278      3.961601     -3.648485
  H      -2.181752      2.222487     -3.592170
69
Coordinates from ORCA-job my_molecule E -2464.443684170286
  Pt      0.048612     -1.329577      1.002215
  O       0.527802      0.003129      2.344752
  O      -2.785086     -1.897511      0.931541
  P       1.701299      1.119768      2.541300
  P      -2.202806     -2.926354     -0.029168
  O      -2.145513     -4.450726      0.588321
  O      -0.644711     -2.550065     -0.369526
  O       0.945992      2.528070      2.105340
  O       3.001715      0.926504      1.793757
  C       1.848250      1.251959      4.379978
  C      -3.090672     -3.204760     -1.629259
  C      -2.294795     -4.198148     -2.498229
  C      -3.232010     -1.844090     -2.340356
  C      -4.484019     -3.771045     -1.280834
  C       0.492381      1.641234      4.994970
  C       2.322640     -0.116326      4.908450
  C       2.911618      2.333531      4.658506
  H      -2.019511     -4.388225      1.557014
  H       1.392185      2.864133      1.300503
  H      -1.302613     -3.790838     -2.775720
  H      -2.857620     -4.395676     -3.435027
  H      -2.144738     -5.165102     -1.979484
  H      -2.245770     -1.423723     -2.620888
  H      -3.758479     -1.106934     -1.702246
  H      -3.821043     -1.978208     -3.271765
  H      -4.409043     -4.753260     -0.775323
  H      -5.067279     -3.907801     -2.215700
  H      -5.049976     -3.082079     -0.622138
  H      -0.286171      0.885617      4.772120
  H       0.143088      2.620163      4.612656
  H       0.598450      1.716159      6.097815
  H       1.568800     -0.907720      4.727039
  H       2.492240     -0.047186      6.003417
  H       3.275122     -0.427639      4.433873
  H       2.596186      3.320757      4.265307
  H       3.882093      2.071813      4.192938
  H       3.059404      2.430901      5.754532
  Si      2.130644     -0.739909     -1.535245
  C       3.723291     -0.009862     -2.279518
  C       2.764327     -1.641321      0.043610
  C       1.471170     -2.071090     -2.725599
  H       4.172976      0.723360     -1.577884
  H       3.508069      0.514461     -3.233502
  H       4.478181     -0.796073     -2.483318
  H       2.073463     -2.277568      0.663376
  H       3.236024     -0.910824      0.731336
  H       3.523485     -2.369236     -0.327444
  H       0.809635     -2.788968     -2.201741
  H       2.322524     -2.638824     -3.157042
  H       0.902859     -1.628909     -3.569564
  H      -1.126007      0.446592     -1.345490
  C       1.062695      0.866132     -1.464470
  C      -0.372555      1.176924     -0.976782
  H       1.128539      1.145164     -2.543679
  H       1.759195      1.570464     -0.955806
  Si     -1.007805      2.922208     -1.484669
  H      -0.454182      1.154634      0.133768
  C       0.299707      4.250874     -1.095000
  C      -2.585089      3.325050     -0.511350
  C      -1.373655      2.958301     -3.349628
  H       0.481653      4.338479     -0.002768
  H      -0.047092      5.248300     -1.438180
  H       1.268528      4.047591     -1.595559
  H      -2.374757      3.349971      0.577929
  H      -3.378380      2.568112     -0.681032
  H      -2.998334      4.315216     -0.797462
  H      -0.470603      2.728978     -3.952427
  H      -1.741164      3.956130     -3.668807
  H      -2.153366      2.214900     -3.616738
69
Coordinates from ORCA-job my_molecule E -2464.444256016257
  Pt      0.054675     -1.353385      1.020236
  O       0.528516     -0.005698      2.356032
  O      -2.768605     -1.938795      0.956568
  P       1.698886      1.117123      2.545584
  P      -2.194294     -2.953058     -0.024889
  O      -2.143051     -4.489069      0.562580
  O      -0.635639     -2.582486     -0.356792
  O       0.935620      2.521148      2.107028
  O       2.999387      0.924915      1.796363
  C       1.849945      1.255175      4.383295
  C      -3.090135     -3.197621     -1.626449
  C      -2.325060     -4.214731     -2.497903
  C      -3.185638     -1.829830     -2.335040
  C      -4.499196     -3.719364     -1.273556
  C       0.487924      1.613998      5.003286
  C       2.357820     -0.101743      4.909742
  C       2.890221      2.360399      4.656426
  H      -2.013238     -4.446206      1.531911
  H       1.383292      2.861995      1.305435
  H      -1.326326     -3.819694     -2.770349
  H      -2.889534     -4.397608     -3.436676
  H      -2.193819     -5.184888     -1.980249
  H      -2.188276     -1.437896     -2.621955
  H      -3.684164     -1.081534     -1.687369
  H      -3.788251     -1.936684     -3.261211
  H      -4.453335     -4.705150     -0.771103
  H      -5.090803     -3.834946     -2.206001
  H      -5.039288     -3.014634     -0.609948
  H      -0.273395      0.839528      4.786138
  H       0.113705      2.583095      4.619264
  H       0.596969      1.695317      6.105387
  H       1.621616     -0.910233      4.730921
  H       2.530050     -0.029036      6.004065
  H       3.315134     -0.390665      4.430909
  H       2.550856      3.340245      4.264842
  H       3.863872      2.120036      4.185915
  H       3.041644      2.461088      5.751645
  Si      2.128060     -0.735665     -1.535401
  C       3.723096     -0.010683     -2.280645
  C       2.765136     -1.641794      0.038889
  C       1.457879     -2.057461     -2.731188
  H       4.173087      0.723409     -1.580099
  H       3.508283      0.512431     -3.235357
  H       4.477392     -0.797772     -2.482737
  H       2.076764     -2.279198      0.660235
  H       3.239522     -0.912712      0.727346
  H       3.522041     -2.369461     -0.336949
  H       0.803901     -2.781717     -2.208102
  H       2.304037     -2.618734     -3.180686
  H       0.878199     -1.607979     -3.563694
  H      -1.118802      0.437490     -1.366390
  C       1.069888      0.870030     -1.448375
  C      -0.375672      1.169461     -0.979851
  H       1.158106      1.180763     -2.517697
  H       1.756501      1.558135     -0.908301
  Si     -1.009513      2.913727     -1.491866
  H      -0.481406      1.137052      0.128059
  C       0.291492      4.247001     -1.093987
  C      -2.596036      3.316756     -0.533355
  C      -1.359744      2.943585     -3.360029
  H       0.470557      4.331347      0.000233
  H      -0.059390      5.244131     -1.433833
  H       1.262440      4.050031     -1.592917
  H      -2.395254      3.346787      0.557635
  H      -3.386442      2.557531     -0.706705
  H      -3.009067      4.304785     -0.827146
  H      -0.448982      2.723230     -3.954662
  H      -1.736030      3.936387     -3.684510
  H      -2.128129      2.189999     -3.631996
69
Coordinates from ORCA-job my_molecule E -2464.445451703784
  Pt      0.061777     -1.388858      1.042431
  O       0.518577     -0.024994      2.355903
  O      -2.726630     -1.964244      0.997272
  P       1.684422      1.104792      2.538360
  P      -2.169984     -2.971297     -0.003077
  O      -2.138885     -4.517490      0.558189
  O      -0.609797     -2.615576     -0.331570
  O       0.907885      2.501897      2.101334
  O       2.984573      0.918043      1.786531
  C       1.841395      1.244485      4.374943
  C      -3.077591     -3.175797     -1.602598
  C      -2.358047     -4.225329     -2.475937
  C      -3.112547     -1.805792     -2.311177
  C      -4.506010     -3.632677     -1.240010
  C       0.473455      1.564960      5.002721
  C       2.388797     -0.100885      4.891181
  C       2.854644      2.375318      4.645137
  H      -2.000859     -4.493952      1.527027
  H       1.357638      2.853999      1.306314
  H      -1.348405     -3.858962     -2.748752
  H      -2.929994     -4.386402     -3.413783
  H      -2.258942     -5.198874     -1.958663
  H      -2.101036     -1.462589     -2.608084
  H      -3.568744     -1.036137     -1.656509
  H      -3.730547     -1.880816     -3.230323
  H      -4.499337     -4.618901     -0.736224
  H      -5.109008     -3.723509     -2.167841
  H      -5.008526     -2.904091     -0.572638
  H      -0.266393      0.769023      4.789999
  H       0.069191      2.522517      4.619579
  H       0.585878      1.651463      6.104065
  H       1.673446     -0.927844      4.711307
  H       2.565739     -0.030565      5.984876
  H       3.349941     -0.359939      4.403383
  H       2.486799      3.347569      4.260670
  H       3.830529      2.161613      4.166158
  H       3.012921      2.475069      5.739444
  Si      2.129156     -0.717187     -1.543071
  C       3.735115     -0.006288     -2.279744
  C       2.755038     -1.637974      0.025518
  C       1.437411     -2.018935     -2.748443
  H       4.185424      0.724087     -1.575433
  H       3.528441      0.520352     -3.234312
  H       4.485956     -0.797201     -2.478852
  H       2.062787     -2.272631      0.648874
  H       3.237170     -0.915948      0.714851
  H       3.501644     -2.373529     -0.354803
  H       0.794753     -2.752083     -2.223596
  H       2.272945     -2.571662     -3.227129
  H       0.839557     -1.555030     -3.560354
  H      -1.092090      0.416156     -1.390573
  C       1.088454      0.887174     -1.427777
  C      -0.369490      1.156829     -0.982496
  H       1.199577      1.242682     -2.480418
  H       1.758623      1.558986     -0.846457
  Si     -1.013345      2.893704     -1.503014
  H      -0.498671      1.108158      0.122155
  C       0.269452      4.239621     -1.087736
  C      -2.621890      3.289405     -0.578270
  C      -1.328456      2.912913     -3.377774
  H       0.440752      4.319416      0.007508
  H      -0.090710      5.234371     -1.424653
  H       1.245971      4.055633     -1.580675
  H      -2.444313      3.329601      0.516421
  H      -3.403245      2.523278     -0.762531
  H      -3.035968      4.271949     -0.888591
  H      -0.403147      2.704381     -3.954093
  H      -1.713708      3.898515     -3.713204
  H      -2.079517      2.146025     -3.660965
69
Coordinates from ORCA-job my_molecule E -2464.446470808836
  Pt      0.053572     -1.391654      1.041550
  O       0.506539     -0.030541      2.365397
  O      -2.703821     -2.021965      1.048011
  P       1.671928      1.100291      2.543650
  P      -2.161799     -3.003101      0.013805
  O      -2.100945     -4.559579      0.543008
  O      -0.614341     -2.619438     -0.344826
  O       0.889055      2.494952      2.110661
  O       2.969103      0.916836      1.785919
  C       1.836249      1.236654      4.379091
  C      -3.105259     -3.180962     -1.566858
  C      -2.381152     -4.178921     -2.493274
  C      -3.199195     -1.790061     -2.228068
  C      -4.510651     -3.688817     -1.181366
  C       0.466702      1.532917      5.015293
  C       2.407254     -0.103604      4.882504
  C       2.834796      2.380277      4.649877
  H      -1.934322     -4.554579      1.507595
  H       1.338220      2.851097      1.316967
  H      -1.391174     -3.778171     -2.789048
  H      -2.978905     -4.330568     -3.416568
  H      -2.237450     -5.163416     -2.007902
  H      -2.207691     -1.414278     -2.551520
  H      -3.647623     -1.051142     -1.533950
  H      -3.848355     -1.853225     -3.126393
  H      -4.464008     -4.690429     -0.711365
  H      -5.137248     -3.763643     -2.094801
  H      -5.011865     -2.996159     -0.475807
  H      -0.260228      0.724953      4.804443
  H       0.043215      2.484118      4.636300
  H       0.582900      1.619993      6.116238
  H       1.702949     -0.939834      4.701086
  H       2.591667     -0.039323      5.975322
  H       3.367772     -0.343131      4.384037
  H       2.451193      3.348939      4.272022
  H       3.811427      2.182475      4.165155
  H       2.998308      2.477201      5.743693
  Si      2.138388     -0.698254     -1.549431
  C       3.764962     -0.003533     -2.255211
  C       2.731147     -1.641108      0.017971
  C       1.438219     -1.977495     -2.774390
  H       4.215661      0.708388     -1.532439
  H       3.578846      0.542635     -3.203022
  H       4.507482     -0.801421     -2.457633
  H       2.025252     -2.267576      0.637648
  H       3.223648     -0.930503      0.711452
  H       3.463048     -2.390804     -0.363502
  H       0.790499     -2.715969     -2.261989
  H       2.271334     -2.528558     -3.259177
  H       0.845535     -1.497058     -3.580401
  H      -1.059470      0.415453     -1.398627
  C       1.114513      0.910485     -1.429854
  C      -0.347259      1.167725     -0.993922
  H       1.232777      1.276001     -2.477593
  H       1.777840      1.580375     -0.838505
  Si     -0.992698      2.896701     -1.535099
  H      -0.477469      1.123793      0.109286
  C       0.272120      4.249264     -1.087036
  C      -2.632297      3.290153     -0.665669
  C      -1.248745      2.911468     -3.419015
  H       0.424187      4.327190      0.011285
  H      -0.088224      5.242324     -1.428619
  H       1.258591      4.072530     -1.562569
  H      -2.493885      3.335824      0.434373
  H      -3.405674      2.522374     -0.874973
  H      -3.036043      4.270634     -0.995443
  H      -0.307290      2.694168     -3.965085
  H      -1.614513      3.899717     -3.768051
  H      -1.997299      2.150913     -3.724641
69
Coordinates from ORCA-job my_molecule E -2464.449556377933
  Pt      0.005462     -1.428131      1.058521
  O       0.427621     -0.074265      2.415911
  O      -2.554946     -2.217267      1.258252
  P       1.590861      1.060866      2.556910
  P      -2.101302     -3.113266      0.100869
  O      -1.978203     -4.702131      0.511786
  O      -0.613270     -2.642849     -0.376656
  O       0.771621      2.441346      2.153472
  O       2.862811      0.899224      1.756058
  C       1.820360      1.190773      4.385373
  C      -3.176388     -3.174567     -1.394633
  C      -2.476719     -3.955997     -2.527954
  C      -3.447299     -1.716196     -1.831450
  C      -4.490699     -3.870460     -0.961976
  C       0.463196      1.412117      5.074977
  C       2.474854     -0.132122      4.838707
  C       2.774185      2.375945      4.637793
  H      -1.681559     -4.767973      1.445783
  H       1.204640      2.810441      1.357235
  H      -1.581849     -3.414330     -2.865868
  H      -3.165066     -4.044022     -3.397521
  H      -2.178596     -4.979823     -2.206916
  H      -2.521309     -1.207626     -2.216800
  H      -3.858448     -1.099664     -1.001887
  H      -4.185535     -1.729581     -2.663058
  H      -4.310732     -4.923816     -0.652968
  H      -5.202337     -3.865703     -1.816496
  H      -4.969963     -3.333969     -0.111720
  H      -0.224932      0.565483      4.885903
  H      -0.026439      2.338698      4.713405
  H       0.612906      1.508070      6.171217
  H       1.804017     -0.996916      4.662091
  H       2.699766     -0.087804      5.924990
  H       3.423544     -0.309663      4.291969
  H       2.324498      3.332675      4.302872
  H       3.735497      2.236976      4.102908
  H       2.990725      2.456526      5.723947
  Si      2.178368     -0.621037     -1.589448
  C       3.896899     -0.019397     -2.149862
  C       2.594969     -1.652717     -0.025117
  C       1.444937     -1.788843     -2.894114
  H       4.341003      0.609942     -1.347969
  H       3.816101      0.604981     -3.066175
  H       4.599384     -0.851321     -2.358670
  H       1.816843     -2.223559      0.583797
  H       3.140829     -1.005616      0.686594
  H       3.238833     -2.483704     -0.400039
  H       0.780534     -2.534823     -2.425201
  H       2.262529     -2.334711     -3.410656
  H       0.871274     -1.239990     -3.670409
  H      -0.979813      0.409280     -1.455292
  C       1.217959      1.008962     -1.432300
  C      -0.280663      1.199162     -1.059510
  H       1.388784      1.441031     -2.447770
  H       1.837161      1.651217     -0.765144
  Si     -0.940746      2.890331     -1.682772
  H      -0.405132      1.155724      0.045395
  C       0.220209      4.279332     -1.079063
  C      -2.705836      3.255578     -1.071495
  C      -0.929138      2.902367     -3.589977
  H       0.281912      4.337394      0.030707
  H      -0.149990      5.264744     -1.431949
  H       1.250232      4.149589     -1.474427
  H      -2.752027      3.313294      0.039545
  H      -3.430594      2.480058     -1.403669
  H      -3.057262      4.229611     -1.475298
  H       0.072872      2.645906     -3.998703
  H      -1.197815      3.907048     -3.980735
  H      -1.663588      2.179160     -4.005319
69
Coordinates from ORCA-job my_molecule E -2464.450743000991
  Pt      0.011238     -1.431968      1.044273
  O       0.425015     -0.078501      2.414222
  O      -2.517688     -2.230215      1.261499
  P       1.584573      1.058029      2.553411
  P      -2.082180     -3.122638      0.093799
  O      -1.960353     -4.713203      0.496703
  O      -0.602042     -2.651156     -0.394274
  O       0.769598      2.441588      2.148692
  O       2.855437      0.894521      1.750830
  C       1.816455      1.194829      4.381768
  C      -3.171196     -3.172126     -1.391207
  C      -2.463470     -3.917369     -2.541198
  C      -3.464521     -1.710329     -1.791774
  C      -4.474883     -3.893299     -0.971188
  C       0.462081      1.434121      5.070753
  C       2.456237     -0.131599      4.844420
  C       2.781832      2.371680      4.628597
  H      -1.648931     -4.784141      1.424270
  H       1.202162      2.807313      1.350553
  H      -1.581179     -3.344717     -2.866035
  H      -3.153015     -4.006373     -3.408772
  H      -2.140307     -4.937861     -2.241090
  H      -2.558374     -1.173422     -2.177016
  H      -3.873416     -1.126840     -0.939759
  H      -4.217244     -1.711951     -2.609450
  H      -4.282305     -4.949819     -0.689122
  H      -5.189773     -3.876185     -1.821872
  H      -4.956622     -3.383812     -0.107960
  H      -0.235409      0.594337      4.885832
  H      -0.017027      2.364339      4.705241
  H       0.613390      1.533037      6.166546
  H       1.776614     -0.990174      4.672099
  H       2.679288     -0.082322      5.930890
  H       3.404247     -0.323259      4.301745
  H       2.341647      3.330856      4.288743
  H       3.741610      2.221033      4.094604
  H       2.998665      2.455970      5.714371
  Si      2.174550     -0.633610     -1.589237
  C       3.897906     -0.032163     -2.132497
  C       2.573562     -1.656192     -0.014729
  C       1.458137     -1.806864     -2.898971
  H       4.334439      0.597312     -1.327345
  H       3.827475      0.590431     -3.049982
  H       4.601482     -0.865103     -2.333523
  H       1.788427     -2.218915      0.593488
  H       3.121369     -1.010221      0.696887
  H       3.209857     -2.496776     -0.378765
  H       0.792579     -2.552558     -2.432176
  H       2.281725     -2.352620     -3.405891
  H       0.889507     -1.262989     -3.681861
  H      -0.999106      0.418755     -1.451111
  C       1.206918      0.998156     -1.451162
  C      -0.287659      1.198961     -1.068164
  H       1.373310      1.413699     -2.474826
  H       1.831559      1.646845     -0.796772
  Si     -0.940657      2.894794     -1.685842
  H      -0.404025      1.157622      0.038311
  C       0.227937      4.277681     -1.086097
  C      -2.698944      3.263801     -1.061224
  C      -0.943854      2.912203     -3.592116
  H       0.287202      4.337898      0.022952
  H      -0.135100      5.264516     -1.442469
  H       1.257309      4.140155     -1.479195
  H      -2.737613      3.314708      0.048977
  H      -3.428261      2.493569     -1.392910
  H      -3.048246      4.241658     -1.456686
  H       0.050863      2.645436     -4.009344
  H      -1.203143      3.921533     -3.976389
  H      -1.689658      2.199903     -4.004476
69
Coordinates from ORCA-job my_molecule E -2464.450922747536
  Pt      0.016018     -1.435726      1.047501
  O       0.430116     -0.073682      2.412610
  O      -2.525748     -2.236183      1.250299
  P       1.588625      1.062647      2.555655
  P      -2.084911     -3.126821      0.083722
  O      -1.963725     -4.718105      0.483581
  O      -0.598904     -2.661516     -0.393709
  O       0.774308      2.445944      2.149601
  O       2.862340      0.899103      1.756278
  C       1.815139      1.200631      4.384954
  C      -3.171583     -3.174273     -1.400538
  C      -2.472246     -3.947125     -2.538352
  C      -3.441936     -1.714301     -1.817872
  C      -4.488846     -3.864940     -0.973833
  C       0.459481      1.444630      5.069861
  C       2.449725     -0.126321      4.852427
  C       2.782742      2.375359      4.633117
  H      -1.658246     -4.790558      1.412352
  H       1.207487      2.811860      1.352665
  H      -1.575377     -3.394674     -2.877117
  H      -3.164036     -4.039923     -3.403199
  H      -2.167372     -4.966774     -2.221342
  H      -2.536625     -1.195911     -2.214189
  H      -3.837348     -1.120500     -0.967740
  H      -4.203157     -1.710055     -2.627133
  H      -4.316288     -4.920240     -0.678599
  H      -5.202026     -3.846161     -1.825437
  H      -4.961866     -3.336470     -0.118439
  H      -0.239903      0.606550      4.884748
  H      -0.015907      2.375525      4.701555
  H       0.608372      1.544802      6.165874
  H       1.768524     -0.983481      4.679623
  H       2.668674     -0.074981      5.939627
  H       3.399299     -0.321999      4.314310
  H       2.346363      3.335010      4.290127
  H       3.743882      2.221359      4.102786
  H       2.995563      2.460971      5.719547
  Si      2.177497     -0.633822     -1.591211
  C       3.894600     -0.026114     -2.146991
  C       2.592599     -1.654400     -0.020084
  C       1.451922     -1.808364     -2.898222
  H       4.334310      0.607316     -1.347117
  H       3.815714      0.592900     -3.065765
  H       4.599722     -0.857169     -2.350264
  H       1.814537     -2.221945      0.588843
  H       3.136510     -1.004337      0.692212
  H       3.236346     -2.488238     -0.385718
  H       0.787043     -2.556938     -2.427980
  H       2.271789     -2.355228     -3.409795
  H       0.878872     -1.263711     -3.677179
  H      -0.981540      0.416175     -1.456875
  C       1.209009      0.997047     -1.446050
  C      -0.282284      1.195943     -1.063387
  H       1.374837      1.417981     -2.467430
  H       1.833107      1.642140     -0.788018
  Si     -0.939532      2.891665     -1.676545
  H      -0.402945      1.154569      0.044567
  C       0.226250      4.277791     -1.079299
  C      -2.696567      3.251474     -1.044514
  C      -0.950883      2.910171     -3.582380
  H       0.288594      4.338605      0.028694
  H      -0.140448      5.263647     -1.434627
  H       1.254748      4.143373     -1.474966
  H      -2.729958      3.300410      0.065177
  H      -3.422992      2.477893     -1.373222
  H      -3.052951      4.227904     -1.436664
  H       0.044328      2.653851     -4.003718
  H      -1.222635      3.916388     -3.965717
  H      -1.690211      2.189356     -3.991077
69
Coordinates from ORCA-job my_molecule E -2464.451604871354
  Pt      0.021542     -1.442018      1.046381
  O       0.429769     -0.072985      2.408879
  O      -2.504130     -2.241766      1.255279
  P       1.587574      1.062719      2.553767
  P      -2.075307     -3.130682      0.082441
  O      -1.965392     -4.724479      0.474833
  O      -0.587911     -2.670590     -0.395702
  O       0.773670      2.446056      2.146663
  O       2.862509      0.899059      1.756322
  C       1.812672      1.201989      4.383328
  C      -3.169549     -3.168004     -1.399012
  C      -2.483612     -3.952934     -2.535970
  C      -3.426941     -1.708092     -1.829311
  C      -4.491846     -3.843536     -0.965342
  C       0.456900      1.449954      5.066548
  C       2.443229     -0.125820      4.853171
  C       2.782768      2.374615      4.631509
  H      -1.655396     -4.803728      1.401213
  H       1.206587      2.813633      1.350081
  H      -1.586016     -3.410969     -2.884206
  H      -3.181896     -4.043856     -3.395536
  H      -2.186112     -4.973268     -2.216252
  H      -2.509712     -1.214987     -2.227892
  H      -3.815066     -1.092959     -0.991408
  H      -4.181970     -1.706595     -2.644207
  H      -4.328601     -4.898694     -0.665939
  H      -5.207476     -3.822201     -1.814546
  H      -4.956666     -3.306807     -0.111245
  H      -0.244259      0.613335      4.881708
  H      -0.015802      2.381524      4.696593
  H       0.604909      1.551027      6.162598
  H       1.760264     -0.981457      4.679872
  H       2.660124     -0.073893      5.940756
  H       3.393351     -0.324447      4.317265
  H       2.349010      3.334888      4.287146
  H       3.744069      2.217880      4.102361
  H       2.994521      2.460864      5.718087
  Si      2.182271     -0.632444     -1.592511
  C       3.900321     -0.029762     -2.150045
  C       2.594001     -1.653374     -0.020566
  C       1.450916     -1.804680     -2.898048
  H       4.341497      0.604614     -1.351947
  H       3.822683      0.586913     -3.070259
  H       4.603548     -0.862866     -2.351448
  H       1.813392     -2.219173      0.588739
  H       3.138759     -1.004833      0.692148
  H       3.235108     -2.490010     -0.383966
  H       0.786492     -2.553248     -2.426900
  H       2.267832     -2.351522     -3.414323
  H       0.875393     -1.257961     -3.673572
  H      -0.967619      0.410550     -1.458141
  C       1.217363      1.000995     -1.443419
  C      -0.275030      1.194819     -1.062465
  H       1.386652      1.426690     -2.461628
  H       1.839279      1.641777     -0.779142
  Si     -0.942482      2.887719     -1.672429
  H      -0.398311      1.152136      0.043398
  C       0.215723      4.279954     -1.075358
  C      -2.700802      3.235674     -1.038633
  C      -0.956578      2.907417     -3.577915
  H       0.278900      4.339508      0.032245
  H      -0.156549      5.264296     -1.429086
  H       1.244391      4.151253     -1.472163
  H      -2.733635      3.282729      0.070768
  H      -3.422405      2.458095     -1.367753
  H      -3.063407      4.210434     -1.429069
  H       0.039944      2.659814     -4.000759
  H      -1.237496      3.911413     -3.960213
  H      -1.689961      2.180296     -3.985773
69
Coordinates from ORCA-job my_molecule E -2464.451953017570
  Pt      0.025702     -1.441049      1.045946
  O       0.435917     -0.072645      2.412575
  O      -2.506295     -2.223031      1.248115
  P       1.591945      1.063716      2.555143
  P      -2.081217     -3.120422      0.080183
  O      -1.980331     -4.712672      0.481222
  O      -0.590479     -2.668055     -0.398935
  O       0.777848      2.446495      2.147085
  O       2.865801      0.899007      1.756198
  C       1.819101      1.206566      4.384342
  C      -3.170925     -3.162319     -1.406043
  C      -2.469819     -3.942524     -2.536796
  C      -3.435207     -1.705254     -1.845111
  C      -4.492555     -3.845006     -0.982313
  C       0.464276      1.457639      5.068369
  C       2.448417     -0.120606      4.857382
  C       2.790470      2.378851      4.629113
  H      -1.673185     -4.788604      1.408645
  H       1.209368      2.813317      1.350004
  H      -1.571310     -3.394615     -2.875533
  H      -3.159852     -4.036622     -3.402447
  H      -2.169802     -4.961270     -2.215333
  H      -2.512804     -1.219032     -2.232886
  H      -3.836005     -1.081017     -1.020245
  H      -4.175363     -1.715003     -2.673443
  H      -4.325735     -4.898940     -0.681878
  H      -5.201838     -3.827470     -1.836788
  H      -4.967037     -3.311185     -0.131963
  H      -0.238188      0.621566      4.885964
  H      -0.007451      2.389092      4.697030
  H       0.613568      1.560570      6.164084
  H       1.764344     -0.975861      4.686897
  H       2.665949     -0.065751      5.944710
  H       3.398119     -0.322042      4.321834
  H       2.357378      3.338679      4.282760
  H       3.751223      2.220102      4.099647
  H       3.002912      2.467530      5.715361
  Si      2.180402     -0.640492     -1.592129
  C       3.899197     -0.036454     -2.145781
  C       2.589141     -1.656116     -0.015012
  C       1.457699     -1.820995     -2.895771
  H       4.337753      0.599663     -1.347741
  H       3.823540      0.578330     -3.067298
  H       4.603609     -0.869351     -2.343910
  H       1.808075     -2.220658      0.596028
  H       3.134464     -1.006108      0.696442
  H       3.228886     -2.495159     -0.374829
  H       0.790845     -2.568739     -2.424343
  H       2.278364     -2.369530     -3.404183
  H       0.886015     -1.279147     -3.677402
  H      -0.969413      0.407940     -1.458990
  C       1.213077      0.993779     -1.453685
  C      -0.275700      1.190498     -1.065031
  H       1.377639      1.410918     -2.475607
  H       1.837579      1.640188     -0.797012
  Si     -0.947465      2.885294     -1.665896
  H      -0.393644      1.148669      0.041512
  C       0.211964      4.277681     -1.071385
  C      -2.702619      3.227194     -1.020468
  C      -0.973587      2.911507     -3.571077
  H       0.278207      4.337400      0.035187
  H      -0.161470      5.262089     -1.423716
  H       1.239494      4.149397     -1.471040
  H      -2.728828      3.269296      0.089097
  H      -3.424530      2.449612     -1.348509
  H      -3.069439      4.202880     -1.404441
  H       0.020154      2.665672     -4.001093
  H      -1.257032      3.916851     -3.947805
  H      -1.709319      2.185757     -3.977008
69
Coordinates from ORCA-job my_molecule E -2464.451759927667
  Pt      0.021705     -1.439265      1.053006
  O       0.436230     -0.069292      2.416530
  O      -2.514338     -2.206766      1.238466
  P       1.594950      1.063285      2.560833
  P      -2.087420     -3.112174      0.077010
  O      -1.992928     -4.702476      0.486398
  O      -0.593324     -2.665685     -0.396316
  O       0.783708      2.447481      2.152460
  O       2.869995      0.897882      1.763492
  C       1.820528      1.206387      4.390456
  C      -3.173860     -3.160859     -1.410916
  C      -2.481832     -3.969040     -2.527226
  C      -3.419075     -1.708150     -1.874647
  C      -4.505255     -3.818849     -0.979055
  C       0.464664      1.454755      5.073413
  C       2.452032     -0.119123      4.864860
  C       2.788923      2.380940      4.635937
  H      -1.689701     -4.774859      1.415171
  H       1.211659      2.810359      1.352113
  H      -1.576752     -3.439080     -2.879257
  H      -3.174622     -4.070359     -3.389685
  H      -2.194684     -4.985265     -2.188046
  H      -2.487361     -1.238486     -2.254946
  H      -3.826308     -1.066730     -1.066411
  H      -4.146145     -1.724440     -2.714267
  H      -4.352582     -4.868949     -0.659442
  H      -5.211848     -3.808520     -1.835697
  H      -4.975120     -3.264048     -0.140097
  H      -0.235938      0.617124      4.890866
  H      -0.008619      2.385058      4.701391
  H       0.613067      1.558181      6.169200
  H       1.769384     -0.975692      4.695466
  H       2.669299     -0.062424      5.952148
  H       3.402216     -0.319976      4.330001
  H       2.354029      3.339653      4.288815
  H       3.750529      2.224296      4.107558
  H       2.999670      2.470516      5.722435
  Si      2.189368     -0.635401     -1.597393
  C       3.903137     -0.030328     -2.164446
  C       2.608537     -1.653765     -0.025463
  C       1.453868     -1.811632     -2.898128
  H       4.348156      0.605424     -1.369843
  H       3.819668      0.584834     -3.084875
  H       4.605959     -0.862985     -2.368999
  H       1.829705     -2.220902      0.584738
  H       3.151351     -1.004818      0.689224
  H       3.251322     -2.489426     -0.387372
  H       0.784517     -2.556919     -2.424976
  H       2.268443     -2.364564     -3.411532
  H       0.881304     -1.265551     -3.676106
  H      -0.954372      0.401083     -1.463608
  C       1.222164      0.998045     -1.443785
  C      -0.269059      1.186477     -1.062785
  H       1.393565      1.429399     -2.458299
  H       1.841127      1.635652     -0.773278
  Si     -0.948902      2.878465     -1.662356
  H      -0.393372      1.142091      0.043084
  C       0.201483      4.277149     -1.065591
  C      -2.706529      3.208704     -1.018786
  C      -0.973644      2.905131     -3.567217
  H       0.269485      4.333985      0.040631
  H      -0.179377      5.260210     -1.413645
  H       1.229041      4.157265     -1.467511
  H      -2.733705      3.250959      0.090491
  H      -3.422609      2.425938     -1.346768
  H      -3.079871      4.181671     -1.403235
  H       0.021889      2.666001     -3.996482
  H      -1.263715      3.908389     -3.944285
  H      -1.703811      2.174011     -3.973420
69
Coordinates from ORCA-job my_molecule E -2464.451633641975
  Pt      0.015351     -1.435981      1.054279
  O       0.432392     -0.067776      2.417329
  O      -2.515067     -2.201706      1.236177
  P       1.593754      1.061714      2.563481
  P      -2.087366     -3.108905      0.075945
  O      -1.990785     -4.697985      0.488654
  O      -0.595300     -2.660186     -0.396096
  O       0.786899      2.448547      2.154169
  O       2.870344      0.894901      1.768495
  C       1.816783      1.204931      4.393499
  C      -3.175586     -3.163150     -1.410683
  C      -2.490076     -3.984362     -2.521272
  C      -3.414503     -1.713045     -1.884637
  C      -4.509303     -3.811282     -0.971966
  C       0.460020      1.454664      5.074275
  C       2.446155     -0.120807      4.869540
  C       2.785749      2.378751      4.640060
  H      -1.688080     -4.768218      1.417632
  H       1.214376      2.809052      1.351834
  H      -1.579497     -3.466450     -2.877261
  H      -3.183748     -4.084306     -3.383092
  H      -2.213875     -5.001197     -2.176014
  H      -2.481097     -1.244992     -2.263605
  H      -3.824409     -1.068796     -1.080371
  H      -4.139659     -1.731182     -2.725751
  H      -4.361210     -4.859306     -0.644063
  H      -5.216870     -3.805230     -1.827703
  H      -4.975314     -3.247531     -0.137220
  H      -0.240995      0.617517      4.891178
  H      -0.011856      2.385156      4.701003
  H       0.606943      1.558403      6.170221
  H       1.762751     -0.976756      4.699956
  H       2.661899     -0.063351      5.957084
  H       3.396936     -0.323459      4.336495
  H       2.352464      3.337552      4.291317
  H       3.748247      2.220892      4.113723
  H       2.994124      2.468997      5.726947
  Si      2.195705     -0.631639     -1.602070
  C       3.905199     -0.025781     -2.180002
  C       2.622322     -1.651621     -0.034134
  C       1.450489     -1.803855     -2.900918
  H       4.355816      0.609306     -1.388136
  H       3.815411      0.589938     -3.099343
  H       4.606341     -0.858440     -2.390059
  H       1.843961     -2.219997      0.573527
  H       3.162394     -1.004055      0.683658
  H       3.268070     -2.484702     -0.396720
  H       0.779000     -2.546198     -2.426760
  H       2.260354     -2.360612     -3.417628
  H       0.877969     -1.254237     -3.676432
  H      -0.946490      0.401178     -1.464715
  C       1.228872      1.001551     -1.436988
  C      -0.264242      1.186826     -1.061256
  H       1.405271      1.441765     -2.447099
  H       1.845179      1.632335     -0.757921
  Si     -0.945728      2.877946     -1.661300
  H      -0.395424      1.139614      0.043030
  C       0.200906      4.279073     -1.064238
  C      -2.703966      3.204280     -1.018576
  C      -0.969828      2.902691     -3.565852
  H       0.268958      4.333813      0.042360
  H      -0.182906      5.261734     -1.410191
  H       1.228557      4.162728     -1.466812
  H      -2.731120      3.248325      0.090455
  H      -3.417497      2.418649     -1.344886
  H      -3.080348      4.175433     -1.404588
  H       0.026676      2.666984     -3.994515
  H      -1.263976      3.904191     -3.944329
  H      -1.696518      2.167658     -3.971120
69
Coordinates from ORCA-job my_molecule E -2464.451629923295
  Pt      0.011360     -1.434237      1.056912
  O       0.429787     -0.067462      2.419818
  O      -2.513430     -2.199199      1.236053
  P       1.592230      1.060380      2.566071
  P      -2.087529     -3.107081      0.075151
  O      -1.991708     -4.695825      0.488423
  O      -0.596213     -2.657966     -0.396459
  O       0.787290      2.448241      2.156406
  O       2.869381      0.893049      1.771791
  C       1.814575      1.204437      4.396186
  C      -3.177502     -3.162272     -1.409801
  C      -2.497221     -3.993863     -2.515796
  C      -3.408053     -1.713959     -1.892136
  C      -4.514800     -3.799688     -0.966829
  C       0.457528      1.454784      5.076277
  C       2.443321     -0.121065      4.873386
  C       2.783617      2.378195      4.642499
  H      -1.688141     -4.766163      1.417058
  H       1.213739      2.806863      1.352813
  H      -1.583564     -3.483696     -2.876255
  H      -3.192444     -4.094889     -3.376196
  H      -2.227061     -5.010231     -2.164917
  H      -2.471922     -1.251923     -2.270718
  H      -3.817663     -1.064070     -1.092374
  H      -4.131223     -1.733171     -2.734857
  H      -4.372893     -4.846357     -0.632250
  H      -5.222412     -3.795351     -1.822466
  H      -4.977322     -3.227829     -0.135840
  H      -0.243535      0.617611      4.893529
  H      -0.014027      2.385088      4.702155
  H       0.604080      1.559177      6.172211
  H       1.759631     -0.976911      4.704366
  H       2.658716     -0.062700      5.960956
  H       3.394232     -0.324718      4.340993
  H       2.350722      3.336813      4.292846
  H       3.746337      2.219819      4.116769
  H       2.991273      2.469148      5.729462
  Si      2.201257     -0.629192     -1.606672
  C       3.907888     -0.022618     -2.191500
  C       2.632275     -1.649698     -0.040986
  C       1.449921     -1.799333     -2.904189
  H       4.361966      0.612213     -1.401466
  H       3.814101      0.593338     -3.110235
  H       4.608077     -0.855216     -2.404892
  H       1.853824     -2.218065      0.565033
  H       3.170509     -1.003170      0.679199
  H       3.279953     -2.481446     -0.403199
  H       0.776261     -2.539439     -2.428993
  H       2.256676     -2.359420     -3.422162
  H       0.878134     -1.247606     -3.678759
  H      -0.939059      0.398898     -1.466561
  C       1.234520      1.003521     -1.434090
  C      -0.259252      1.185309     -1.060968
  H       1.413232      1.449998     -2.440961
  H       1.848856      1.630173     -0.749406
  Si     -0.944474      2.875147     -1.660317
  H      -0.393377      1.136617      0.043146
  C       0.196465      4.279502     -1.060781
  C      -2.704452      3.194623     -1.019777
  C      -0.966362      2.900516     -3.564635
  H       0.263854      4.332164      0.045868
  H      -0.190915      5.261451     -1.404736
  H       1.224651      4.167746     -1.463190
  H      -2.733018      3.238654      0.089136
  H      -3.414326      2.405996     -1.346659
  H      -3.084314      4.164208     -1.406270
  H       0.031371      2.668274     -3.992210
  H      -1.263573      3.901042     -3.943230
  H      -1.689823      2.162831     -3.970776
69
Coordinates from ORCA-job my_molecule E -2464.451685561061
  Pt      0.006701     -1.433118      1.057922
  O       0.425858     -0.067792      2.421974
  O      -2.508183     -2.197101      1.237147
  P       1.589369      1.058522      2.568464
  P      -2.085810     -3.105560      0.074663
  O      -1.991197     -4.693994      0.488334
  O      -0.595963     -2.655882     -0.397507
  O       0.786722      2.447683      2.158022
  O       2.867248      0.890527      1.775210
  C       1.810589      1.203485      4.398736
  C      -3.179189     -3.161213     -1.407764
  C      -2.504951     -4.002114     -2.510428
  C      -3.402755     -1.714390     -1.897219
  C      -4.518879     -3.789288     -0.959490
  C       0.453179      1.454982      5.077790
  C       2.438138     -0.121933      4.877430
  C       2.780029      2.376898      4.644873
  H      -1.685650     -4.764724      1.416236
  H       1.212905      2.804811      1.353385
  H      -1.587937     -3.500144     -2.874168
  H      -3.201634     -4.102143     -3.369717
  H      -2.241879     -5.018773     -2.155569
  H      -2.464430     -1.257451     -2.276507
  H      -3.811132     -1.059966     -1.100655
  H      -4.125459     -1.734054     -2.740250
  H      -4.381945     -4.834687     -0.619144
  H      -5.227558     -3.786629     -1.814178
  H      -4.977306     -3.210309     -0.131361
  H      -0.248215      0.618045      4.895256
  H      -0.017598      2.385274      4.702689
  H       0.599136      1.559982      6.173745
  H       1.753941     -0.977478      4.708874
  H       2.652894     -0.062613      5.965080
  H       3.389269     -0.326976      4.346000
  H       2.347937      3.335420      4.294039
  H       3.743053      2.217600      4.120021
  H       2.986694      2.468651      5.731954
  Si      2.207672     -0.627103     -1.611973
  C       3.911117     -0.019903     -2.204604
  C       2.643092     -1.647584     -0.048417
  C       1.449908     -1.795205     -2.907785
  H       4.369037      0.615051     -1.416951
  H       3.813057      0.595779     -3.123031
  H       4.610212     -0.852607     -2.421135
  H       1.863715     -2.215630      0.555044
  H       3.178948     -1.002143      0.674486
  H       3.293240     -2.477883     -0.409474
  H       0.773920     -2.532552     -2.431502
  H       2.253410     -2.358919     -3.426863
  H       0.879102     -1.241364     -3.681578
  H      -0.931526      0.397602     -1.468327
  C       1.240967      1.005437     -1.432086
  C      -0.253576      1.184449     -1.061330
  H       1.421968      1.457554     -2.436075
  H       1.853845      1.627762     -0.742251
  Si     -0.942297      2.873186     -1.659683
  H      -0.391327      1.133955      0.042046
  C       0.193040      4.280609     -1.057783
  C      -2.703698      3.185663     -1.020486
  C      -0.962713      2.899167     -3.563741
  H       0.259195      4.331051      0.049115
  H      -0.197571      5.261882     -1.399982
  H       1.221898      4.173181     -1.459574
  H      -2.733147      3.229610      0.088327
  H      -3.409941      2.393952     -1.347616
  H      -3.087368      4.153629     -1.407225
  H       0.036177      2.670861     -3.990617
  H      -1.263647      3.898542     -3.942377
  H      -1.682698      2.158420     -3.970434
69
Coordinates from ORCA-job my_molecule E -2464.451758349342
  Pt      0.001583     -1.431249      1.060119
  O       0.421518     -0.068707      2.425532
  O      -2.503061     -2.193550      1.237933
  P       1.585962      1.056275      2.571484
  P      -2.084782     -3.103336      0.074089
  O      -1.991917     -4.691228      0.489027
  O      -0.596278     -2.653473     -0.398880
  O       0.785288      2.446467      2.160173
  O       2.864253      0.887685      1.778805
  C       1.806568      1.202559      4.401833
  C      -3.181401     -3.159621     -1.405677
  C      -2.512770     -4.009864     -2.504591
  C      -3.397629     -1.714463     -1.902495
  C      -4.523640     -3.778062     -0.952348
  C       0.448924      1.454670      5.080289
  C       2.433740     -0.122407      4.881999
  C       2.775945      2.376121      4.647290
  H      -1.684080     -4.762041      1.416134
  H       1.211211      2.801840      1.354555
  H      -1.592761     -3.515465     -2.871587
  H      -3.210749     -4.109711     -3.362806
  H      -2.255975     -5.026401     -2.145236
  H      -2.457208     -1.262543     -2.282473
  H      -3.804949     -1.055284     -1.109386
  H      -4.119697     -1.734842     -2.745982
  H      -4.391898     -4.822054     -0.605898
  H      -5.233141     -3.777189     -1.806299
  H      -4.978159     -3.191694     -0.127417
  H      -0.252443      0.617579      4.898382
  H      -0.021685      2.384640      4.704200
  H       0.594620      1.560584      6.176195
  H       1.749347     -0.977985      4.714372
  H       2.648354     -0.061852      5.969617
  H       3.384920     -0.328480      4.351083
  H       2.344060      3.334304      4.295337
  H       3.739137      2.216288      4.122947
  H       2.982029      2.468887      5.734393
  Si      2.214780     -0.625072     -1.618083
  C       3.914843     -0.017077     -2.218931
  C       2.654468     -1.645099     -0.056493
  C       1.450801     -1.791483     -2.912009
  H       4.376765      0.618086     -1.433834
  H       3.812310      0.598276     -3.137062
  H       4.612859     -0.849853     -2.438681
  H       1.873579     -2.212212      0.544201
  H       3.187799     -1.000821      0.669304
  H       3.307177     -2.474064     -0.415899
  H       0.771974     -2.525583     -2.434595
  H       2.251129     -2.359429     -3.431366
  H       0.881682     -1.235713     -3.685677
  H      -0.923866      0.395742     -1.470800
  C       1.247885      1.006994     -1.430845
  C      -0.247335      1.182864     -1.062318
  H       1.430995      1.465083     -2.431743
  H       1.859142      1.625001     -0.735699
  Si     -0.940014      2.870466     -1.659157
  H      -0.388289      1.130396      0.040610
  C       0.189122      4.281084     -1.054112
  C      -2.703040      3.174970     -1.021369
  C      -0.958728      2.897908     -3.562971
  H       0.253624      4.329083      0.053016
  H      -0.204863      5.261634     -1.394469
  H       1.218824      4.178367     -1.454908
  H      -2.733538      3.218398      0.087376
  H      -3.405269      2.380009     -1.349149
  H      -3.090896      4.141276     -1.408037
  H       0.041358      2.673704     -3.989122
  H      -1.263293      3.896304     -3.941237
  H      -1.675227      2.154363     -3.970657
69
Coordinates from ORCA-job my_molecule E -2464.451939960687
  Pt     -0.006383     -1.429339      1.061628
  O       0.413918     -0.070619      2.430795
  O      -2.491756     -2.189066      1.240681
  P       1.579610      1.052576      2.576040
  P      -2.081477     -3.100492      0.073637
  O      -1.991899     -4.687742      0.489791
  O      -0.595420     -2.650440     -0.401639
  O       0.781994      2.444246      2.162891
  O       2.858607      0.882998      1.784484
  C       1.798718      1.201014      4.406574
  C      -3.184398     -3.156324     -1.401203
  C      -2.525205     -4.020250     -2.495280
  C      -3.389439     -1.713440     -1.908459
  C      -4.530254     -3.759866     -0.939633
  C       0.440628      1.454651      5.083705
  C       2.424717     -0.123421      4.889346
  C       2.768361      2.374493      4.651090
  H      -1.679393     -4.759350      1.415228
  H       1.208201      2.797103      1.356135
  H      -1.600682     -3.537389     -2.867105
  H      -3.225521     -4.118914     -3.351661
  H      -2.278112     -5.036830     -2.129886
  H      -2.446027     -1.270038     -2.290632
  H      -3.793563     -1.046838     -1.120022
  H      -4.111672     -1.734235     -2.751704
  H      -4.406471     -4.801876     -0.584648
  H      -5.241678     -3.760883     -1.791902
  H      -4.977947     -3.162706     -0.118929
  H      -0.260960      0.617554      4.902711
  H      -0.029296      2.384247      4.705865
  H       0.585676      1.562076      6.179556
  H       1.739804     -0.978846      4.722998
  H       2.638780     -0.060948      5.976976
  H       3.376078     -0.331424      4.359545
  H       2.337255      3.332256      4.297137
  H       3.731919      2.213401      4.127852
  H       2.973265      2.468904      5.738272
  Si      2.226489     -0.622442     -1.628522
  C       3.921000     -0.013079     -2.242732
  C       2.672654     -1.641179     -0.069706
  C       1.452950     -1.786566     -2.919233
  H       4.389330      0.622817     -1.462107
  H       3.811361      0.601262     -3.160679
  H       4.617312     -0.846056     -2.467169
  H       1.888459     -2.206435      0.525837
  H       3.201599     -0.998553      0.660780
  H       3.329790     -2.467986     -0.425788
  H       0.769651     -2.515446     -2.439823
  H       2.248383     -2.361257     -3.438684
  H       0.886604     -1.228022     -3.692968
  H      -0.911427      0.393048     -1.474585
  C       1.259176      1.009067     -1.430198
  C      -0.236805      1.180480     -1.064350
  H       1.445016      1.475726     -2.426625
  H       1.868417      1.620565     -0.727543
  Si     -0.935987      2.866276     -1.658370
  H      -0.382481      1.125047      0.037851
  C       0.183370      4.281855     -1.048360
  C      -2.701354      3.157593     -1.021952
  C      -0.952739      2.896392     -3.561806
  H       0.244898      4.326007      0.059106
  H      -0.215700      5.261250     -1.386048
  H       1.214481      4.186381     -1.447226
  H      -2.732984      3.199858      0.086727
  H      -3.397119      2.357400     -1.350659
  H      -3.096319      4.121212     -1.408053
  H       0.049152      2.679156     -3.987201
  H      -1.263587      3.893147     -3.939216
  H      -1.663568      2.148237     -3.970931
69
Coordinates from ORCA-job my_molecule E -2464.452073719583
  Pt     -0.012000     -1.427207      1.063525
  O       0.408469     -0.072181      2.435376
  O      -2.484527     -2.185832      1.242482
  P       1.574971      1.049966      2.579654
  P      -2.079621     -3.098471      0.073289
  O      -1.991994     -4.685153      0.490607
  O      -0.595383     -2.647830     -0.403726
  O       0.779262      2.442470      2.165021
  O       2.854135      0.879618      1.788645
  C       1.793346      1.200169      4.410256
  C      -3.186686     -3.154183     -1.398250
  C      -2.533333     -4.026242     -2.489444
  C      -3.385175     -1.712762     -1.911749
  C      -4.534422     -3.748941     -0.931431
  C       0.435036      1.454561      5.086721
  C       2.419036     -0.123692      4.894794
  C       2.762918      2.373877      4.653818
  H      -1.676289     -4.757109      1.414911
  H       1.205931      2.793424      1.357562
  H      -1.606086     -3.550441     -2.863670
  H      -3.234828     -4.123727     -3.344953
  H      -2.292358     -5.042928     -2.120604
  H      -2.440167     -1.273833     -2.295391
  H      -3.787544     -1.041932     -1.126035
  H      -4.107655     -1.733950     -2.754720
  H      -4.415144     -4.789628     -0.571191
  H      -5.247166     -3.751329     -1.782545
  H      -4.977949     -3.145307     -0.113319
  H      -0.266511      0.617253      4.906566
  H      -0.034754      2.383736      4.707692
  H       0.579828      1.563188      6.182493
  H       1.733948     -0.979205      4.729601
  H       2.633041     -0.059750      5.982360
  H       3.370405     -0.332782      4.365453
  H       2.332003      3.331214      4.298530
  H       3.726646      2.212135      4.131123
  H       2.967276      2.469544      5.740993
  Si      2.234472     -0.620830     -1.635943
  C       3.925110     -0.010838     -2.259779
  C       2.684637     -1.638264     -0.078809
  C       1.454710     -1.783517     -2.924394
  H       4.398096      0.625629     -1.482471
  H       3.810524      0.602677     -3.177656
  H       4.620083     -0.844089     -2.487409
  H       1.897370     -2.201522      0.512969
  H       3.210562     -0.996830      0.654845
  H       3.344624     -2.463879     -0.432182
  H       0.768210     -2.508325     -2.443744
  H       2.246849     -2.363236     -3.443292
  H       0.890765     -1.223204     -3.698626
  H      -0.903415      0.391291     -1.477419
  C       1.267095      1.010235     -1.430104
  C      -0.229430      1.178660     -1.066166
  H       1.454881      1.482844     -2.423374
  H       1.874929      1.617266     -0.722345
  Si     -0.932868      2.863338     -1.658055
  H      -0.378138      1.120927      0.035463
  C       0.180041      4.282039     -1.044472
  C      -2.699725      3.145843     -1.022346
  C      -0.948391      2.895578     -3.561262
  H       0.239313      4.323530      0.063267
  H      -0.222229      5.260708     -1.380414
  H       1.212152      4.191301     -1.441799
  H      -2.731986      3.187235      0.086307
  H      -3.391192      2.342206     -1.351678
  H      -3.099493      4.107659     -1.407953
  H       0.054645      2.682935     -3.986209
  H      -1.263300      3.891322     -3.937931
  H      -1.655561      2.144566     -3.971461
69
Coordinates from ORCA-job my_molecule E -2464.452219584523
  Pt     -0.018000     -1.424635      1.064423
  O       0.402937     -0.073820      2.440118
  O      -2.477491     -2.181999      1.244446
  P       1.570187      1.047331      2.583583
  P      -2.077681     -3.095782      0.073066
  O      -1.991279     -4.681774      0.491823
  O      -0.595610     -2.643967     -0.406115
  O       0.776558      2.440663      2.167147
  O       2.849442      0.875967      1.793346
  C       1.787392      1.199412      4.414292
  C      -3.188963     -3.151942     -1.395064
  C      -2.540990     -4.031969     -2.483212
  C      -3.381512     -1.712165     -1.914973
  C      -4.538348     -3.738296     -0.923018
  C       0.428728      1.454652      5.089780
  C       2.412657     -0.123843      4.900845
  C       2.756867      2.373363      4.656995
  H      -1.672507     -4.753797      1.415054
  H       1.204031      2.789426      1.359072
  H      -1.611060     -3.562920     -2.859724
  H      -3.243488     -4.128571     -3.337960
  H      -2.305807     -5.048590     -2.110763
  H      -2.435281     -1.277339     -2.300200
  H      -3.782405     -1.037207     -1.132055
  H      -4.104301     -1.734137     -2.757620
  H      -4.423181     -4.777508     -0.557341
  H      -5.252360     -3.742443     -1.773021
  H      -4.978013     -3.128272     -0.107656
  H      -0.272766      0.617130      4.910428
  H      -0.040839      2.383382      4.709388
  H       0.573055      1.564593      6.185488
  H       1.727395     -0.979444      4.736806
  H       2.626444     -0.058308      5.988369
  H       3.364111     -0.334109      4.372138
  H       2.326262      3.330241      4.300143
  H       3.720903      2.210884      4.135121
  H       2.960399      2.470414      5.744201
  Si      2.242672     -0.619591     -1.644070
  C       3.929061     -0.008939     -2.278457
  C       2.696821     -1.635391     -0.088627
  C       1.456641     -1.780823     -2.930259
  H       4.407225      0.628180     -1.504888
  H       3.809121      0.603589     -3.196295
  H       4.622481     -0.842578     -2.509493
  H       1.905601     -2.196198      0.498628
  H       3.219352     -0.995104      0.648386
  H       3.359910     -2.459761     -0.438809
  H       0.766623     -2.501078     -2.448247
  H       2.245318     -2.366177     -3.448108
  H       0.895546     -1.218706     -3.705274
  H      -0.895073      0.389748     -1.480389
  C       1.275362      1.011133     -1.430365
  C      -0.221468      1.176790     -1.068154
  H       1.465085      1.489716     -2.420412
  H       1.882003      1.613557     -0.717602
  Si     -0.929269      2.860411     -1.657520
  H      -0.373090      1.116629      0.032967
  C       0.177283      4.282139     -1.040361
  C      -2.697433      3.133684     -1.021861
  C      -0.944086      2.895011     -3.560493
  H       0.234289      4.320826      0.067613
  H      -0.228145      5.260126     -1.374439
  H       1.210370      4.196132     -1.436146
  H      -2.729851      3.174064      0.086793
  H      -3.384492      2.326454     -1.351611
  H      -3.102449      4.093589     -1.406699
  H       0.060032      2.687291     -3.985262
  H      -1.263444      3.889669     -3.936247
  H      -1.647481      2.140988     -3.971648
69
Coordinates from ORCA-job my_molecule E -2464.452361207098
  Pt     -0.024306     -1.421063      1.066193
  O       0.397346     -0.075377      2.445812
  O      -2.471779     -2.178962      1.246533
  P       1.565375      1.044798      2.588074
  P      -2.076412     -3.093380      0.072773
  O      -1.990513     -4.678700      0.492681
  O      -0.596646     -2.639492     -0.408436
  O       0.773751      2.438847      2.169555
  O       2.844415      0.872060      1.798472
  C       1.781638      1.199209      4.418821
  C      -3.191519     -3.150049     -1.392223
  C      -2.548040     -4.036685     -2.477812
  C      -3.379302     -1.711746     -1.917568
  C      -4.542052     -3.729584     -0.915670
  C       0.422746      1.455566      5.093461
  C       2.406475     -0.123371      4.907593
  C       2.751156      2.373380      4.660256
  H      -1.669089     -4.750819      1.414972
  H       1.202292      2.785128      1.360902
  H      -1.615596     -3.573607     -2.855552
  H      -3.250997     -4.131844     -3.332303
  H      -2.318343     -5.053448     -2.102601
  H      -2.432207     -1.279772     -2.304128
  H      -3.779319     -1.033478     -1.137066
  H      -4.102334     -1.734631     -2.759952
  H      -4.430062     -4.767460     -0.545330
  H      -5.257180     -3.735476     -1.764684
  H      -4.978569     -3.114253     -0.102689
  H      -0.278786      0.617847      4.915203
  H      -0.046585      2.383799      4.711569
  H       0.566771      1.567076      6.189059
  H       1.720948     -0.979043      4.745022
  H       2.620255     -0.056019      5.995017
  H       3.357890     -0.334976      4.379367
  H       2.320879      3.329759      4.301718
  H       3.715401      2.209974      4.139079
  H       2.954081      2.472020      5.747432
  Si      2.250654     -0.618688     -1.652281
  C       3.932656     -0.007709     -2.297848
  C       2.708626     -1.632454     -0.098531
  C       1.458529     -1.778418     -2.936264
  H       4.416361      0.630192     -1.528391
  H       3.807186      0.603608     -3.215744
  H       4.624315     -0.841909     -2.532273
  H       1.912777     -2.190111      0.483726
  H       3.227651     -0.993224      0.641784
  H       3.374698     -2.455837     -0.445023
  H       0.764792     -2.493621     -2.453001
  H       2.243684     -2.369853     -3.452540
  H       0.900784     -1.214510     -3.712399
  H      -0.887046      0.388439     -1.483360
  C       1.283779      1.011759     -1.430781
  C      -0.213243      1.174883     -1.070311
  H       1.475500      1.496322     -2.417546
  H       1.889372      1.609517     -0.713179
  Si     -0.925307      2.857533     -1.656953
  H      -0.367515      1.112163      0.030181
  C       0.175106      4.282103     -1.036168
  C      -2.694655      3.121645     -1.021067
  C      -0.939606      2.894637     -3.559703
  H       0.229822      4.317916      0.072061
  H      -0.233338      5.259468     -1.368343
  H       1.209148      4.200700     -1.430377
  H      -2.727019      3.160951      0.087600
  H      -3.377364      2.310876     -1.351170
  H      -3.104968      4.079630     -1.405015
  H       0.065521      2.691776     -3.984379
  H      -1.263339      3.888245     -3.934445
  H      -1.639341      2.137740     -3.971809
69
Coordinates from ORCA-job my_molecule E -2464.452519998951
  Pt     -0.030883     -1.417394      1.067268
  O       0.391442     -0.076894      2.451324
  O      -2.465951     -2.176881      1.249443
  P       1.560247      1.042275      2.592519
  P      -2.074803     -3.091220      0.072821
  O      -1.988944     -4.676040      0.493148
  O      -0.597468     -2.634734     -0.410547
  O       0.770782      2.437036      2.171623
  O       2.839092      0.867754      1.803733
  C       1.775226      1.199193      4.423316
  C      -3.193782     -3.147943     -1.388967
  C      -2.554655     -4.040893     -2.472174
  C      -3.376818     -1.711059     -1.919486
  C      -4.545533     -3.720635     -0.908196
  C       0.416093      1.457479      5.096764
  C       2.398852     -0.122950      4.914672
  C       2.745334      2.373136      4.663482
  H      -1.664838     -4.748584      1.414457
  H       1.200747      2.780720      1.362584
  H      -1.619744     -3.583558     -2.851345
  H      -3.258217     -4.134739     -3.326276
  H      -2.330135     -5.057728     -2.094278
  H      -2.428989     -1.282533     -2.307811
  H      -3.775319     -1.029250     -1.141297
  H      -4.100449     -1.734688     -2.761306
  H      -4.436815     -4.757250     -0.533462
  H      -5.261714     -3.727974     -1.756275
  H      -4.978940     -3.100223     -0.097487
  H      -0.285900      0.619924      4.919554
  H      -0.052416      2.385433      4.713185
  H       0.559639      1.570599      6.192266
  H       1.712688     -0.978378      4.753498
  H       2.612355     -0.053727      6.002042
  H       3.350277     -0.336424      4.387230
  H       2.315969      3.329166      4.302967
  H       3.709843      2.208209      4.143288
  H       2.947436      2.473477      5.750654
  Si      2.258857     -0.618046     -1.661039
  C       3.936323     -0.006849     -2.318182
  C       2.720519     -1.629568     -0.108958
  C       1.460450     -1.776348     -2.942689
  H       4.425748      0.632104     -1.553238
  H       3.805209      0.602891     -3.236331
  H       4.626131     -0.841732     -2.555779
  H       1.919468     -2.183710      0.467642
  H       3.235724     -0.991206      0.634730
  H       3.389680     -2.452038     -0.451215
  H       0.762791     -2.486341     -2.457875
  H       2.241952     -2.374144     -3.457164
  H       0.906208     -1.210702     -3.720072
  H      -0.878339      0.387280     -1.486240
  C       1.292554      1.012249     -1.431936
  C      -0.204330      1.173086     -1.072501
  H       1.485786      1.502422     -2.415624
  H       1.897552      1.605475     -0.710032
  Si     -0.921111      2.854693     -1.656001
  H      -0.360797      1.107962      0.027568
  C       0.173069      4.282177     -1.031645
  C      -2.691490      3.108946     -1.019286
  C      -0.935449      2.894528     -3.558512
  H       0.225562      4.315081      0.076762
  H      -0.238440      5.258891     -1.361894
  H       1.208033      4.205423     -1.424312
  H      -2.723400      3.146881      0.089419
  H      -3.369649      2.294496     -1.349708
  H      -3.107575      4.064925     -1.401955
  H       0.070660      2.697096     -3.983372
  H      -1.264180      3.886934     -3.932043
  H      -1.631224      2.134439     -3.971453
69
Coordinates from ORCA-job my_molecule E -2464.452685926294
  Pt     -0.037810     -1.413356      1.069262
  O       0.384897     -0.078043      2.457532
  O      -2.460540     -2.177285      1.253029
  P       1.554716      1.039976      2.597237
  P      -2.073326     -3.090510      0.072878
  O      -1.987207     -4.675127      0.492406
  O      -0.598429     -2.630680     -0.412311
  O       0.767428      2.435411      2.173682
  O       2.833146      0.863074      1.809055
  C       1.768828      1.199835      4.427981
  C      -3.196057     -3.146249     -1.385853
  C      -2.561049     -4.043822     -2.467855
  C      -3.375126     -1.710227     -1.919800
  C      -4.548596     -3.713563     -0.901510
  C       0.409704      1.460737      5.100445
  C       2.390873     -0.121979      4.922108
  C       2.740028      2.373239      4.666375
  H      -1.660310     -4.748746      1.412632
  H       1.199098      2.776362      1.364353
  H      -1.623924     -3.591527     -2.847641
  H      -3.265080     -4.135265     -3.321794
  H      -2.341507     -5.061187     -2.088699
  H      -2.426749     -1.284519     -2.310042
  H      -3.771716     -1.025693     -1.143034
  H      -4.099790     -1.733960     -2.760702
  H      -4.442451     -4.749332     -0.523773
  H      -5.265920     -3.721636     -1.748579
  H      -4.979184     -3.089453     -0.092202
  H      -0.293118      0.623591      4.924598
  H      -0.057700      2.388515      4.715089
  H       0.553031      1.575653      6.195798
  H       1.703749     -0.976952      4.762618
  H       2.604326     -0.050746      6.009366
  H       3.342126     -0.337727      4.395294
  H       2.311840      3.328997      4.303781
  H       3.704607      2.206307      4.146966
  H       2.941647      2.475452      5.753462
  Si      2.266844     -0.617637     -1.669682
  C       3.939940     -0.006744     -2.338359
  C       2.731839     -1.626803     -0.119276
  C       1.462117     -1.774413     -2.948948
  H       4.435078      0.633453     -1.578151
  H       3.803395      0.601118     -3.256962
  H       4.627791     -0.842500     -2.578733
  H       1.925225     -2.176873      0.451331
  H       3.243249     -0.989155      0.627600
  H       3.403764     -2.448752     -0.456868
  H       0.760605     -2.479018     -2.462636
  H       2.239964     -2.378534     -3.461541
  H       0.911487     -1.207081     -3.727656
  H      -0.869830      0.386408     -1.488863
  C       1.301492      1.012644     -1.433520
  C      -0.195174      1.171520     -1.074793
  H       1.495987      1.508089     -2.414314
  H       1.906212      1.601448     -0.707766
  Si     -0.916655      2.852089     -1.655056
  H      -0.353406      1.104077      0.024733
  C       0.171523      4.282345     -1.027212
  C      -2.687925      3.096660     -1.017292
  C      -0.931282      2.894690     -3.557336
  H       0.221708      4.312503      0.081412
  H      -0.242785      5.258428     -1.355777
  H       1.207416      4.209919     -1.418206
  H      -2.719248      3.133115      0.091459
  H      -3.361664      2.278693     -1.348077
  H      -3.109672      4.050696     -1.398538
  H       0.075743      2.702737     -3.982484
  H      -1.265073      3.885870     -3.929589
  H      -1.623122      2.131440     -3.971056
69
Coordinates from ORCA-job my_molecule E -2464.452861196432
  Pt     -0.045225     -1.409056      1.070743
  O       0.377657     -0.078903      2.463341
  O      -2.455402     -2.177791      1.256895
  P       1.548776      1.037676      2.601699
  P      -2.071638     -3.089700      0.073273
  O      -1.984966     -4.674136      0.491879
  O      -0.599123     -2.626347     -0.413563
  O       0.764089      2.433945      2.175247
  O       2.826822      0.857733      1.814252
  C       1.761848      1.200534      4.432385
  C      -3.197862     -3.144537     -1.382555
  C      -2.566586     -4.046505     -2.463313
  C      -3.373184     -1.709399     -1.919840
  C      -4.551190     -3.706693     -0.894946
  C       0.402786      1.464854      5.103639
  C       2.381540     -0.121223      4.929518
  C       2.734724      2.372918      4.668994
  H      -1.655257     -4.748822      1.411007
  H       1.197745      2.771997      1.365747
  H      -1.627383     -3.598907     -2.843949
  H      -3.271156     -4.136016     -3.316981
  H      -2.351530     -5.064227     -2.082758
  H      -2.424417     -1.286851     -2.312331
  H      -3.767475     -1.022026     -1.144422
  H      -4.099151     -1.733220     -2.759587
  H      -4.447509     -4.741604     -0.514243
  H      -5.269491     -3.715565     -1.741146
  H      -4.979241     -3.079028     -0.087099
  H      -0.301324      0.628509      4.929106
  H      -0.062933      2.392705      4.716418
  H       0.545808      1.581517      6.198854
  H       1.693045     -0.975395      4.771665
  H       2.594789     -0.047981      6.016689
  H       3.332603     -0.339771      4.403529
  H       2.308279      3.328576      4.304119
  H       3.699370      2.203398      4.150563
  H       2.935732      2.477058      5.756009
  Si      2.274964     -0.617400     -1.678670
  C       3.943713     -0.006988     -2.358868
  C       2.742987     -1.624227     -0.129875
  C       1.463702     -1.772805     -2.955296
  H       4.444552      0.634633     -1.603615
  H       3.801825      0.598732     -3.278079
  H       4.629559     -0.843726     -2.601733
  H       1.930445     -2.169949      0.434273
  H       3.250433     -0.987122      0.620154
  H       3.417592     -2.445813     -0.462426
  H       0.758273     -2.471939     -2.467186
  H       2.237861     -2.383318     -3.465873
  H       0.916697     -1.203958     -3.735444
  H      -0.860866      0.385767     -1.491488
  C       1.310616      1.012972     -1.435912
  C      -0.185588      1.170154     -1.077174
  H       1.505880      1.513210     -2.414107
  H       1.915471      1.597570     -0.706854
  Si     -0.912054      2.849715     -1.653672
  H      -0.345186      1.100465      0.022009
  C       0.170433      4.282631     -1.022661
  C      -2.683847      3.084323     -1.013875
  C      -0.927995      2.895318     -3.555701
  H       0.218473      4.310211      0.086119
  H      -0.246489      5.258101     -1.349680
  H       1.207177      4.214244     -1.412087
  H      -2.713958      3.118972      0.094949
  H      -3.353261      2.262906     -1.344904
  H      -3.111529      4.036457     -1.393185
  H       0.079787      2.709348     -3.981668
  H      -1.267480      3.885138     -3.926380
  H      -1.615751      2.128658     -3.969932
69
Coordinates from ORCA-job my_molecule E -2464.453040028562
  Pt     -0.053164     -1.404381      1.073141
  O       0.369581     -0.079078      2.469853
  O      -2.451090     -2.181168      1.261309
  P       1.542434      1.035731      2.606403
  P      -2.070176     -3.090638      0.073627
  O      -1.982496     -4.675217      0.489993
  O      -0.600045     -2.622915     -0.414332
  O       0.760592      2.432918      2.176802
  O       2.819845      0.851939      1.819406
  C       1.755067      1.201977      4.436898
  C      -3.199667     -3.143596     -1.379553
  C      -2.571798     -4.048227     -2.460253
  C      -3.372049     -1.708723     -1.918359
  C      -4.553388     -3.702124     -0.889360
  C       0.396372      1.470345      5.107267
  C       2.372100     -0.119835      4.937112
  C       2.730120      2.373033      4.671174
  H      -1.649755     -4.751635      1.407879
  H       1.196397      2.767850      1.367128
  H      -1.630799     -3.604500     -2.840964
  H      -3.276768     -4.134827     -3.313860
  H      -2.360910     -5.066754     -2.079713
  H      -2.423060     -1.288541     -2.313010
  H      -3.763873     -1.019489     -1.143356
  H      -4.099589     -1.731945     -2.756732
  H      -4.451472     -4.736626     -0.507117
  H      -5.272727     -3.711064     -1.734647
  H      -4.979230     -3.072304     -0.082076
  H      -0.309378      0.635028      4.934414
  H      -0.067448      2.398357      4.718146
  H       0.539444      1.588928      6.202276
  H       1.681928     -0.973000      4.781172
  H       2.585433     -0.044493      6.024129
  H       3.322763     -0.341524      4.411729
  H       2.305634      3.328669      4.303988
  H       3.694592      2.200475      4.153435
  H       2.930954      2.479239      5.758020
  Si      2.282629     -0.617343     -1.687372
  C       3.947334     -0.007939     -2.378682
  C       2.753184     -1.622024     -0.140211
  C       1.464739     -1.771147     -2.961386
  H       4.453753      0.635107     -1.628380
  H       3.800496      0.595540     -3.298598
  H       4.631066     -0.845835     -2.623695
  H       1.934519     -2.162922      0.417336
  H       3.256879     -0.985379      0.612714
  H       3.429971     -2.443668     -0.467560
  H       0.755587     -2.464800     -2.471562
  H       2.235244     -2.387808     -3.470081
  H       0.921294     -1.200797     -3.742914
  H      -0.852283      0.385539     -1.493626
  C       1.319691      1.013322     -1.438552
  C      -0.175984      1.169205     -1.079484
  H       1.515520      1.517967     -2.414362
  H       1.924981      1.593839     -0.706605
  Si     -0.907185      2.847794     -1.652293
  H      -0.336518      1.097460      0.019270
  C       0.170057      4.283123     -1.018309
  C      -2.679348      3.073002     -1.010352
  C      -0.924628      2.896295     -3.554081
  H       0.215890      4.308420      0.090655
  H      -0.249065      5.258034     -1.344127
  H       1.207645      4.218258     -1.406055
  H      -2.708181      3.105820      0.098545
  H      -3.344728      2.248427     -1.341668
  H      -3.112620      4.023370     -1.387670
  H       0.083829      2.716226     -3.980938
  H      -1.269753      3.884734     -3.923190
  H      -1.608392      2.126297     -3.968735
69
Coordinates from ORCA-job my_molecule E -2464.453225893788
  Pt     -0.061602     -1.399311      1.075056
  O       0.360742     -0.078884      2.475834
  O      -2.447199     -2.184287      1.265791
  P       1.535667      1.033781      2.610726
  P      -2.068477     -3.091285      0.074321
  O      -1.979441     -4.675982      0.488505
  O      -0.600644     -2.619054     -0.414484
  O       0.757200      2.432109      2.177835
  O       2.812432      0.845416      1.824279
  C       1.747810      1.203394      4.441012
  C      -3.200885     -3.142711     -1.376443
  C      -2.576006     -4.049976     -2.456866
  C      -3.370507     -1.708202     -1.916920
  C      -4.555050     -3.697711     -0.883917
  C       0.389573      1.476560      5.110351
  C       2.361445     -0.118759      4.944429
  C       2.725624      2.372625      4.672955
  H      -1.643692     -4.753997      1.405155
  H       1.195327      2.763744      1.368062
  H      -1.633387     -3.609777     -2.838022
  H      -3.281469     -4.134391     -3.310258
  H      -2.368699     -5.069044     -2.075985
  H      -2.421398     -1.290743     -2.313938
  H      -3.759651     -1.016928     -1.142403
  H      -4.099733     -1.730942     -2.753814
  H      -4.454843     -4.731735     -0.499979
  H      -5.275224     -3.706915     -1.728463
  H      -4.978972     -3.065698     -0.077380
  H      -0.318263      0.642662      4.939136
  H      -0.071808      2.404979      4.719298
  H       0.532673      1.596980      6.205162
  H       1.669180     -0.970560      4.790348
  H       2.574774     -0.041375      6.031306
  H       3.311650     -0.344080      4.419782
  H       2.303631      3.328425      4.303352
  H       3.689876      2.196490      4.156022
  H       2.926238      2.480878      5.759638
  Si      2.290256     -0.617387     -1.696296
  C       3.951061     -0.009184     -2.398405
  C       2.762871     -1.620094     -0.150655
  C       1.465637     -1.769768     -2.967491
  H       4.462940      0.635328     -1.653085
  H       3.799497      0.591944     -3.319104
  H       4.632646     -0.848331     -2.645313
  H       1.937848     -2.155922      0.399997
  H       3.262806     -0.983796      0.605067
  H       3.441604     -2.442006     -0.472624
  H       0.752805     -2.457930     -2.475676
  H       2.232518     -2.392536     -3.474200
  H       0.925676     -1.198147     -3.750490
  H      -0.843354      0.385493     -1.495775
  C       1.328791      1.013668     -1.441952
  C      -0.166130      1.168454     -1.081864
  H       1.524696      1.522207     -2.415706
  H       1.934876      1.590415     -0.707676
  Si     -0.902270      2.846144     -1.650446
  H      -0.327166      1.094712      0.016670
  C       0.170144      4.283723     -1.013835
  C      -2.674421      3.061855     -1.005417
  C      -0.922231      2.897817     -3.551968
  H       0.213973      4.306979      0.095253
  H      -0.250945      5.258115     -1.338616
  H       1.208492      4.222024     -1.400045
  H      -2.701383      3.092515      0.103576
  H      -3.335965      2.234281     -1.336942
  H      -3.113413      4.010560     -1.380224
  H       0.086706      2.724049     -3.980261
  H      -1.273504      3.884784     -3.919171
  H      -1.601951      2.124339     -3.966809
69
Coordinates from ORCA-job my_molecule E -2464.453414227261
  Pt     -0.070528     -1.394010      1.077996
  O       0.351009     -0.077835      2.482518
  O      -2.444362     -2.190050      1.270548
  P       1.528550      1.032265      2.615262
  P      -2.067109     -3.093649      0.074929
  O      -1.976481     -4.678753      0.485783
  O      -0.601401     -2.616366     -0.413974
  O       0.753766      2.431843      2.178904
  O       2.804393      0.838491      1.829005
  C       1.740942      1.205551      4.445194
  C      -3.202037     -3.142667     -1.373806
  C      -2.579798     -4.051036     -2.454978
  C      -3.369528     -1.707936     -1.914309
  C      -4.556364     -3.695466     -0.879649
  C       0.383534      1.484143      5.113942
  C       2.350883     -0.117082      4.951787
  C       2.722056      2.372602      4.674239
  H      -1.637586     -4.758963      1.401080
  H       1.194226      2.759964      1.368947
  H      -1.635801     -3.613604     -2.835865
  H      -3.285588     -4.132430     -3.308367
  H      -2.375783     -5.071045     -2.074998
  H      -2.420381     -1.292508     -2.313490
  H      -3.755901     -1.015535     -1.139436
  H      -4.100592     -1.729510     -2.749599
  H      -4.457319     -4.729444     -0.495314
  H      -5.277370     -3.704222     -1.723463
  H      -4.978670     -3.062503     -0.073056
  H      -0.326760      0.651909      4.944770
  H      -0.075217      2.413063      4.720973
  H       0.527109      1.606547      6.208476
  H       1.656202     -0.967294      4.799839
  H       2.564559     -0.037625      6.038451
  H       3.300383     -0.346364      4.427596
  H       2.302767      3.328664      4.302265
  H       3.685793      2.192441      4.157743
  H       2.922972      2.482979      5.760649
  Si      2.297326     -0.617579     -1.704816
  C       3.954622     -0.011051     -2.417054
  C       2.771497     -1.618596     -0.160645
  C       1.465956     -1.768407     -2.973188
  H       4.471691      0.634877     -1.676566
  H       3.798824      0.587704     -3.338605
  H       4.634019     -0.851570     -2.665488
  H       1.940188     -2.149032      0.383207
  H       3.268023     -0.982571      0.597556
  H       3.451618     -2.441165     -0.477304
  H       0.749730     -2.451247     -2.479417
  H       2.229324     -2.396885     -3.478144
  H       0.929246     -1.195610     -3.757552
  H      -0.834903      0.385796     -1.497464
  C       1.337666      1.014070     -1.445606
  C      -0.156470      1.168117     -1.084169
  H       1.533400      1.526015     -2.417594
  H       1.944810      1.587299     -0.709467
  Si     -0.897252      2.844976     -1.648595
  H      -0.317590      1.092594      0.014086
  C       0.170819      4.284545     -1.009561
  C      -2.669240      3.051856     -1.000404
  C      -0.919908      2.899772     -3.549856
  H       0.212616      4.306114      0.099676
  H      -0.251829      5.258470     -1.333662
  H       1.209912      4.225489     -1.394165
  H      -2.694305      3.080319      0.108679
  H      -3.327311      2.221632     -1.332219
  H      -3.113515      3.999085     -1.372641
  H       0.089408      2.732175     -3.979673
  H      -1.277205      3.885284     -3.915108
  H      -1.595733      2.122957     -3.964832
69
Coordinates from ORCA-job my_molecule E -2464.453610719240
  Pt     -0.079823     -1.388437      1.080517
  O       0.340463     -0.076408      2.488531
  O      -2.441819     -2.195202      1.275268
  P       1.521000      1.030722      2.619289
  P      -2.065448     -3.095588      0.075937
  O      -1.973159     -4.681051      0.483673
  O      -0.601643     -2.613446     -0.412690
  O       0.750427      2.431777      2.179423
  O       2.795903      0.830889      1.833278
  C       1.733661      1.207543      4.448850
  C      -3.202499     -3.142546     -1.371055
  C      -2.582654     -4.052322     -2.452577
  C      -3.367698     -1.707755     -1.912015
  C      -4.557186     -3.692831     -0.875430
  C       0.377199      1.492169      5.116938
  C       2.339272     -0.115850      4.958612
  C       2.718592      2.371948      4.675045
  H      -1.631149     -4.763288      1.397628
  H       1.193263      2.756269      1.369314
  H      -1.637424     -3.617496     -2.833725
  H      -3.288932     -4.131542     -3.305748
  H      -2.381438     -5.072953     -2.072922
  H      -2.418487     -1.295035     -2.313580
  H      -3.750975     -1.013821     -1.137005
  H      -4.100667     -1.728267     -2.745632
  H      -4.459516     -4.726657     -0.490371
  H      -5.278817     -3.701296     -1.718692
  H      -4.978000     -3.058627     -0.069072
  H      -0.335943      0.661957      4.949745
  H      -0.078467      2.421820      4.722097
  H       0.521271      1.616413      6.211204
  H       1.641812     -0.964140      4.808703
  H       2.553247     -0.034447      6.045073
  H       3.287992     -0.349482      4.434953
  H       2.302459      3.328458      4.300701
  H       3.681740      2.187333      4.159031
  H       2.919819      2.484343      5.761188
  Si      2.304347     -0.617809     -1.713474
  C       3.958344     -0.013072     -2.435302
  C       2.779626     -1.617366     -0.170596
  C       1.466190     -1.767356     -2.978777
  H       4.480340      0.634274     -1.699532
  H       3.798621      0.583273     -3.357756
  H       4.635598     -0.855000     -2.684987
  H       1.942041     -2.142321      0.366386
  H       3.272850     -0.981524      0.589934
  H       3.460876     -2.440749     -0.481980
  H       0.746723     -2.445011     -2.482738
  H       2.226144     -2.401357     -3.481972
  H       0.932489     -1.193693     -3.764548
  H      -0.826122      0.386130     -1.499245
  C       1.346456      1.014516     -1.450012
  C      -0.146720      1.167919     -1.086582
  H       1.541520      1.529307     -2.420605
  H       1.954937      1.584636     -0.712564
  Si     -0.892370      2.844011     -1.646316
  H      -0.307536      1.090663      0.011607
  C       0.171703      4.285440     -1.005145
  C      -2.663852      3.041934     -0.994131
  C      -0.918645      2.902286     -3.547283
  H       0.211669      4.305577      0.104182
  H      -0.252330      5.258922     -1.328719
  H       1.211464      4.228743     -1.388295
  H      -2.686506      3.067854      0.115057
  H      -3.318634      2.209227     -1.326224
  H      -3.113503      3.987806     -1.363286
  H       0.090853      2.741249     -3.979143
  H      -1.282412      3.886281     -3.910196
  H      -1.590537      2.122055     -3.962242
69
Coordinates from ORCA-job my_molecule E -2464.453804042494
  Pt     -0.089740     -1.382430      1.083826
  O       0.329041     -0.074012      2.495352
  O      -2.440425     -2.203341      1.280275
  P       1.513144      1.029697      2.623599
  P      -2.064077     -3.099368      0.076771
  O      -1.969415     -4.685489      0.480082
  O      -0.602270     -2.611404     -0.410972
  O       0.747238      2.432405      2.180054
  O       2.786771      0.822916      1.837484
  C       1.726846      1.210319      4.452639
  C      -3.203023     -3.143530     -1.368777
  C      -2.585283     -4.053059     -2.451800
  C      -3.366796     -1.708057     -1.908446
  C      -4.557639     -3.692865     -0.872203
  C       0.371670      1.501331      5.120530
  C       2.328067     -0.113888      4.965462
  C       2.715926      2.371871      4.675460
  H      -1.624140     -4.770334      1.392561
  H       1.192393      2.752966      1.369613
  H      -1.639108     -3.619981     -2.832415
  H      -3.291874     -4.129148     -3.304978
  H      -2.386549     -5.074762     -2.073861
  H      -2.417671     -1.296930     -2.312089
  H      -3.747131     -1.013764     -1.132337
  H      -4.101794     -1.726853     -2.740287
  H      -4.460577     -4.726968     -0.487751
  H      -5.280007     -3.700429     -1.714821
  H      -4.977248     -3.058737     -0.065199
  H      -0.344527      0.673265      4.955709
  H      -0.080904      2.431724      4.723859
  H       0.516684      1.627560      6.214448
  H       1.627637     -0.960129      4.817865
  H       2.542735     -0.030521      6.051637
  H       3.275761     -0.352026      4.442000
  H       2.302986      3.328870      4.298853
  H       3.678206      2.182552      4.159534
  H       2.917995      2.486329      5.761228
  Si      2.310648     -0.618168     -1.721675
  C       3.961792     -0.015650     -2.452267
  C       2.786431     -1.616747     -0.180102
  C       1.465718     -1.766054     -2.984119
  H       4.488468      0.632829     -1.720850
  H       3.798701      0.578522     -3.375547
  H       4.636817     -0.859092     -2.703031
  H       1.942626     -2.135926      0.350189
  H       3.276842     -0.981157      0.582460
  H       3.468186     -2.441315     -0.486528
  H       0.743333     -2.438713     -2.485993
  H       2.222351     -2.405140     -3.485886
  H       0.934792     -1.191477     -3.771090
  H      -0.818084      0.386886     -1.500405
  C       1.354920      1.015054     -1.454300
  C      -0.137343      1.168180     -1.088802
  H       1.549329      1.532381     -2.423664
  H       1.964862      1.582186     -0.715779
  Si     -0.887253      2.843630     -1.644154
  H      -0.297607      1.089386      0.009206
  C       0.173492      4.286548     -1.001097
  C      -2.658125      3.033690     -0.988122
  C      -0.917076      2.905158     -3.544837
  H       0.211575      4.305637      0.108366
  H      -0.251413      5.259684     -1.324526
  H       1.213911      4.231567     -1.382716
  H      -2.678462      3.057224      0.121153
  H      -3.310105      2.198902     -1.320501
  H      -3.112502      3.978417     -1.354350
  H       0.092508      2.750258     -3.978702
  H      -1.286888      3.887719     -3.905486
  H      -1.585347      2.121797     -3.959747
69
Coordinates from ORCA-job my_molecule E -2464.454001682549
  Pt     -0.099745     -1.376043      1.086902
  O       0.317113     -0.071429      2.501431
  O      -2.439816     -2.208912      1.284582
  P       1.505063      1.028512      2.627391
  P      -2.062696     -3.101599      0.078039
  O      -1.965927     -4.688097      0.478137
  O      -0.602372     -2.608621     -0.408301
  O       0.744240      2.433037      2.180269
  O       2.777375      0.814343      1.841190
  C       1.719818      1.212664      4.455914
  C      -3.202736     -3.144113     -1.366597
  C      -2.586556     -4.054467     -2.449921
  C      -3.364669     -1.708495     -1.906377
  C      -4.557706     -3.691659     -0.869277
  C       0.366045      1.510575      5.123566
  C       2.316051     -0.112635      4.971721
  C       2.713506      2.370909      4.675506
  H      -1.617828     -4.774859      1.389359
  H       1.191587      2.749588      1.369493
  H      -1.639504     -3.623184     -2.830779
  H      -3.293503     -4.129043     -3.302921
  H      -2.389749     -5.076609     -2.072275
  H      -2.415510     -1.299912     -2.312170
  H      -3.742093     -1.012970     -1.129980
  H      -4.101423     -1.726199     -2.736657
  H      -4.461725     -4.725683     -0.484362
  H      -5.280343     -3.698974     -1.711651
  H      -4.976406     -3.056701     -0.062488
  H      -0.353560      0.684999      4.961013
  H      -0.083016      2.441935      4.725161
  H       0.512031      1.638587      6.217150
  H       1.612322     -0.956505      4.826301
  H       2.531353     -0.027477      6.057630
  H       3.262654     -0.355620      4.448541
  H       2.304186      3.328587      4.296692
  H       3.674852      2.176538      4.159722
  H       2.916395      2.487250      5.760917
  Si      2.316933     -0.618538     -1.730073
  C       3.965372     -0.018209     -2.468941
  C       2.792901     -1.616213     -0.189520
  C       1.465380     -1.765368     -2.989267
  H       4.496400      0.631466     -1.741750
  H       3.799138      0.573735     -3.393107
  H       4.638304     -0.863124     -2.720522
  H       1.943090     -2.129691      0.334200
  H       3.280627     -0.980780      0.574916
  H       3.474988     -2.442009     -0.491139
  H       0.740194     -2.433165     -2.488643
  H       2.218866     -2.409451     -3.489386
  H       0.936997     -1.190384     -3.777641
  H      -0.809683      0.387420     -1.502070
  C       1.363145      1.015559     -1.459530
  C      -0.128019      1.168319     -1.091321
  H       1.556282      1.534812     -2.428088
  H       1.974769      1.580306     -0.720577
  Si     -0.882573      2.843226     -1.641474
  H      -0.287355      1.087936      0.006784
  C       0.175059      4.287556     -0.996686
  C      -2.652472      3.024993     -0.980639
  C      -0.916979      2.908661     -3.541818
  H       0.211553      4.305763      0.112838
  H      -0.250726      5.260346     -1.319960
  H       1.216036      4.234227     -1.377031
  H      -2.669903      3.045632      0.128736
  H      -3.301766      2.188254     -1.313362
  H      -3.111805      3.968695     -1.343250
  H       0.092458      2.760363     -3.978298
  H      -1.293300      3.889780     -3.899618
  H      -1.581620      2.122163     -3.956630
69
Coordinates from ORCA-job my_molecule E -2464.454206316296
  Pt     -0.110088     -1.369768      1.090828
  O       0.304456     -0.067952      2.508502
  O      -2.439904     -2.218591      1.289585
  P       1.496696      1.027942      2.631576
  P      -2.061394     -3.106350      0.079148
  O      -1.961944     -4.693685      0.474099
  O      -0.602676     -2.607370     -0.405199
  O       0.741225      2.434344      2.180726
  O       2.767305      0.805700      1.844889
  C       1.713315      1.215877      4.459425
  C      -3.202523     -3.145794     -1.364742
  C      -2.588037     -4.055177     -2.449874
  C      -3.363195     -1.709212     -1.902507
  C      -4.557472     -3.692918     -0.867116
  C       0.361272      1.520805      5.127354
  C       2.304728     -0.110488      4.978046
  C       2.711764      2.370744      4.675260
  H      -1.610712     -4.783340      1.383832
  H       1.190659      2.746715      1.369417
  H      -1.640331     -3.624984     -2.830115
  H      -3.295270     -4.126760     -3.302877
  H      -2.393127     -5.078397     -2.074291
  H      -2.414066     -1.302223     -2.310221
  H      -3.737524     -1.013697     -1.124633
  H      -4.101979     -1.724768     -2.730997
  H      -4.462013     -4.727440     -0.483423
  H      -5.280649     -3.698904     -1.709022
  H      -4.975215     -3.058592     -0.059374
  H      -0.361810      0.697735      4.967474
  H      -0.084441      2.453070      4.727276
  H       0.508692      1.650756      6.220521
  H       1.597647     -0.951962      4.835062
  H       2.521070     -0.023537      6.063602
  H       3.250011     -0.358301      4.454778
  H       2.305926      3.329091      4.294405
  H       3.671900      2.171252      4.159169
  H       2.916045      2.488992      5.760201
  Si      2.322423     -0.618997     -1.738068
  C       3.968682     -0.021435     -2.484353
  C       2.797810     -1.616220     -0.198399
  C       1.464188     -1.764273     -2.994261
  H       4.503815      0.629150     -1.760995
  H       3.799959      0.568489     -3.409376
  H       4.639406     -0.867980     -2.736500
  H       1.942013     -2.123754      0.319160
  H       3.283462     -0.981086      0.567600
  H       3.479552     -2.443657     -0.495606
  H       0.736629     -2.427539     -2.491284
  H       2.214537     -2.412855     -3.493288
  H       0.937931     -1.188739     -3.783646
  H      -0.801973      0.388359     -1.502980
  C       1.371095      1.016297     -1.464541
  C      -0.119069      1.169005     -1.093607
  H       1.563033      1.537189     -2.432435
  H       1.984494      1.578754     -0.725324
  Si     -0.877650      2.843412     -1.639119
  H      -0.277273      1.087313      0.004465
  C       0.177280      4.288881     -0.992663
  C      -2.646666      3.017922     -0.974105
  C      -0.916055      2.912459     -3.539141
  H       0.211988      4.306528      0.116974
  H      -0.248964      5.261387     -1.316165
  H       1.218862      4.236710     -1.371532
  H      -2.661590      3.035904      0.135343
  H      -3.293626      2.179560     -1.307284
  H      -3.110263      3.960766     -1.333454
  H       0.093256      2.770316     -3.977925
  H      -1.298352      3.892219     -3.894293
  H      -1.577280      2.123103     -3.953980
69
Coordinates from ORCA-job my_molecule E -2464.454405623557
  Pt     -0.120560     -1.362675      1.094279
  O       0.291404     -0.064422      2.514710
  O      -2.440810     -2.225055      1.293839
  P       1.488194      1.027063      2.635244
  P      -2.060058     -3.109032      0.080759
  O      -1.957886     -4.696842      0.472031
  O      -0.602596     -2.604704     -0.401236
  O       0.738624      2.435576      2.180750
  O       2.757099      0.796350      1.848211
  C       1.706448      1.218460      4.462467
  C      -3.201531     -3.146973     -1.362899
  C      -2.588228     -4.056756     -2.448413
  C      -3.360594     -1.710105     -1.900408
  C      -4.556839     -3.692739     -0.864951
  C       0.356146      1.530759      5.130466
  C       2.292495     -0.109197      4.983878
  C       2.709965      2.369583      4.674861
  H      -1.604191     -4.788473      1.380603
  H       1.189994      2.743589      1.368852
  H      -1.639913     -3.627811     -2.828876
  H      -3.295769     -4.127140     -3.301252
  H      -2.394692     -5.080341     -2.073209
  H      -2.411464     -1.305472     -2.310177
  H      -3.732019     -1.013715     -1.121953
  H      -4.101159     -1.724327     -2.727301
  H      -4.462304     -4.727271     -0.481063
  H      -5.280111     -3.698384     -1.706768
  H      -4.973936     -3.057892     -0.057318
  H      -0.370654      0.710476      4.973033
  H      -0.085836      2.464119      4.728783
  H       0.504881      1.662419      6.223252
  H       1.581791     -0.947992      4.843178
  H       2.509758     -0.020590      6.069113
  H       3.236430     -0.362148      4.460666
  H       2.307992      3.328757      4.292004
  H       3.668903      2.164744      4.158636
  H       2.915458      2.489533      5.759381
  Si      2.328030     -0.619472     -1.746330
  C       3.972040     -0.024413     -2.499854
  C       2.802865     -1.616259     -0.207409
  C       1.463221     -1.763732     -2.999151
  H       4.511104      0.627086     -1.780259
  H       3.800814      0.563515     -3.425695
  H       4.640668     -0.872487     -2.752554
  H       1.941396     -2.117994      0.303953
  H       3.286431     -0.981345      0.560103
  H       3.484311     -2.445178     -0.500436
  H       0.733352     -2.422492     -2.493474
  H       2.210567     -2.416814     -3.496829
  H       0.938938     -1.188093     -3.789765
  H      -0.793988      0.389017     -1.504551
  C       1.378783      1.016929     -1.470241
  C      -0.110261      1.169452     -1.096246
  H       1.569175      1.539068     -2.437757
  H       1.994019      1.577527     -0.731149
  Si     -0.873113      2.843502     -1.636328
  H      -0.267271      1.086299      0.001998
  C       0.179452      4.289956     -0.988396
  C      -2.640826      3.010406     -0.966065
  C      -0.916604      2.916758     -3.535960
  H       0.212716      4.307119      0.121299
  H      -0.247252      5.262211     -1.312013
  H       1.221517      4.238880     -1.366113
  H      -2.652535      3.025311      0.143463
  H      -3.285590      2.170505     -1.299618
  H      -3.108963      3.952475     -1.321489
  H       0.092312      2.781102     -3.977678
  H      -1.305228      3.895183     -3.887890
  H      -1.574514      2.124608     -3.950737
69
Coordinates from ORCA-job my_molecule E -2464.454624401048
  Pt     -0.130743     -1.356351      1.098892
  O       0.278077     -0.060318      2.522025
  O      -2.442088     -2.235550      1.298788
  P       1.479572      1.026789      2.639374
  P      -2.058712     -3.114263      0.082247
  O      -1.953770     -4.703034      0.467879
  O      -0.602380     -2.604069     -0.396765
  O       0.735743      2.437237      2.181218
  O       2.746364      0.787343      1.851508
  C       1.700296      1.221847      4.465820
  C      -3.200457     -3.148933     -1.361345
  C      -2.588663     -4.057632     -2.448603
  C      -3.357913     -1.710996     -1.896663
  C      -4.556025     -3.694081     -0.863575
  C       0.352078      1.541677      5.134419
  C       2.281093     -0.107104      4.989835
  C       2.709071      2.369102      4.674263
  H      -1.597291     -4.797742      1.375041
  H       1.188807      2.740934      1.368575
  H      -1.639903     -3.629455     -2.828681
  H      -3.296563     -4.125452     -3.301338
  H      -2.396572     -5.082159     -2.075336
  H      -2.408685     -1.308394     -2.308334
  H      -3.725911     -1.014585     -1.116626
  H      -4.100507     -1.722722     -2.721748
  H      -4.462337     -4.729210     -0.481090
  H      -5.279600     -3.698059     -1.705129
  H      -4.972216     -3.059932     -0.054964
  H      -0.378539      0.724238      4.979819
  H      -0.086292      2.476095      4.731207
  H       0.502601      1.675171      6.226740
  H       1.566706     -0.943173      4.851620
  H       2.499626     -0.016888      6.074676
  H       3.223470     -0.365181      4.466356
  H       2.310870      3.329111      4.289569
  H       3.666532      2.158818      4.157472
  H       2.916335      2.490752      5.758253
  Si      2.332782     -0.619895     -1.754326
  C       3.975182     -0.028135     -2.514178
  C       2.806060     -1.616520     -0.215725
  C       1.461404     -1.762869     -3.003890
  H       4.517862      0.624109     -1.797984
  H       3.802212      0.557862     -3.440936
  H       4.641621     -0.877943     -2.766974
  H       1.938955     -2.112304      0.290255
  H       3.288291     -0.982008      0.552948
  H       3.486427     -2.447428     -0.504959
  H       0.729739     -2.417589     -2.495495
  H       2.205747     -2.419969     -3.500794
  H       0.938515     -1.187088     -3.795315
  H      -0.786478      0.389837     -1.505550
  C       1.386192      1.017921     -1.476007
  C      -0.101806      1.170332     -1.098777
  H       1.574879      1.540962     -2.443331
  H       2.003371      1.576939     -0.737325
  Si     -0.868614      2.843962     -1.633942
  H      -0.257238      1.086037     -0.000378
  C       0.181536      4.291325     -0.984279
  C      -2.635299      3.003835     -0.959405
  C      -0.916239      2.921351     -3.533201
  H       0.213077      4.308222      0.125492
  H      -0.245451      5.263314     -1.308311
  H       1.224176      4.241180     -1.360562
  H      -2.644440      3.015749      0.150177
  H      -3.277981      2.162632     -1.293687
  H      -3.107401      3.945256     -1.311234
  H       0.092416      2.791900     -3.977351
  H      -1.310693      3.898532     -3.882074
  H      -1.570878      2.126658     -3.948279
69
Coordinates from ORCA-job my_molecule E -2464.454844905344
  Pt     -0.140830     -1.349602      1.102899
  O       0.264427     -0.056425      2.528453
  O      -2.443433     -2.243116      1.303288
  P       1.470756      1.026117      2.643012
  P      -2.057009     -3.117612      0.084308
  O      -1.949517     -4.707061      0.465547
  O      -0.601508     -2.602347     -0.391499
  O       0.733126      2.438676      2.181241
  O       2.735502      0.777747      1.854507
  C       1.693547      1.224504      4.468760
  C      -3.198575     -3.150163     -1.359561
  C      -2.588270     -4.059233     -2.447343
  C      -3.353807     -1.711743     -1.894332
  C      -4.554793     -3.693490     -0.861705
  C       0.347305      1.551884      5.137652
  C       2.268812     -0.105828      4.995393
  C       2.707579      2.367766      4.673676
  H      -1.590793     -4.804131      1.371566
  H       1.187769      2.737986      1.367814
  H      -1.639017     -3.632284     -2.827852
  H      -3.296648     -4.125838     -3.299771
  H      -2.397481     -5.084137     -2.074534
  H      -2.404412     -1.312148     -2.308273
  H      -3.718165     -1.014399     -1.113443
  H      -4.098427     -1.721482     -2.717586
  H      -4.462509     -4.728781     -0.479312
  H      -5.278409     -3.696560     -1.703223
  H      -4.970061     -3.058856     -0.053034
  H      -0.387166      0.737412      4.985570
  H      -0.087249      2.487459      4.732972
  H       0.499376      1.686974      6.229564
  H       1.550672     -0.939045      4.859471
  H       2.488410     -0.014088      6.079887
  H       3.209689     -0.369136      4.471858
  H       2.313333      3.328668      4.287146
  H       3.663677      2.152060      4.156589
  H       2.916290      2.490961      5.757209
  Si      2.337854     -0.620315     -1.762790
  C       3.978490     -0.031697     -2.529072
  C       2.809676     -1.616624     -0.224282
  C       1.459809     -1.762491     -3.008596
  H       4.524754      0.621376     -1.816374
  H       3.803667      0.552255     -3.456780
  H       4.642786     -0.883205     -2.781922
  H       1.937235     -2.106623      0.276287
  H       3.290483     -0.982451      0.545568
  H       3.489097     -2.449335     -0.509876
  H       0.726452     -2.413201     -2.497069
  H       2.201172     -2.423626     -3.504618
  H       0.938055     -1.186951     -3.800940
  H      -0.778511      0.390326     -1.507289
  C       1.393536      1.018886     -1.482447
  C      -0.093377      1.170974     -1.101751
  H       1.580286      1.542534     -2.449808
  H       2.012661      1.576621     -0.744420
  Si     -0.864432      2.844259     -1.631279
  H      -0.247366      1.085345     -0.003062
  C       0.183470      4.292441     -0.979983
  C      -2.629705      2.996572     -0.951481
  C      -0.917144      2.926348     -3.530087
  H       0.213512      4.309045      0.129840
  H      -0.243857      5.264182     -1.304294
  H       1.226604      4.243266     -1.355059
  H      -2.635600      3.005087      0.158152
  H      -3.270323      2.154056     -1.286411
  H      -3.106156      3.937354     -1.299076
  H       0.091020      2.803502     -3.977205
  H      -1.317824      3.902263     -3.875374
  H      -1.568517      2.129114     -3.945418
69
Coordinates from ORCA-job my_molecule E -2464.455068405136
  Pt     -0.150733     -1.343159      1.108126
  O       0.250739     -0.051991      2.536159
  O      -2.445984     -2.253596      1.308030
  P       1.462056      1.025985      2.647317
  P      -2.055733     -3.122766      0.086209
  O      -1.945324     -4.713183      0.461751
  O      -0.600986     -2.601848     -0.385756
  O       0.730477      2.440503      2.181933
  O       2.724332      0.768491      1.857713
  C       1.687634      1.227892      4.472235
  C      -3.196779     -3.152227     -1.358271
  C      -2.587877     -4.060337     -2.447561
  C      -3.350107     -1.712730     -1.890912
  C      -4.553457     -3.694752     -0.860882
  C       0.343632      1.562771      5.141889
  C       2.257653     -0.103740      5.001325
  C       2.706925      2.367184      4.673186
  H      -1.584420     -4.813248      1.366569
  H       1.186388      2.735307      1.367480
  H      -1.638292     -3.634043     -2.827749
  H      -3.296538     -4.124696     -3.299919
  H      -2.398346     -5.086062     -2.076461
  H      -2.400551     -1.315229     -2.306724
  H      -3.710935     -1.015446     -1.108348
  H      -4.096747     -1.719736     -2.712336
  H      -4.462216     -4.730619     -0.479787
  H      -5.277159     -3.696146     -1.702323
  H      -4.967921     -3.060705     -0.051373
  H      -0.394655      0.751215      4.992661
  H      -0.087344      2.499405      4.735803
  H       0.497653      1.699588      6.233314
  H       1.535795     -0.934144      4.867941
  H       2.478675     -0.010463      6.085393
  H       3.196842     -0.372183      4.477407
  H       2.316420      3.328937      4.284988
  H       3.661436      2.146116      4.155415
  H       2.917569      2.491924      5.756164
  Si      2.342071     -0.620729     -1.771002
  C       3.981351     -0.035874     -2.543185
  C       2.811864     -1.616895     -0.232370
  C       1.457362     -1.761799     -3.013158
  H       4.531090      0.617800     -1.833724
  H       3.805153      0.546171     -3.471839
  H       4.643354     -0.889241     -2.795909
  H       1.934253     -2.101020      0.263477
  H       3.291869     -0.983224      0.538364
  H       3.489754     -2.451744     -0.514765
  H       0.722753     -2.408762     -2.498588
  H       2.195722     -2.426639     -3.508733
  H       0.936342     -1.186427     -3.806102
  H      -0.771243      0.390954     -1.508638
  C       1.400510      1.020064     -1.488715
  C      -0.085415      1.171893     -1.104670
  H       1.585391      1.544215     -2.456150
  H       2.021559      1.576629     -0.751413
  Si     -0.860225      2.844850     -1.629075
  H      -0.237743      1.085156     -0.005789
  C       0.185550      4.293659     -0.975897
  C      -2.624314      2.990328     -0.944864
  C      -0.917120      2.931554     -3.527452
  H       0.213852      4.310111      0.134016
  H      -0.241890      5.265186     -1.300692
  H       1.229249      4.245252     -1.349535
  H      -2.627492      2.995588      0.164796
  H      -3.263044      2.146733     -1.280678
  H      -3.104550      3.930600     -1.288561
  H       0.090661      2.814835     -3.977055
  H      -1.323360      3.906365     -3.869335
  H      -1.565435      2.132142     -3.943364
69
Coordinates from ORCA-job my_molecule E -2464.455303132243
  Pt     -0.160042     -1.336889      1.112858
  O       0.237160     -0.048147      2.542903
  O      -2.448144     -2.261253      1.312539
  P       1.453286      1.025402      2.651038
  P      -2.053998     -3.126173      0.088794
  O      -1.941376     -4.717355      0.459733
  O      -0.599527     -2.600753     -0.379177
  O       0.727775      2.441835      2.182222
  O       2.713210      0.759012      1.860484
  C       1.681210      1.230479      4.475222
  C      -3.194070     -3.153198     -1.356611
  C      -2.586805     -4.062151     -2.446069
  C      -3.344212     -1.713229     -1.888978
  C      -4.551917     -3.692983     -0.859507
  C       0.339325      1.572912      5.145293
  C       2.245648     -0.102550      5.006807
  C       2.705783      2.365647      4.672658
  H      -1.578787     -4.819905      1.363588
  H       1.184783      2.732343      1.366809
  H      -1.636753     -3.637249     -2.827035
  H      -3.296030     -4.125684     -3.298015
  H      -2.398543     -5.088090     -2.074994
  H      -2.394224     -1.319605     -2.307068
  H      -3.700892     -1.014612     -1.105717
  H      -4.092799     -1.717859     -2.708620
  H      -4.462847     -4.729023     -0.478358
  H      -5.275382     -3.693107     -1.701153
  H      -4.965289     -3.058098     -0.050132
  H      -0.402830      0.764413      4.998579
  H      -0.087826      2.510712      4.737839
  H       0.495025      1.711220      6.236293
  H       1.520002     -0.930003      4.875716
  H       2.467814     -0.007835      6.090511
  H       3.183240     -0.376247      4.482785
  H       2.319241      3.328313      4.282764
  H       3.658839      2.139209      4.154512
  H       2.917993      2.491787      5.755163
  Si      2.346627     -0.621022     -1.779754
  C       3.984457     -0.039903     -2.557910
  C       2.814437     -1.616758     -0.240620
  C       1.455141     -1.761617     -3.017661
  H       4.537594      0.614567     -1.851841
  H       3.806831      0.539984     -3.487647
  H       4.644235     -0.895131     -2.810299
  H       1.932015     -2.095291      0.250724
  H       3.293609     -0.983495      0.530973
  H       3.490924     -2.453588     -0.519915
  H       0.719410     -2.405001     -2.499501
  H       2.190505     -2.430150     -3.512738
  H       0.934470     -1.186835     -3.811258
  H      -0.763186      0.391043     -1.510748
  C       1.407473      1.021337     -1.495834
  C      -0.077366      1.172509     -1.108019
  H       1.590049      1.545662     -2.463594
  H       2.030489      1.577124     -0.759577
  Si     -0.856572      2.845054     -1.626575
  H      -0.227980      1.084504     -0.008707
  C       0.186748      4.294623     -0.971333
  C      -2.619263      2.982624     -0.937322
  C      -0.918254      2.937070     -3.524437
  H       0.213457      4.310781      0.138595
  H      -0.241114      5.265873     -1.296395
  H       1.230976      4.247360     -1.343677
  H      -2.619275      2.984083      0.172354
  H      -3.255837      2.137816     -1.274176
  H      -3.103835      3.922306     -1.276458
  H       0.089025      2.827085     -3.976846
  H      -1.330546      3.910704     -3.862397
  H      -1.563284      2.135393     -3.941080
69
Coordinates from ORCA-job my_molecule E -2464.455552413219
  Pt     -0.168661     -1.331732      1.118730
  O       0.223776     -0.044076      2.550757
  O      -2.450243     -2.272388      1.317576
  P       1.444597      1.025364      2.655286
  P      -2.052201     -3.131837      0.091172
  O      -1.937590     -4.724188      0.455842
  O      -0.597900     -2.601700     -0.372362
  O       0.724679      2.443415      2.183082
  O       2.701871      0.750298      1.863370
  C       1.675454      1.233764      4.478629
  C      -3.191366     -3.154679     -1.355198
  C      -2.586300     -4.063117     -2.446196
  C      -3.338192     -1.713481     -1.885394
  C      -4.550241     -3.692385     -0.858697
  C       0.335849      1.583459      5.149511
  C       2.234780     -0.100502      5.012556
  C       2.705104      2.364996      4.672213
  H      -1.573067     -4.830209      1.358509
  H       1.182507      2.729786      1.366549
  H      -1.635859     -3.639355     -2.827236
  H      -3.296093     -4.124206     -3.297844
  H      -2.399672     -5.089913     -2.076758
  H      -2.387676     -1.323310     -2.305696
  H      -3.690122     -1.014434     -1.100387
  H      -4.089037     -1.714497     -2.702952
  H      -4.463252     -4.729142     -0.478993
  H      -5.273748     -3.689995     -1.700302
  H      -4.962186     -3.057798     -0.048398
  H      -0.410002      0.777866      5.005534
  H      -0.087819      2.522289      4.740770
  H       0.493524      1.723341      6.240028
  H       1.505531     -0.925163      4.883914
  H       2.458343     -0.004343      6.095840
  H       3.170680     -0.379186      4.488175
  H       2.322169      3.328482      4.280790
  H       3.656548      2.133425      4.153355
  H       2.919275      2.492542      5.754163
  Si      2.350481     -0.621228     -1.788365
  C       3.987399     -0.044760     -2.571905
  C       2.815465     -1.616514     -0.248221
  C       1.452150     -1.761091     -3.022018
  H       4.543797      0.610386     -1.869042
  H       3.808946      0.532929     -3.502856
  H       4.644772     -0.902093     -2.823546
  H       1.928347     -2.089383      0.239590
  H       3.294488     -0.983836      0.523909
  H       3.489859     -2.455799     -0.524701
  H       0.715844     -2.401262     -2.500256
  H       2.184441     -2.432930     -3.517200
  H       0.931252     -1.186814     -3.815832
  H      -0.755568      0.391119     -1.512516
  C       1.414293      1.022946     -1.502948
  C      -0.069623      1.173345     -1.111380
  H       1.594580      1.547368     -2.471065
  H       2.039218      1.578048     -0.767752
  Si     -0.852956      2.845394     -1.624616
  H      -0.218275      1.084203     -0.011738
  C       0.187743      4.295686     -0.966983
  C      -2.614553      2.975528     -0.931297
  C      -0.918398      2.942654     -3.521988
  H       0.212483      4.311662      0.143006
  H      -0.240398      5.266637     -1.292573
  H       1.232622      4.249488     -1.337672
  H      -2.612021      2.973270      0.178372
  H      -3.249014      2.129679     -1.269517
  H      -3.102990      3.914705     -1.266204
  H       0.088540      2.838990     -3.976634
  H      -1.336119      3.915251     -3.856247
  H      -1.560265      2.139033     -3.939744
69
Coordinates from ORCA-job my_molecule E -2464.455811089814
  Pt     -0.176525     -1.326852      1.123915
  O       0.210611     -0.040734      2.557471
  O      -2.451470     -2.279748      1.322031
  P       1.435845      1.024814      2.658886
  P      -2.049869     -3.135306      0.094045
  O      -1.934368     -4.728532      0.454052
  O      -0.595214     -2.602007     -0.365052
  O       0.721486      2.444433      2.183491
  O       2.690692      0.741505      1.865826
  C       1.669023      1.236185      4.481522
  C      -3.187813     -3.154787     -1.353477
  C      -2.585413     -4.064914     -2.444456
  C      -3.329784     -1.713082     -1.883686
  C      -4.548468     -3.688116     -0.857168
  C       0.331452      1.592887      5.152797
  C       2.223161     -0.099286      5.017862
  C       2.703498      2.363570      4.671801
  H      -1.568338     -4.837335      1.355765
  H       1.179972      2.726886      1.365919
  H      -1.634374     -3.643339     -2.826803
  H      -3.296101     -4.125047     -3.295428
  H      -2.400638     -5.091906     -2.074712
  H      -2.378435     -1.328284     -2.306607
  H      -3.676332     -1.012070     -1.098051
  H      -4.082767     -1.710869     -2.699243
  H      -4.464821     -4.725076     -0.477240
  H      -5.271728     -3.683787     -1.698980
  H      -4.958575     -3.052097     -0.047096
  H      -0.417958      0.790175      5.011152
  H      -0.088662      2.532768      4.742788
  H       0.490729      1.734125      6.242909
  H       1.490419     -0.921174      4.891404
  H       2.447777     -0.001717      6.100799
  H       3.157546     -0.382897      4.493452
  H       2.324204      3.327849      4.278786
  H       3.653559      2.127077      4.152615
  H       2.919137      2.492435      5.753299
  Si      2.354943     -0.621358     -1.797656
  C       3.990750     -0.049533     -2.586878
  C       2.817265     -1.615663     -0.256053
  C       1.449618     -1.761188     -3.026342
  H       4.550442      0.606545     -1.887524
  H       3.811279      0.525612     -3.519207
  H       4.645747     -0.908997     -2.837579
  H       1.925831     -2.083109      0.228408
  H       3.295991     -0.983427      0.516629
  H       3.489775     -2.457245     -0.529639
  H       0.712825     -2.398202     -2.500454
  H       2.178823     -2.436404     -3.521506
  H       0.928179     -1.187853     -3.820485
  H      -0.746933      0.390484     -1.515273
  C       1.421302      1.024579     -1.510968
  C      -0.061604      1.173658     -1.115262
  H       1.598928      1.548919     -2.479609
  H       2.048098      1.579256     -0.777002
  Si     -0.849875      2.845108     -1.622221
  H      -0.208302      1.083019     -0.015086
  C       0.187796      4.296315     -0.962042
  C      -2.610043      2.966424     -0.923897
  C      -0.919999      2.948411     -3.518991
  H       0.210698      4.311909      0.147949
  H      -0.241000      5.266886     -1.287901
  H       1.233291      4.251640     -1.331222
  H      -2.604290      2.959793      0.185744
  H      -3.242052      2.119334     -1.263599
  H      -3.103110      3.904960     -1.253716
  H       0.086411      2.851773     -3.976341
  H      -1.343762      3.919871     -3.848917
  H      -1.558478      2.142738     -3.937956
69
Coordinates from ORCA-job my_molecule E -2464.456004323943
  Pt     -0.186566     -1.319186      1.129937
  O       0.196649     -0.035462      2.566256
  O      -2.458610     -2.286729      1.325112
  P       1.427430      1.025035      2.664072
  P      -2.050230     -3.138162      0.096582
  O      -1.930864     -4.731823      0.452974
  O      -0.595856     -2.599636     -0.357237
  O       0.719737      2.446728      2.185140
  O       2.679169      0.732156      1.869518
  C       1.663580      1.239640      4.485853
  C      -3.185533     -3.157190     -1.353308
  C      -2.583074     -4.066654     -2.444580
  C      -3.326399     -1.714802     -1.882250
  C      -4.546485     -3.690863     -0.858229
  C       0.328189      1.602829      5.157989
  C       2.213315     -0.096769      5.024433
  C       2.702496      2.363580      4.672360
  H      -1.564905     -4.842058      1.354533
  H       1.178708      2.723977      1.365890
  H      -1.631728     -3.645359     -2.825575
  H      -3.292844     -4.125273     -3.296430
  H      -2.399409     -5.094184     -2.075830
  H      -2.374899     -1.330054     -2.305849
  H      -3.671549     -1.014632     -1.095234
  H      -4.080396     -1.710689     -2.696849
  H      -4.462984     -4.727981     -0.478639
  H      -5.269059     -3.686441     -1.700638
  H      -4.957232     -3.055239     -0.048201
  H      -0.424436      0.802639      5.019106
  H      -0.088990      2.543475      4.746723
  H       0.489463      1.745685      6.247598
  H       1.477315     -0.916146      4.900667
  H       2.439590      0.002390      6.106877
  H       3.145958     -0.385010      4.499476
  H       2.326310      3.328469      4.277857
  H       3.651054      2.122522      4.152506
  H       2.920001      2.493886      5.753305
  Si      2.358535     -0.622142     -1.806492
  C       3.992514     -0.054548     -2.602502
  C       2.819756     -1.615794     -0.264737
  C       1.446055     -1.760947     -3.030592
  H       4.556303      0.601763     -1.906686
  H       3.811219      0.518855     -3.535550
  H       4.644720     -0.916059     -2.853579
  H       1.924461     -2.077876      0.215594
  H       3.298012     -0.983956      0.508513
  H       3.490892     -2.459056     -0.536147
  H       0.708691     -2.394003     -2.501424
  H       2.172063     -2.439769     -3.525562
  H       0.924755     -1.188131     -3.825206
  H      -0.740547      0.390782     -1.517482
  C       1.427707      1.025506     -1.517378
  C      -0.054402      1.174120     -1.118816
  H       1.603845      1.550455     -2.486070
  H       2.056138      1.578980     -0.783989
  Si     -0.845619      2.845635     -1.620129
  H      -0.199707      1.081974     -0.018765
  C       0.190976      4.296690     -0.958006
  C      -2.604030      2.960814     -0.916468
  C      -0.920440      2.954276     -3.516327
  H       0.212101      4.312106      0.152207
  H      -0.237443      5.267293     -1.284275
  H       1.236990      4.252313     -1.325800
  H      -2.594703      2.950551      0.193129
  H      -3.234699      2.113014     -1.256903
  H      -3.100717      3.899035     -1.241659
  H       0.085223      2.862868     -3.976386
  H      -1.348673      3.925118     -3.842282
  H      -1.556892      2.147461     -3.936145
69
Coordinates from ORCA-job my_molecule E -2464.456407240835
  Pt     -0.194429     -1.314928      1.138769
  O       0.180444     -0.032225      2.575561
  O      -2.459792     -2.298058      1.331758
  P       1.415823      1.024450      2.668431
  P      -2.046628     -3.144042      0.101273
  O      -1.928320     -4.739351      0.450124
  O      -0.590248     -2.603029     -0.345594
  O       0.713430      2.447110      2.186184
  O       2.663815      0.721715      1.871616
  C       1.656065      1.243087      4.489101
  C      -3.178905     -3.155843     -1.351047
  C      -2.581041     -4.069868     -2.441050
  C      -3.308687     -1.712958     -1.881379
  C      -4.544632     -3.678797     -0.857556
  C       0.323968      1.616744      5.162141
  C       2.198004     -0.095209      5.030925
  C       2.702335      2.360977      4.670647
  H      -1.560476     -4.854523      1.350278
  H       1.172401      2.720343      1.365864
  H      -1.628659     -3.652767     -2.826006
  H      -3.293066     -4.128697     -3.290991
  H      -2.400021     -5.097006     -2.070020
  H      -2.354824     -1.340910     -2.308638
  H      -3.643782     -1.007177     -1.095059
  H      -4.064978     -1.703272     -2.693755
  H      -4.469576     -4.716327     -0.477368
  H      -5.265913     -3.669445     -1.701026
  H      -4.951576     -3.039680     -0.048400
  H      -0.434030      0.821047      5.026664
  H      -0.087835      2.559021      4.749174
  H       0.487872      1.761398      6.251120
  H       1.456793     -0.910321      4.910196
  H       2.425847      0.005708      6.112868
  H       3.128310     -0.390713      4.505907
  H       2.331618      3.327138      4.274103
  H       3.648589      2.112585      4.150021
  H       2.922393      2.492909      5.750874
  Si      2.363106     -0.621678     -1.819150
  C       3.996888     -0.062370     -2.621259
  C       2.818918     -1.613507     -0.274100
  C       1.441224     -1.761271     -3.035958
  H       4.564460      0.595471     -1.929984
  H       3.815668      0.506906     -3.556857
  H       4.645784     -0.927258     -2.869465
  H       1.918383     -2.068334      0.203996
  H       3.298420     -0.982241      0.498800
  H       3.486066     -2.460886     -0.541771
  H       0.704131     -2.391047     -2.500166
  H       2.162946     -2.444247     -3.531501
  H       0.917804     -1.190276     -3.830490
  H      -0.726608      0.388549     -1.521678
  C       1.436956      1.028848     -1.530347
  C      -0.042972      1.174388     -1.124460
  H       1.607726      1.552759     -2.500336
  H       2.068461      1.583055     -0.799897
  Si     -0.843219      2.844198     -1.616350
  H      -0.183520      1.079857     -0.023114
  C       0.186559      4.297501     -0.948776
  C      -2.600448      2.944006     -0.907725
  C      -0.922714      2.962935     -3.511591
  H       0.204699      4.312123      0.161070
  H      -0.243980      5.267109     -1.275216
  H       1.233662      4.256935     -1.313941
  H      -2.587831      2.926287      0.201743
  H      -3.226287      2.094200     -1.252043
  H      -3.104286      3.881034     -1.225171
  H       0.082700      2.882628     -3.974253
  H      -1.359738      3.932034     -3.831003
  H      -1.553248      2.153206     -3.934716
69
Coordinates from ORCA-job my_molecule E -2464.456436963214
  Pt     -0.202854     -1.310791      1.146960
  O       0.175855     -0.029372      2.576939
  O      -2.486679     -2.293233      1.332772
  P       1.414494      1.026116      2.670357
  P      -2.060283     -3.139227      0.109425
  O      -1.935366     -4.732952      0.462608
  O      -0.602510     -2.594534     -0.332337
  O       0.711331      2.448401      2.189571
  O       2.661784      0.723889      1.873135
  C       1.655694      1.238460      4.491420
  C      -3.182403     -3.159178     -1.347589
  C      -2.577667     -4.076522     -2.430175
  C      -3.310797     -1.717447     -1.882145
  C      -4.548632     -3.683971     -0.858507
  C       0.321509      1.597751      5.168635
  C       2.210271     -0.098232      5.025715
  C       2.693179      2.364070      4.676229
  H      -1.575938     -4.843685      1.364781
  H       1.171061      2.721393      1.369070
  H      -1.624242     -3.658850     -2.815086
  H      -3.284947     -4.140861     -3.281964
  H      -2.396663     -5.101814     -2.051670
  H      -2.358179     -1.341075     -2.304558
  H      -3.651249     -1.013833     -1.098634
  H      -4.062775     -1.709971     -2.695973
  H      -4.474075     -4.718741     -0.469943
  H      -5.262461     -3.683072     -1.705676
  H      -4.962536     -3.040668     -0.058252
  H      -0.430239      0.796338      5.031406
  H      -0.099383      2.538476      4.760729
  H       0.486703      1.738428      6.257803
  H       1.475897     -0.919265      4.902432
  H       2.439546     -0.001135      6.107609
  H       3.142289     -0.382863      4.497294
  H       2.313369      3.329363      4.285197
  H       3.640865      2.126264      4.152607
  H       2.914270      2.491812      5.756725
  Si      2.363961     -0.617664     -1.821520
  C       3.994188     -0.058089     -2.634634
  C       2.827486     -1.610298     -0.279694
  C       1.435235     -1.757659     -3.033847
  H       4.566056      0.600497     -1.946931
  H       3.806666      0.510660     -3.569669
  H       4.642502     -0.922447     -2.886725
  H       1.927065     -2.064717      0.197593
  H       3.304915     -0.978393      0.493811
  H       3.500222     -2.452877     -0.549085
  H       0.697194     -2.385043     -2.495069
  H       2.154499     -2.443725     -3.529616
  H       0.911748     -1.186812     -3.828016
  H      -0.722833      0.391598     -1.524793
  C       1.439469      1.031956     -1.528209
  C      -0.040693      1.177366     -1.124438
  H       1.609468      1.558557     -2.495996
  H       2.070018      1.584990     -0.797419
  Si     -0.838023      2.846925     -1.620099
  H      -0.182930      1.082911     -0.023094
  C       0.190531      4.299646     -0.948999
  C      -2.597777      2.949898     -0.919446
  C      -0.908690      2.963238     -3.515786
  H       0.206542      4.313912      0.161170
  H      -0.239321      5.269176     -1.276135
  H       1.238486      4.259256     -1.311780
  H      -2.589534      2.934294      0.189956
  H      -3.223414      2.100609     -1.264862
  H      -3.098900      3.886514     -1.240740
  H       0.099100      2.883290     -3.973383
  H      -1.345211      3.931298     -3.838552
  H      -1.536262      2.151669     -3.940903
69
Coordinates from ORCA-job my_molecule E -2464.456632457046
  Pt     -0.193980     -1.307124      1.133639
  O       0.173258     -0.032846      2.573159
  O      -2.476813     -2.299897      1.337196
  P       1.410516      1.022612      2.668789
  P      -2.054602     -3.141811      0.107853
  O      -1.931894     -4.737984      0.453096
  O      -0.597669     -2.599744     -0.336637
  O       0.710047      2.445266      2.184857
  O       2.658765      0.716561      1.874546
  C       1.645521      1.243233      4.489672
  C      -3.183993     -3.152796     -1.345982
  C      -2.586629     -4.069737     -2.435937
  C      -3.311096     -1.708074     -1.875336
  C      -4.550488     -3.673204     -0.851737
  C       0.302353      1.584514      5.161084
  C       2.221186     -0.084025      5.031434
  C       2.664002      2.389972      4.671719
  H      -1.564835     -4.854528      1.354029
  H       1.173913      2.718721      1.367141
  H      -1.632610     -3.654984     -2.822429
  H      -3.298027     -4.127884     -3.286506
  H      -2.407694     -5.097515     -2.062329
  H      -2.357794     -1.336761     -2.302572
  H      -3.644324     -1.003421     -1.086014
  H      -4.069028     -1.694086     -2.686801
  H      -4.476642     -4.711244     -0.469200
  H      -5.271131     -3.664016     -1.696463
  H      -4.957125     -3.031601     -0.042754
  H      -0.437238      0.768864      5.025770
  H      -0.133812      2.518149      4.747049
  H       0.463289      1.733354      6.250015
  H       1.500317     -0.919128      4.908702
  H       2.445100      0.021109      6.113597
  H       3.160992     -0.354723      4.508078
  H       2.266820      3.348399      4.275274
  H       3.618081      2.167256      4.151416
  H       2.880979      2.526163      5.751895
  Si      2.374658     -0.632457     -1.826116
  C       4.000469     -0.073775     -2.645608
  C       2.839859     -1.623300     -0.285670
  C       1.435255     -1.764099     -3.039625
  H       4.577333      0.584541     -1.961645
  H       3.812687      0.492747     -3.581784
  H       4.645327     -0.941246     -2.897546
  H       1.935492     -2.074237      0.188137
  H       3.314235     -0.989570      0.487897
  H       3.513480     -2.465393     -0.552620
  H       0.694877     -2.389002     -2.500088
  H       2.149890     -2.452859     -3.539211
  H       0.912198     -1.188429     -3.831283
  H      -0.710667      0.390292     -1.533632
  C       1.446673      1.026541     -1.526067
  C      -0.032350      1.176612     -1.127984
  H       1.620119      1.546383     -2.492415
  H       2.080219      1.575251     -0.795911
  Si     -0.831847      2.846961     -1.614805
  H      -0.175979      1.079751     -0.027098
  C       0.195504      4.298542     -0.943693
  C      -2.584631      2.938264     -0.901144
  C      -0.914495      2.973272     -3.506887
  H       0.209829      4.311397      0.165915
  H      -0.233909      5.268286     -1.270465
  H       1.243446      4.258125     -1.305231
  H      -2.567700      2.915562      0.206501
  H      -3.207396      2.087110     -1.245254
  H      -3.092205      3.874632     -1.212711
  H       0.089539      2.900686     -3.971068
  H      -1.357302      3.941364     -3.821818
  H      -1.540323      2.161010     -3.930380
69
Coordinates from ORCA-job my_molecule E -2464.456715330442
  Pt     -0.184213     -1.310875      1.120305
  O       0.172430     -0.034281      2.566936
  O      -2.446682     -2.305019      1.339379
  P       1.406945      1.021076      2.663932
  P      -2.039034     -3.146209      0.102179
  O      -1.922087     -4.743238      0.442958
  O      -0.584461     -2.608721     -0.351980
  O       0.708940      2.445199      2.178910
  O       2.657149      0.713790      1.871449
  C       1.640097      1.244999      4.484266
  C      -3.182969     -3.147988     -1.341564
  C      -2.594834     -4.060383     -2.439918
  C      -3.310855     -1.701185     -1.863146
  C      -4.546940     -3.668050     -0.839316
  C       0.296215      1.590300      5.152242
  C       2.212013     -0.082473      5.029314
  C       2.660902      2.389886      4.665224
  H      -1.553722     -4.862335      1.340168
  H       1.174022      2.719334      1.362344
  H      -1.641982     -3.646147     -2.830720
  H      -3.312576     -4.113168     -3.285573
  H      -2.415011     -5.090035     -2.073418
  H      -2.358722     -1.330495     -2.289194
  H      -3.642275     -0.999261     -1.073292
  H      -4.066544     -1.684623     -2.673631
  H      -4.472305     -4.704647     -0.458019
  H      -5.271221     -3.659065     -1.678024
  H      -4.948738     -3.027738     -0.030424
  H      -0.444696      0.776074      5.016265
  H      -0.136972      2.524241      4.735852
  H       0.454856      1.740487      6.241137
  H       1.489608     -0.916071      4.905962
  H       2.433678      0.023805      6.111730
  H       3.152523     -0.355974      4.508428
  H       2.266329      3.348242      4.265908
  H       3.615183      2.163773      4.146427
  H       2.877052      2.528342      5.745233
  Si      2.377686     -0.636766     -1.825767
  C       4.007959     -0.078492     -2.634128
  C       2.835928     -1.628790     -0.283776
  C       1.440839     -1.763599     -3.045484
  H       4.581855      0.577785     -1.945701
  H       3.827319      0.489614     -3.570737
  H       4.652610     -0.947150     -2.882697
  H       1.930246     -2.079181      0.189260
  H       3.310611     -0.995334      0.489874
  H       3.506114     -2.474386     -0.548656
  H       0.699884     -2.391069     -2.508960
  H       2.156213     -2.449780     -3.547626
  H       0.918073     -1.184819     -3.835315
  H      -0.708010      0.388270     -1.536192
  C       1.448248      1.024459     -1.527182
  C      -0.030759      1.175181     -1.129788
  H       1.622095      1.540474     -2.494525
  H       2.082572      1.573184     -0.799025
  Si     -0.833170      2.845486     -1.612993
  H      -0.174318      1.077349     -0.028003
  C       0.193072      4.298253     -0.942503
  C      -2.584197      2.930675     -0.894548
  C      -0.920359      2.975800     -3.504064
  H       0.207554      4.311395      0.166866
  H      -0.237036      5.267598     -1.269609
  H       1.241123      4.258361     -1.304216
  H      -2.564708      2.904633      0.212736
  H      -3.205658      2.078648     -1.239682
  H      -3.094345      3.866787     -1.201605
  H       0.082887      2.906749     -3.970904
  H      -1.365699      3.944018     -3.814706
  H      -1.545730      2.163086     -3.928671
69
Coordinates from ORCA-job my_molecule E -2464.457233696759
  Pt     -0.184828     -1.308851      1.119975
  O       0.158640     -0.031462      2.569739
  O      -2.439677     -2.318755      1.344702
  P       1.395328      1.021930      2.664313
  P      -2.033039     -3.153529      0.102444
  O      -1.911777     -4.752077      0.434538
  O      -0.580580     -2.610833     -0.353194
  O       0.703140      2.446740      2.173046
  O       2.644234      0.706311      1.872852
  C       1.630309      1.250942      4.483715
  C      -3.182770     -3.149050     -1.337010
  C      -2.598515     -4.052781     -2.443413
  C      -3.314674     -1.699294     -1.846322
  C      -4.543515     -3.675427     -0.833708
  C       0.290277      1.606842      5.152574
  C       2.193853     -0.077723      5.031227
  C       2.660268      2.386543      4.661086
  H      -1.535955     -4.875478      1.329240
  H       1.172761      2.719481      1.358759
  H      -1.646840     -3.637381     -2.833331
  H      -3.318763     -4.099533     -3.287391
  H      -2.418051     -5.084439     -2.085770
  H      -2.364341     -1.326752     -2.273261
  H      -3.641609     -1.003453     -1.049684
  H      -4.074101     -1.676854     -2.653183
  H      -4.464791     -4.714680     -0.461717
  H      -5.271539     -3.660976     -1.669482
  H      -4.943077     -3.043100     -0.017885
  H      -0.456145      0.799090      5.018458
  H      -0.135165      2.542453      4.735746
  H       0.450714      1.757510      6.241077
  H       1.466223     -0.905912      4.909946
  H       2.416576      0.029619      6.113411
  H       3.131586     -0.358653      4.510147
  H       2.274969      3.345907      4.259758
  H       3.611461      2.150111      4.142635
  H       2.878223      2.526316      5.740620
  Si      2.383042     -0.635938     -1.833675
  C       4.015430     -0.084241     -2.640548
  C       2.834322     -1.630339     -0.289471
  C       1.439372     -1.759443     -3.051192
  H       4.589001      0.572485     -1.953533
  H       3.838498      0.480795     -3.579147
  H       4.658130     -0.955185     -2.884436
  H       1.926356     -2.078462      0.181755
  H       3.309859     -0.997558      0.484161
  H       3.500057     -2.479212     -0.553029
  H       0.696698     -2.384053     -2.513001
  H       2.150946     -2.448915     -3.553676
  H       0.917515     -1.179530     -3.840718
  H      -0.693775      0.384584     -1.552269
  C       1.460089      1.026354     -1.533255
  C      -0.021761      1.172600     -1.137416
  H       1.639206      1.549553     -2.501934
  H       2.094536      1.571545     -0.797730
  Si     -0.828526      2.843560     -1.611734
  H      -0.168371      1.070560     -0.033843
  C       0.196762      4.296256     -0.938554
  C      -2.577578      2.919805     -0.886798
  C      -0.921515      2.983927     -3.501772
  H       0.208886      4.310858      0.170653
  H      -0.232266      5.265359     -1.267946
  H       1.245810      4.255746     -1.297978
  H      -2.554579      2.887623      0.220986
  H      -3.197321      2.067161     -1.234835
  H      -3.092093      3.855970     -1.186698
  H       0.081222      2.923222     -3.972060
  H      -1.372619      3.951725     -3.804727
  H      -1.544145      2.170386     -3.930237
69
Coordinates from ORCA-job my_molecule E -2464.457577063294
  Pt     -0.187691     -1.307133      1.124350
  O       0.147079     -0.030267      2.575293
  O      -2.441712     -2.326911      1.350168
  P       1.386317      1.022077      2.666332
  P      -2.032276     -3.157170      0.106477
  O      -1.907914     -4.756541      0.432795
  O      -0.580617     -2.610241     -0.347371
  O       0.696551      2.446277      2.170917
  O       2.633192      0.700388      1.874273
  C       1.623224      1.253638      4.485064
  C      -3.183068     -3.148397     -1.332162
  C      -2.601573     -4.047403     -2.444251
  C      -3.316003     -1.695833     -1.833596
  C      -4.542923     -3.676945     -0.828676
  C       0.283680      1.608249      5.155254
  C       2.189251     -0.073860      5.033023
  C       2.651903      2.390879      4.659819
  H      -1.539094     -4.881466      1.326135
  H       1.169212      2.718415      1.357959
  H      -1.650049     -3.631602     -2.834306
  H      -3.323556     -4.089328     -3.287539
  H      -2.421365     -5.081201     -2.091998
  H      -2.366058     -1.322832     -2.261571
  H      -3.638991     -1.003433     -1.031718
  H      -4.078252     -1.668089     -2.638085
  H      -4.463500     -4.717267     -0.460675
  H      -5.271996     -3.659813     -1.663276
  H      -4.941345     -3.047600     -0.010363
  H      -0.461639      0.798619      5.023859
  H      -0.144251      2.542539      4.737251
  H       0.445825      1.761319      6.243307
  H       1.462764     -0.903292      4.912996
  H       2.412787      0.034507      6.114915
  H       3.126700     -0.353725      4.511138
  H       2.264270      3.349804      4.258942
  H       3.602616      2.155598      4.139560
  H       2.871986      2.531027      5.738908
  Si      2.389650     -0.634785     -1.841758
  C       4.022205     -0.089942     -2.653201
  C       2.837647     -1.630048     -0.296734
  C       1.437153     -1.755324     -3.055035
  H       4.599308      0.566873     -1.968877
  H       3.845344      0.473212     -3.593026
  H       4.661814     -0.963718     -2.896018
  H       1.926941     -2.075061      0.172426
  H       3.313417     -0.997443      0.476891
  H       3.501974     -2.480550     -0.558898
  H       0.692881     -2.375794     -2.514005
  H       2.144127     -2.448881     -3.558207
  H       0.915999     -1.174356     -3.844149
  H      -0.677064      0.381261     -1.565217
  C       1.471756      1.028562     -1.538391
  C      -0.010918      1.170478     -1.143661
  H       1.649040      1.551191     -2.505045
  H       2.105312      1.572166     -0.804057
  Si     -0.823077      2.840824     -1.611501
  H      -0.159454      1.063728     -0.040899
  C       0.197963      4.294988     -0.933063
  C      -2.572458      2.907470     -0.885010
  C      -0.916525      2.989091     -3.500994
  H       0.206565      4.309407      0.176308
  H      -0.231648      5.263673     -1.263384
  H       1.248446      4.256479     -1.289508
  H      -2.548437      2.871002      0.222723
  H      -3.188917      2.053283     -1.236170
  H      -3.091442      3.842720     -1.180438
  H       0.086418      2.934666     -3.971590
  H      -1.371454      3.956440     -3.799467
  H      -1.536055      2.175401     -3.933193
69
Coordinates from ORCA-job my_molecule E -2464.457832806652
  Pt     -0.193763     -1.304589      1.132625
  O       0.138547     -0.029458      2.581971
  O      -2.456811     -2.336546      1.358724
  P       1.380827      1.022339      2.670204
  P      -2.038831     -3.159784      0.113477
  O      -1.904358     -4.761008      0.432331
  O      -0.587445     -2.605625     -0.337301
  O       0.691961      2.445407      2.172003
  O       2.625598      0.696366      1.877392
  C       1.618869      1.254681      4.488635
  C      -3.185686     -3.150976     -1.328112
  C      -2.601395     -4.046188     -2.440896
  C      -3.320809     -1.697665     -1.825398
  C      -4.545039     -3.684175     -0.828459
  C       0.280466      1.610241      5.160046
  C       2.184920     -0.072620      5.036280
  C       2.648118      2.391299      4.661952
  H      -1.521269     -4.890535      1.326525
  H       1.166666      2.716889      1.359945
  H      -1.649997     -3.628862     -2.829131
  H      -3.321910     -4.087935     -3.285091
  H      -2.420406     -5.079827     -2.090019
  H      -2.372022     -1.318727     -2.247017
  H      -3.649189     -1.011004     -1.024473
  H      -4.077267     -1.669933     -2.631455
  H      -4.463953     -4.722744     -0.459201
  H      -5.270463     -3.671160     -1.664445
  H      -4.948069     -3.056190     -0.013732
  H      -0.465107      0.800993      5.030335
  H      -0.147497      2.544102      4.741934
  H       0.443967      1.764335      6.247701
  H       1.458239     -0.901832      4.917336
  H       2.409476      0.036145      6.117890
  H       3.121452     -0.352963      4.513458
  H       2.260589      3.350270      4.261926
  H       3.597837      2.155537      4.140559
  H       2.869682      2.531123      5.740737
  Si      2.392632     -0.631659     -1.849147
  C       4.024011     -0.092409     -2.667080
  C       2.840669     -1.628232     -0.304370
  C       1.431855     -1.750734     -3.057341
  H       4.604838      0.564335     -1.985857
  H       3.845151      0.469487     -3.607295
  H       4.660942     -0.968024     -2.910447
  H       1.929374     -2.071479      0.163894
  H       3.317251     -0.996122      0.469489
  H       3.504775     -2.478414     -0.567339
  H       0.686675     -2.367278     -2.512878
  H       2.134764     -2.448325     -3.560551
  H       0.910794     -1.169676     -3.846590
  H      -0.666066      0.381532     -1.575735
  C       1.479806      1.032362     -1.542868
  C      -0.003803      1.171225     -1.149038
  H       1.657583      1.558510     -2.508618
  H       2.112847      1.574305     -0.805775
  Si     -0.817394      2.841496     -1.613569
  H      -0.153657      1.061290     -0.046617
  C       0.201949      4.294852     -0.930366
  C      -2.567267      2.904915     -0.888118
  C      -0.908622      2.994993     -3.502992
  H       0.207285      4.308913      0.179137
  H      -0.226572      5.263719     -1.261404
  H       1.253267      4.256582     -1.284040
  H      -2.543445      2.865770      0.219544
  H      -3.182607      2.051122     -1.241507
  H      -3.087169      3.840159     -1.181440
  H       0.095098      2.943859     -3.972243
  H      -1.364974      3.962157     -3.799536
  H      -1.525916      2.181384     -3.938557
69
Coordinates from ORCA-job my_molecule E -2464.458511727394
  Pt     -0.193294     -1.308529      1.134848
  O       0.120527     -0.029762      2.589354
  O      -2.442038     -2.345443      1.360696
  P       1.365322      1.019510      2.672693
  P      -2.030777     -3.165084      0.111712
  O      -1.899845     -4.766565      0.422979
  O      -0.581571     -2.609415     -0.339991
  O       0.681534      2.442204      2.167073
  O       2.607933      0.684661      1.879005
  C       1.607898      1.260010      4.489644
  C      -3.186392     -3.145578     -1.322831
  C      -2.610214     -4.031446     -2.447367
  C      -3.323414     -1.686686     -1.804453
  C      -4.543082     -3.681618     -0.818296
  C       0.271577      1.621547      5.161940
  C       2.172156     -0.066440      5.042225
  C       2.640235      2.395503      4.656127
  H      -1.515255     -4.898939      1.312569
  H       1.160200      2.711437      1.356317
  H      -1.659005     -3.614128     -2.835966
  H      -3.334719     -4.063234     -3.288445
  H      -2.430455     -5.069686     -2.108212
  H      -2.373942     -1.308663     -2.231410
  H      -3.641521     -1.004497     -0.989555
  H      -4.091704     -1.646951     -2.605951
  H      -4.458524     -4.729810     -0.467681
  H      -5.281074     -3.650712     -1.649334
  H      -4.934945     -3.064526      0.017822
  H      -0.476055      0.812884      5.037208
  H      -0.155340      2.554783      4.740218
  H       0.437539      1.780261      6.248724
  H       1.443636     -0.895022      4.927331
  H       2.398263      0.046182      6.123284
  H       3.107679     -0.350571      4.519228
  H       2.253328      3.354362      4.253751
  H       3.588342      2.156109      4.132761
  H       2.865549      2.538564      5.733893
  Si      2.404421     -0.629583     -1.860737
  C       4.041464     -0.101298     -2.673763
  C       2.840400     -1.627544     -0.312084
  C       1.436612     -1.744061     -3.066661
  H       4.623093      0.554161     -1.991864
  H       3.869042      0.459541     -3.615983
  H       4.674597     -0.980901     -2.912200
  H       1.925530     -2.067428      0.153767
  H       3.317888     -0.996901      0.462330
  H       3.499850     -2.482516     -0.571298
  H       0.688048     -2.355726     -2.520700
  H       2.134564     -2.446505     -3.569768
  H       0.918336     -1.161188     -3.856182
  H      -0.638225      0.370392     -1.599897
  C       1.498733      1.035275     -1.553548
  C       0.013051      1.162909     -1.161550
  H       1.677572      1.566943     -2.517269
  H       2.128194      1.575449     -0.811435
  Si     -0.813557      2.831357     -1.613159
  H      -0.139179      1.045310     -0.060099
  C       0.199797      4.287326     -0.927105
  C      -2.559550      2.879221     -0.878486
  C      -0.914555      2.997478     -3.500199
  H       0.201480      4.302608      0.182286
  H      -0.230163      5.254913     -1.260237
  H       1.251901      4.251079     -1.277867
  H      -2.529094      2.832749      0.228168
  H      -3.170680      2.024094     -1.233614
  H      -3.087343      3.813234     -1.162575
  H       0.086320      2.954651     -3.974303
  H      -1.377075      3.964712     -3.787504
  H      -1.530023      2.185535     -3.938379
69
Coordinates from ORCA-job my_molecule E -2464.459285779461
  Pt     -0.194608     -1.304554      1.140060
  O       0.094941     -0.032309      2.601512
  O      -2.434529     -2.361860      1.379891
  P       1.343143      1.014919      2.677883
  P      -2.025965     -3.169459      0.121640
  O      -1.886866     -4.773506      0.416271
  O      -0.580624     -2.606306     -0.333612
  O       0.662977      2.435846      2.164742
  O       2.581197      0.668602      1.881774
  C       1.592011      1.263422      4.492762
  C      -3.190804     -3.138564     -1.305240
  C      -2.621088     -4.009026     -2.443487
  C      -3.333912     -1.674710     -1.767291
  C      -4.542778     -3.685421     -0.800400
  C       0.260231      1.634398      5.167419
  C       2.151519     -0.062143      5.049501
  C       2.629817      2.394089      4.650525
  H      -1.497796     -4.912683      1.300250
  H       1.147106      2.704018      1.357036
  H      -1.670441     -3.590466     -2.830618
  H      -3.349163     -4.028055     -3.282108
  H      -2.442695     -5.051919     -2.119141
  H      -2.386309     -1.290660     -2.194337
  H      -3.647246     -1.004345     -0.942481
  H      -4.105147     -1.626184     -2.563429
  H      -4.455112     -4.729470     -0.450734
  H      -5.275864     -3.660875     -1.627637
  H      -4.939109     -3.073882      0.027484
  H      -0.491154      0.829762      5.048078
  H      -0.162643      2.567220      4.743678
  H       0.429670      1.796819      6.252934
  H       1.419640     -0.887556      4.939680
  H       2.380472      0.054430      6.129518
  H       3.083777     -0.352500      4.525414
  H       2.247091      3.351888      4.244799
  H       3.574360      2.147161      4.125968
  H       2.859097      2.541944      5.726665
  Si      2.422908     -0.627527     -1.879853
  C       4.061335     -0.113795     -2.697732
  C       2.850034     -1.626700     -0.329804
  C       1.437129     -1.730702     -3.080595
  H       4.648545      0.540579     -2.020014
  H       3.892617      0.443019     -3.642685
  H       4.687683     -0.999308     -2.931756
  H       1.930666     -2.060155      0.131648
  H       3.327069     -0.996588      0.444907
  H       3.507220     -2.483922     -0.585613
  H       0.684366     -2.332659     -2.529755
  H       2.124464     -2.442036     -3.585838
  H       0.921768     -1.143224     -3.869016
  H      -0.599233      0.362804     -1.636909
  C       1.524751      1.042633     -1.565178
  C       0.036601      1.157717     -1.181251
  H       1.706905      1.579796     -2.524209
  H       2.150072      1.576698     -0.814943
  Si     -0.804903      2.822845     -1.617220
  H      -0.120048      1.026882     -0.082013
  C       0.193731      4.283269     -0.912627
  C      -2.555637      2.840932     -0.884577
  C      -0.899477      3.010133     -3.504633
  H       0.185480      4.295536      0.197155
  H      -0.239112      5.249745     -1.245963
  H       1.249840      4.255651     -1.255384
  H      -2.526711      2.778903      0.223469
  H      -3.157209      1.982039     -1.254594
  H      -3.094303      3.772522     -1.155364
  H       0.107257      2.988603     -3.974779
  H      -1.374924      3.974642     -3.780531
  H      -1.502082      2.193602     -3.959311
69
Coordinates from ORCA-job my_molecule E -2464.460076699664
  Pt     -0.205875     -1.305907      1.163940
  O       0.063210     -0.031889      2.622929
  O      -2.447009     -2.397075      1.403927
  P       1.318340      1.013169      2.689313
  P      -2.030029     -3.182867      0.135460
  O      -1.871948     -4.791172      0.404252
  O      -0.588950     -2.600337     -0.316933
  O       0.642054      2.430096      2.163115
  O       2.551168      0.653653      1.890829
  C       1.571148      1.266590      4.502718
  C      -3.199021     -3.135558     -1.286637
  C      -2.636576     -3.987032     -2.444216
  C      -3.346620     -1.662766     -1.718473
  C      -4.547419     -3.691760     -0.779663
  C       0.239591      1.636886      5.179530
  C       2.133358     -0.058008      5.060595
  C       2.607023      2.399648      4.656630
  H      -1.478159     -4.941434      1.284200
  H       1.132181      2.692539      1.356026
  H      -1.685870     -3.565130     -2.829302
  H      -3.368745     -3.989851     -3.280287
  H      -2.459243     -5.036500     -2.138482
  H      -2.403610     -1.256805     -2.122638
  H      -3.673412     -1.018843     -0.886701
  H      -4.103203     -1.601937     -2.517882
  H      -4.452136     -4.754835     -0.469387
  H      -5.304065     -3.630419     -1.600089
  H      -4.924944     -3.104548      0.092493
  H      -0.510447      0.829392      5.064607
  H      -0.187449      2.568190      4.754424
  H       0.411449      1.802646      6.264015
  H       1.402639     -0.885073      4.953324
  H       2.363679      0.060439      6.139885
  H       3.065375     -0.348001      4.535102
  H       2.220562      3.357224      4.252063
  H       3.551390      2.154643      4.129616
  H       2.838718      2.548069      5.731923
  Si      2.445698     -0.610746     -1.907238
  C       4.088442     -0.119275     -2.732836
  C       2.860739     -1.613927     -0.354621
  C       1.437167     -1.704602     -3.096977
  H       4.683826      0.532609     -2.059327
  H       3.921245      0.435938     -3.679353
  H       4.706094     -1.011461     -2.965618
  H       1.938449     -2.042625      0.104898
  H       3.340591     -0.986847      0.422599
  H       3.515328     -2.473933     -0.609483
  H       0.680127     -2.294492     -2.538301
  H       2.110268     -2.427653     -3.604016
  H       0.924231     -1.113964     -3.884199
  H      -0.547655      0.348378     -1.681360
  C       1.562075      1.056963     -1.584475
  C       0.069122      1.147104     -1.205379
  H       1.744857      1.612411     -2.536140
  H       2.177069      1.586268     -0.822186
  Si     -0.788464      2.806671     -1.628421
  H      -0.091692      1.000784     -0.108268
  C       0.200578      4.266981     -0.919155
  C      -2.531230      2.812898     -0.890248
  C      -0.891474      3.006101     -3.511030
  H       0.180990      4.282989      0.190193
  H      -0.230174      5.231183     -1.260248
  H       1.257893      4.238237     -1.251392
  H      -2.493105      2.743750      0.213552
  H      -3.128605      1.956986     -1.259241
  H      -3.075661      3.743182     -1.153059
  H       0.106780      2.981619     -3.982700
  H      -1.363491      3.972403     -3.782602
  H      -1.497172      2.200633     -3.963600
69
Coordinates from ORCA-job my_molecule E -2464.460879724785
  Pt     -0.222139     -1.303801      1.190865
  O       0.015852     -0.039360      2.658833
  O      -2.462614     -2.410425      1.430408
  P       1.279599      1.001721      2.707787
  P      -2.042287     -3.177560      0.155645
  O      -1.877434     -4.788113      0.398654
  O      -0.602999     -2.584448     -0.292598
  O       0.602528      2.410933      2.168959
  O       2.501050      0.623216      1.899781
  C       1.553071      1.271757      4.516623
  C      -3.212257     -3.112647     -1.261867
  C      -2.652378     -3.941696     -2.433537
  C      -3.366869     -1.628623     -1.658284
  C      -4.556927     -3.685788     -0.769326
  C       0.231659      1.654559      5.205019
  C       2.117121     -0.048366      5.082469
  C       2.595492      2.401976      4.646714
  H      -1.454198     -4.952070      1.271408
  H       1.097367      2.669809      1.363687
  H      -1.700064     -3.519420     -2.808958
  H      -3.381579     -3.926011     -3.269420
  H      -2.481665     -4.996209     -2.147201
  H      -2.416466     -1.222554     -2.079186
  H      -3.665840     -0.995570     -0.779411
  H      -4.168934     -1.535265     -2.444619
  H      -4.464338     -4.736548     -0.450972
  H      -5.285904     -3.644406     -1.591536
  H      -4.957148     -3.102312      0.067183
  H      -0.522631      0.848404      5.110112
  H      -0.197098      2.581637      4.773289
  H       0.418372      1.833799      6.285945
  H       1.382959     -0.874472      4.992032
  H       2.359666      0.081111      6.158521
  H       3.042232     -0.346493      4.549966
  H       2.207270      3.357195      4.239519
  H       3.531661      2.149630      4.108967
  H       2.842958      2.558573      5.718268
  Si      2.486373     -0.599266     -1.944436
  C       4.133393     -0.139879     -2.778944
  C       2.879085     -1.602922     -0.387157
  C       1.447525     -1.677420     -3.119658
  H       4.740677      0.508163     -2.112641
  H       3.971921      0.410711     -3.729119
  H       4.736584     -1.043216     -3.006138
  H       1.948256     -2.019616      0.066380
  H       3.360347     -0.978546      0.390767
  H       3.529221     -2.468638     -0.634445
  H       0.680643     -2.243489     -2.549356
  H       2.099098     -2.421865     -3.624466
  H       0.943378     -1.082020     -3.909174
  H      -0.463713      0.322691     -1.760707
  C       1.616209      1.073295     -1.611087
  C       0.118037      1.126069     -1.246981
  H       1.801145      1.645016     -2.550133
  H       2.215502      1.595870     -0.832612
  Si     -0.779290      2.773875     -1.638660
  H      -0.046422      0.951366     -0.152956
  C       0.169810      4.249475     -0.892701
  C      -2.533863      2.713393     -0.910263
  C      -0.865808      3.015496     -3.522104
  H       0.132664      4.258896      0.216063
  H      -0.273214      5.209643     -1.232808
  H       1.235210      4.245459     -1.209775
  H      -2.501402      2.612976      0.196618
  H      -3.109267      1.847835     -1.311532
  H      -3.102739      3.636876     -1.148220
  H       0.150582      3.038064     -3.981317
  H      -1.366611      3.975194     -3.772936
  H      -1.440418      2.194350     -4.013244
69
Coordinates from ORCA-job my_molecule E -2464.462152603562
  Pt     -0.234050     -1.298466      1.211404
  O      -0.029955     -0.045672      2.691351
  O      -2.454778     -2.454475      1.470760
  P       1.238251      0.993450      2.723274
  P      -2.035806     -3.194044      0.179568
  O      -1.854587     -4.807559      0.389082
  O      -0.603681     -2.584057     -0.270933
  O       0.566536      2.400147      2.172633
  O       2.448865      0.595529      1.906851
  C       1.520310      1.275440      4.528125
  C      -3.217607     -3.103339     -1.227352
  C      -2.668143     -3.898775     -2.426897
  C      -3.375685     -1.613190     -1.586295
  C      -4.557376     -3.691060     -0.731331
  C       0.205899      1.683401      5.214374
  C       2.063436     -0.046745      5.103928
  C       2.576648      2.391278      4.647327
  H      -1.434704     -4.981786      1.250261
  H       1.066922      2.652327      1.368509
  H      -1.715098     -3.471551     -2.797083
  H      -3.404052     -3.854297     -3.258064
  H      -2.500406     -4.963451     -2.171887
  H      -2.432302     -1.179126     -1.967100
  H      -3.703258     -1.017896     -0.724815
  H      -4.127227     -1.517679     -2.379322
  H      -4.451861     -4.764385     -0.465963
  H      -5.322658     -3.602468     -1.540681
  H      -4.929992     -3.143834      0.168796
  H      -0.558769      0.889816      5.124072
  H      -0.208289      2.612640      4.778855
  H       0.393637      1.865938      6.293085
  H       1.317655     -0.861180      5.020578
  H       2.307309      0.089138      6.178227
  H       2.982434     -0.364156      4.574136
  H       2.201541      3.346853      4.232928
  H       3.507464      2.121332      4.111624
  H       2.825977      2.555063      5.716357
  Si      2.521148     -0.588523     -1.987495
  C       4.165214     -0.153721     -2.838177
  C       2.901540     -1.590116     -0.428069
  C       1.449651     -1.644749     -3.151535
  H       4.787044      0.489985     -2.180963
  H       4.003649      0.392720     -3.790645
  H       4.754318     -1.066294     -3.065310
  H       1.968638     -1.998358      0.019811
  H       3.382051     -0.965301      0.350838
  H       3.550529     -2.456118     -0.671067
  H       0.681544     -2.193670     -2.568851
  H       2.078225     -2.402795     -3.664397
  H       0.945485     -1.041445     -3.935697
  H      -0.404414      0.317793     -1.813383
  C       1.658947      1.089647     -1.639594
  C       0.160536      1.117487     -1.282725
  H       1.843998      1.674859     -2.569874
  H       2.249493      1.602571     -0.847128
  Si     -0.756746      2.756680     -1.650415
  H      -0.002790      0.916883     -0.196835
  C       0.167300      4.234960     -0.880551
  C      -2.508909      2.659087     -0.922694
  C      -0.843336      3.018952     -3.531564
  H       0.107788      4.239720      0.229491
  H      -0.276744      5.192567     -1.224339
  H       1.237382      4.241233     -1.178864
  H      -2.469396      2.533613      0.181146
  H      -3.074121      1.798100     -1.339953
  H      -3.089310      3.579288     -1.138743
  H       0.170066      3.061204     -3.986155
  H      -1.359031      3.972091     -3.773445
  H      -1.402350      2.198488     -4.031199
69
Coordinates from ORCA-job my_molecule E -2464.462792638974
  Pt     -0.251252     -1.300192      1.240633
  O      -0.051109     -0.048643      2.719166
  O      -2.476991     -2.477506      1.490376
  P       1.220337      0.990394      2.739380
  P      -2.049784     -3.198382      0.190903
  O      -1.858567     -4.815604      0.378258
  O      -0.616713     -2.577487     -0.250888
  O       0.548697      2.392855      2.178594
  O       2.424953      0.582855      1.919238
  C       1.508957      1.280760      4.542200
  C      -3.227335     -3.093583     -1.220081
  C      -2.674516     -3.876587     -2.428425
  C      -3.388645     -1.596178     -1.556616
  C      -4.567788     -3.687963     -0.735658
  C       0.193172      1.685051      5.231393
  C       2.061453     -0.037905      5.123119
  C       2.560326      2.404509      4.652740
  H      -1.438370     -5.001561      1.238804
  H       1.050023      2.637966      1.371675
  H      -1.717872     -3.447909     -2.787232
  H      -3.405580     -3.818184     -3.263372
  H      -2.512186     -4.945758     -2.186384
  H      -2.442852     -1.157231     -1.933805
  H      -3.711448     -1.015058     -0.668269
  H      -4.160606     -1.478339     -2.347533
  H      -4.464820     -4.754764     -0.463148
  H      -5.315755     -3.611214     -1.549536
  H      -4.956181     -3.140238      0.143064
  H      -0.568112      0.883794      5.150409
  H      -0.230647      2.610691      4.790928
  H       0.385869      1.875883      6.308443
  H       1.318733     -0.857817      5.047315
  H       2.308878      0.104460      6.195956
  H       2.981516     -0.353685      4.591488
  H       2.176787      3.358084      4.236408
  H       3.492205      2.138764      4.114208
  H       2.812896      2.573083      5.720469
  Si      2.545464     -0.574842     -2.012939
  C       4.191573     -0.159045     -2.871659
  C       2.914115     -1.576684     -0.449557
  C       1.457462     -1.626961     -3.166530
  H       4.821935      0.481376     -2.219134
  H       4.028989      0.387333     -3.824340
  H       4.772172     -1.076874     -3.100537
  H       1.978540     -1.981893     -0.001834
  H       3.397356     -0.954737      0.331292
  H       3.560834     -2.446663     -0.690127
  H       0.685566     -2.163309     -2.575731
  H       2.072762     -2.396752     -3.678110
  H       0.956041     -1.022899     -3.951485
  H      -0.363252      0.302602     -1.845500
  C       1.691738      1.099279     -1.661096
  C       0.190419      1.103134     -1.304226
  H       1.876054      1.703790     -2.584615
  H       2.271610      1.609239     -0.856783
  Si     -0.745251      2.735035     -1.656628
  H       0.030632      0.889463     -0.219001
  C       0.167734      4.215041     -0.888900
  C      -2.484671      2.623454     -0.915226
  C      -0.852621      3.003428     -3.531744
  H       0.099426      4.223011      0.219361
  H      -0.276536      5.169681     -1.239743
  H       1.237998      4.221891     -1.178131
  H      -2.429905      2.491783      0.182932
  H      -3.046315      1.763426     -1.327621
  H      -3.073654      3.541552     -1.121069
  H       0.149000      3.036753     -3.994512
  H      -1.362782      3.959200     -3.771178
  H      -1.420105      2.192831     -4.019852
69
Coordinates from ORCA-job my_molecule E -2464.463148701408
  Pt     -0.265165     -1.296686      1.252576
  O      -0.066003     -0.051500      2.738134
  O      -2.490476     -2.484304      1.500464
  P       1.206487      0.987138      2.749266
  P      -2.059393     -3.198589      0.200885
  O      -1.866963     -4.815499      0.381109
  O      -0.625967     -2.574506     -0.236517
  O       0.531753      2.387663      2.189489
  O       2.405329      0.574676      1.923077
  C       1.506759      1.282752      4.549449
  C      -3.232846     -3.090501     -1.212717
  C      -2.675209     -3.867502     -2.420287
  C      -3.395585     -1.592742     -1.544705
  C      -4.573432     -3.688944     -0.734529
  C       0.198736      1.700244      5.243737
  C       2.051926     -0.036158      5.133207
  C       2.567481      2.397295      4.649277
  H      -1.440798     -5.004754      1.240029
  H       1.030644      2.632130      1.381527
  H      -1.716663     -3.438235     -2.772537
  H      -3.401850     -3.805973     -3.257141
  H      -2.515334     -4.936238     -2.181211
  H      -2.448284     -1.148417     -1.910343
  H      -3.728399     -1.016264     -0.659628
  H      -4.157579     -1.475767     -2.341547
  H      -4.468355     -4.761824     -0.475016
  H      -5.325662     -3.600398     -1.549087
  H      -4.959818     -3.150400      0.156867
  H      -0.568815      0.906170      5.169811
  H      -0.218681      2.626318      4.801957
  H       0.398218      1.893753      6.319156
  H       1.302855     -0.849784      5.065342
  H       2.306294      0.109588      6.204168
  H       2.965960     -0.361483      4.598191
  H       2.190437      3.350716      4.230255
  H       3.493668      2.121231      4.107534
  H       2.826734      2.569433      5.715153
  Si      2.558057     -0.572394     -2.026675
  C       4.201048     -0.164134     -2.893107
  C       2.923981     -1.571043     -0.462844
  C       1.461161     -1.620493     -3.174641
  H       4.836968      0.475158     -2.245521
  H       4.036825      0.380066     -3.846433
  H       4.776638     -1.084762     -3.122193
  H       1.987001     -1.973171     -0.017630
  H       3.405846     -0.948528      0.317125
  H       3.572146     -2.440075     -0.700707
  H       0.687243     -2.148730     -2.578896
  H       2.068932     -2.396711     -3.685134
  H       0.961693     -1.016039     -3.960290
  H      -0.344081      0.302555     -1.862305
  C       1.704708      1.105618     -1.671536
  C       0.204703      1.103050     -1.315946
  H       1.885087      1.708540     -2.591958
  H       2.282567      1.613879     -0.868665
  Si     -0.741981      2.730311     -1.659439
  H       0.048295      0.879847     -0.232122
  C       0.151485      4.215861     -0.870824
  C      -2.491605      2.591145     -0.931742
  C      -0.831529      3.012981     -3.537778
  H       0.073820      4.217353      0.236909
  H      -0.298194      5.169304     -1.219470
  H       1.226355      4.236020     -1.151245
  H      -2.445336      2.444301      0.169200
  H      -3.044234      1.728449     -1.364234
  H      -3.088101      3.506223     -1.128244
  H       0.184501      3.074242     -3.988326
  H      -1.359785      3.961367     -3.772114
  H      -1.376218      2.187169     -4.048611
69
Coordinates from ORCA-job my_molecule E -2464.463333250395
  Pt     -0.274959     -1.293826      1.262792
  O      -0.072992     -0.053032      2.750381
  O      -2.502449     -2.486059      1.506119
  P       1.199557      0.985406      2.756465
  P      -2.066614     -3.196655      0.206912
  O      -1.870397     -4.813091      0.384887
  O      -0.632287     -2.569871     -0.226760
  O       0.525678      2.385584      2.194815
  O       2.395238      0.569103      1.928125
  C       1.502503      1.284657      4.555544
  C      -3.236310     -3.090138     -1.210841
  C      -2.671766     -3.863534     -2.418142
  C      -3.403312     -1.592859     -1.542047
  C      -4.576883     -3.693112     -0.737748
  C       0.195875      1.708458      5.249509
  C       2.043497     -0.034529      5.143148
  C       2.566392      2.396746      4.651555
  H      -1.448618     -5.002234      1.243976
  H       1.023450      2.627222      1.385250
  H      -1.711266     -3.433214     -2.764797
  H      -3.395330     -3.799559     -3.258473
  H      -2.512445     -4.933473     -2.181387
  H      -2.455195     -1.144803     -1.900709
  H      -3.744423     -1.019823     -0.658235
  H      -4.160581     -1.477340     -2.343129
  H      -4.470067     -4.763979     -0.476002
  H      -5.324026     -3.609139     -1.554985
  H      -4.970236     -3.155445      0.148395
  H      -0.574354      0.916523      5.177910
  H      -0.218950      2.635123      4.805918
  H       0.396442      1.903699      6.324219
  H       1.291458     -0.845935      5.078767
  H       2.299013      0.114099      6.213328
  H       2.956214     -0.365106      4.608770
  H       2.191699      3.350291      4.229721
  H       3.491891      2.116498      4.110452
  H       2.826046      2.571507      5.716709
  Si      2.567286     -0.569522     -2.038615
  C       4.208724     -0.165764     -2.909974
  C       2.931256     -1.566636     -0.473066
  C       1.465458     -1.617612     -3.182700
  H       4.849103      0.472025     -2.264957
  H       4.042436      0.378655     -3.863070
  H       4.780797     -1.088190     -3.141223
  H       1.993992     -1.967803     -0.028717
  H       3.412911     -0.944296      0.307541
  H       3.579727     -2.435844     -0.709635
  H       0.690267     -2.140790     -2.583997
  H       2.069201     -2.398181     -3.691444
  H       0.967031     -1.013762     -3.969829
  H      -0.333816      0.302202     -1.870000
  C       1.714814      1.108628     -1.683050
  C       0.215096      1.101677     -1.323957
  H       1.893767      1.715340     -2.603115
  H       2.292349      1.616054     -0.877710
  Si     -0.736539      2.727122     -1.659419
  H       0.061924      0.873153     -0.241029
  C       0.153898      4.211738     -0.870538
  C      -2.480106      2.582433     -0.923963
  C      -0.837813      3.011633     -3.535363
  H       0.071896      4.212347      0.236940
  H      -0.295328      5.164764     -1.220225
  H       1.228784      4.232321     -1.147070
  H      -2.426017      2.431070      0.174386
  H      -3.032612      1.721994     -1.354785
  H      -3.079341      3.497271     -1.113761
  H       0.171068      3.069532     -3.991625
  H      -1.365467      3.960229     -3.768224
  H      -1.386236      2.190051     -4.038218
69
Coordinates from ORCA-job my_molecule E -2464.463426286589
  Pt     -0.283743     -1.291817      1.271052
  O      -0.076414     -0.053079      2.759572
  O      -2.515389     -2.490496      1.510329
  P       1.196376      0.985397      2.761845
  P      -2.075005     -3.197064      0.210725
  O      -1.875367     -4.813769      0.385560
  O      -0.640232     -2.566963     -0.219557
  O       0.520777      2.384765      2.200881
  O       2.389965      0.567952      1.931327
  C       1.503572      1.286285      4.559957
  C      -3.240384     -3.090850     -1.210768
  C      -2.670504     -3.862907     -2.416375
  C      -3.408751     -1.593489     -1.541456
  C      -4.581378     -3.696017     -0.742147
  C       0.198939      1.712669      5.256046
  C       2.044132     -0.032719      5.148311
  C       2.569302      2.396905      4.652240
  H      -1.455121     -5.004373      1.245424
  H       1.016384      2.625709      1.389924
  H      -1.708650     -3.431935     -2.757682
  H      -3.389953     -3.798299     -3.259720
  H      -2.512159     -4.932949     -2.180086
  H      -2.459887     -1.143575     -1.895417
  H      -3.754622     -1.021569     -0.657965
  H      -4.163719     -1.478383     -2.345764
  H      -4.473660     -4.767617     -0.481886
  H      -5.327093     -3.611311     -1.561489
  H      -4.977474     -3.160040      0.144755
  H      -0.572464      0.921498      5.187418
  H      -0.215720      2.639093      4.811700
  H       0.402215      1.909363      6.330115
  H       1.290728     -0.843063      5.087127
  H       2.302566      0.117152      6.217682
  H       2.955090     -0.365446      4.612253
  H       2.195304      3.350223      4.229474
  H       3.493445      2.114464      4.110008
  H       2.831094      2.573016      5.716741
  Si      2.571553     -0.567703     -2.043838
  C       4.211556     -0.166037     -2.918630
  C       2.935787     -1.563548     -0.477851
  C       1.467589     -1.616594     -3.185333
  H       4.853924      0.471489     -2.275712
  H       4.043528      0.377883     -3.871548
  H       4.782204     -1.088973     -3.150816
  H       1.998549     -1.964673     -0.033674
  H       3.417210     -0.941256      0.302630
  H       3.585222     -2.432159     -0.714074
  H       0.691202     -2.136580     -2.585194
  H       2.069307     -2.399770     -3.692204
  H       0.970297     -1.013699     -3.973652
  H      -0.328714      0.301866     -1.873338
  C       1.719372      1.110587     -1.688180
  C       0.220049      1.101755     -1.327211
  H       1.896030      1.717382     -2.607919
  H       2.296905      1.618314     -0.884098
  Si     -0.734516      2.725747     -1.660184
  H       0.069179      0.870399     -0.244401
  C       0.150760      4.211211     -0.866312
  C      -2.479659      2.575198     -0.927840
  C      -0.832736      3.013375     -3.536434
  H       0.065617      4.209964      0.240764
  H      -0.299623      5.163866     -1.215754
  H       1.226718      4.234991     -1.139600
  H      -2.426946      2.420468      0.170546
  H      -3.030226      1.714639     -1.362871
  H      -3.080437      3.489443     -1.115327
  H       0.178648      3.077773     -3.990257
  H      -1.364860      3.959791     -3.768392
  H      -1.375687      2.188089     -4.043448
69
Coordinates from ORCA-job my_molecule E -2464.463481417442
  Pt     -0.291613     -1.287538      1.275787
  O      -0.078246     -0.054161      2.767038
  O      -2.530339     -2.485482      1.510879
  P       1.194409      0.984814      2.766843
  P      -2.084162     -3.192167      0.214801
  O      -1.880804     -4.807460      0.392854
  O      -0.648693     -2.560051     -0.213166
  O       0.518346      2.384300      2.206204
  O       2.386283      0.565721      1.934769
  C       1.503640      1.287688      4.564264
  C      -3.244002     -3.092372     -1.211369
  C      -2.665155     -3.863586     -2.413057
  C      -3.417237     -1.596643     -1.545389
  C      -4.584581     -3.702419     -0.747942
  C       0.200438      1.717782      5.260834
  C       2.042194     -0.031131      5.154568
  C       2.571336      2.396576      4.653804
  H      -1.464764     -4.995306      1.254159
  H       1.012411      2.624703      1.394157
  H      -1.702069     -3.431034     -2.749852
  H      -3.380524     -3.801542     -3.260182
  H      -2.505523     -4.932752     -2.174460
  H      -2.467811     -1.143905     -1.894524
  H      -3.771085     -1.024749     -0.665147
  H      -4.167658     -1.486215     -2.354490
  H      -4.473903     -4.773052     -0.485856
  H      -5.326597     -3.621514     -1.570609
  H      -4.987151     -3.167424      0.136136
  H      -0.572764      0.928687      5.193092
  H      -0.212033      2.644792      4.816374
  H       0.404603      1.914525      6.334561
  H       1.287111     -0.840033      5.096036
  H       2.302146      0.120557      6.223291
  H       2.951861     -0.366901      4.618287
  H       2.198919      3.349663      4.229283
  H       3.494707      2.111362      4.111787
  H       2.833752      2.574453      5.717812
  Si      2.576046     -0.568044     -2.050186
  C       4.213472     -0.166308     -2.929303
  C       2.942238     -1.563005     -0.484045
  C       1.470259     -1.618104     -3.189525
  H       4.859028      0.470060     -2.288092
  H       4.042648      0.378541     -3.881374
  H       4.782322     -1.089796     -3.164407
  H       2.005409     -1.964230     -0.040718
  H       3.422796     -0.940466      0.296913
  H       3.593112     -2.430395     -0.720295
  H       0.692350     -2.134835     -2.588373
  H       2.070682     -2.404037     -3.693889
  H       0.974446     -1.016161     -3.979819
  H      -0.325817      0.303202     -1.877966
  C       1.722797      1.110918     -1.693887
  C       0.223661      1.102038     -1.330853
  H       1.898831      1.718211     -2.614008
  H       2.301503      1.618227     -0.889103
  Si     -0.731950      2.725987     -1.659153
  H       0.074878      0.867856     -0.248057
  C       0.151484      4.210731     -0.862273
  C      -2.475913      2.571008     -0.925059
  C      -0.832855      3.016820     -3.534691
  H       0.064228      4.207671      0.244707
  H      -0.299062      5.163589     -1.210936
  H       1.227822      4.236001     -1.133488
  H      -2.421267      2.412701      0.172731
  H      -3.025859      1.711122     -1.361892
  H      -3.078264      3.485142     -1.108658
  H       0.177071      3.082277     -3.989825
  H      -1.365876      3.962953     -3.765249
  H      -1.375659      2.192144     -4.040802
69
Coordinates from ORCA-job my_molecule E -2464.463486373187
  Pt     -0.307656     -1.283378      1.291349
  O      -0.077215     -0.052093      2.780377
  O      -2.561709     -2.493800      1.515739
  P       1.195874      0.987091      2.774659
  P      -2.102353     -3.193892      0.220893
  O      -1.889412     -4.809597      0.396033
  O      -0.665805     -2.554039     -0.199361
  O       0.515927      2.384602      2.215883
  O       2.385164      0.568678      1.940025
  C       1.509584      1.290473      4.571208
  C      -3.250323     -3.098975     -1.216272
  C      -2.658811     -3.871204     -2.412203
  C      -3.425558     -1.604098     -1.554735
  C      -4.592606     -3.711844     -0.762278
  C       0.208232      1.721576      5.270805
  C       2.048942     -0.028292      5.161149
  C       2.578340      2.398632      4.657308
  H      -1.481106     -4.998253      1.260894
  H       1.006138      2.625662      1.402111
  H      -1.693893     -3.436246     -2.739906
  H      -3.366330     -3.811787     -3.266220
  H      -2.498714     -4.940232     -2.171044
  H      -2.475321     -1.148993     -1.896601
  H      -3.788517     -1.031782     -0.677927
  H      -4.170668     -1.497310     -2.369676
  H      -4.480979     -4.781726     -0.496684
  H      -5.328395     -3.635226     -1.591064
  H      -5.003607     -3.175615      0.117442
  H      -0.565502      0.932091      5.206649
  H      -0.205683      2.648075      4.825644
  H       0.415869      1.920017      6.343816
  H       1.292865     -0.836520      5.106127
  H       2.312644      0.124104      6.228871
  H       2.956588     -0.365471      4.622241
  H       2.205707      3.351604      4.232565
  H       3.500491      2.112225      4.113724
  H       2.843001      2.577129      5.720710
  Si      2.577003     -0.565327     -2.053844
  C       4.210311     -0.163836     -2.941128
  C       2.948540     -1.558615     -0.488126
  C       1.469297     -1.619619     -3.188555
  H       4.857920      0.474307     -2.304840
  H       4.034180      0.378764     -3.893096
  H       4.779056     -1.086571     -3.177637
  H       2.012960     -1.962201     -0.043636
  H       3.429069     -0.936102      0.292170
  H       3.601994     -2.423629     -0.726159
  H       0.690431     -2.133271     -2.585931
  H       2.068611     -2.408102     -3.689877
  H       0.974011     -1.020356     -3.980759
  H      -0.325832      0.305673     -1.870320
  C       1.724516      1.113041     -1.697248
  C       0.226584      1.105535     -1.329158
  H       1.896406      1.718970     -2.618289
  H       2.305347      1.621474     -0.896904
  Si     -0.728667      2.728606     -1.659208
  H       0.081015      0.871158     -0.246787
  C       0.152360      4.212298     -0.858892
  C      -2.474397      2.574529     -0.929787
  C      -0.826045      3.018714     -3.535184
  H       0.062496      4.206866      0.247539
  H      -0.298428      5.165304     -1.206795
  H       1.229378      4.239295     -1.127153
  H      -2.422182      2.416767      0.167985
  H      -3.023584      1.715054     -1.367869
  H      -3.076172      3.488679     -1.114874
  H       0.185407      3.087603     -3.988058
  H      -1.362118      3.962695     -3.767427
  H      -1.364668      2.190713     -4.042405
69
Coordinates from ORCA-job my_molecule E -2464.463226097493
  Pt     -0.309047     -1.282394      1.288981
  O      -0.063316     -0.060546      2.780850
  O      -2.584873     -2.474248      1.505984
  P       1.208292      0.985517      2.778057
  P      -2.116803     -3.183333      0.222279
  O      -1.904197     -4.795981      0.412606
  O      -0.677654     -2.546856     -0.195314
  O       0.523652      2.384033      2.221748
  O       2.400088      0.570754      1.943975
  C       1.519161      1.289671      4.575285
  C      -3.253042     -3.103987     -1.222639
  C      -2.646811     -3.883262     -2.405944
  C      -3.433190     -1.612988     -1.575887
  C      -4.595552     -3.720274     -0.775136
  C       0.216100      1.715304      5.274511
  C       2.064638     -0.026165      5.165869
  C       2.583158      2.402596      4.661493
  H      -1.509875     -4.975537      1.282037
  H       1.012711      2.630590      1.408543
  H      -1.680449     -3.447607     -2.728488
  H      -3.346225     -3.834165     -3.266525
  H      -2.485164     -4.948846     -2.153430
  H      -2.481788     -1.157088     -1.915383
  H      -3.806738     -1.032032     -0.707724
  H      -4.172450     -1.518834     -2.399284
  H      -4.480859     -4.787870     -0.500739
  H      -5.324337     -3.652753     -1.610669
  H      -5.016787     -3.180207      0.097202
  H      -0.554580      0.923339      5.209628
  H      -0.200701      2.640199      4.829565
  H       0.422651      1.913995      6.347718
  H       1.312256     -0.837916      5.111369
  H       2.327833      0.128037      6.233551
  H       2.973772     -0.359373      4.627347
  H       2.206509      3.353769      4.236362
  H       3.506616      2.120142      4.118130
  H       2.846927      2.582237      5.725086
  Si      2.572905     -0.570155     -2.049106
  C       4.200868     -0.158845     -2.941772
  C       2.956381     -1.566628     -0.487255
  C       1.466601     -1.626464     -3.184962
  H       4.851273      0.478222     -2.305653
  H       4.018717      0.387377     -3.891168
  H       4.770524     -1.080007     -3.185163
  H       2.023534     -1.973729     -0.043342
  H       3.435155     -0.944618      0.294949
  H       3.614233     -2.427023     -0.729630
  H       0.686780     -2.141305     -2.584001
  H       2.068458     -2.414120     -3.685655
  H       0.971655     -1.026974     -3.977996
  H      -0.339521      0.310109     -1.880039
  C       1.714855      1.108835     -1.688994
  C       0.212749      1.107366     -1.329421
  H       1.896343      1.717972     -2.608714
  H       2.295459      1.613135     -0.878857
  Si     -0.732609      2.735411     -1.660803
  H       0.063682      0.875887     -0.246036
  C       0.154002      4.216756     -0.857070
  C      -2.480607      2.586842     -0.933747
  C      -0.824791      3.026432     -3.537097
  H       0.067460      4.208021      0.250990
  H      -0.296988      5.171553     -1.200263
  H       1.230442      4.244351     -1.128342
  H      -2.431841      2.428272      0.164675
  H      -3.032326      1.728460     -1.373488
  H      -3.078486      3.503370     -1.119397
  H       0.187828      3.093568     -3.988698
  H      -1.358473      3.971562     -3.770415
  H      -1.364188      2.198447     -4.044541
69
Coordinates from ORCA-job my_molecule E -2464.463295159707
  Pt     -0.310903     -1.281537      1.287249
  O      -0.073562     -0.051700      2.776182
  O      -2.575513     -2.480495      1.505118
  P       1.201876      0.985256      2.773436
  P      -2.108226     -3.187845      0.220445
  O      -1.896802     -4.800305      0.408845
  O      -0.669255     -2.550345     -0.196823
  O       0.525809      2.385420      2.214818
  O       2.391214      0.564582      1.940366
  C       1.513534      1.289737      4.570355
  C      -3.248767     -3.106703     -1.222439
  C      -2.647978     -3.884874     -2.408465
  C      -3.428786     -1.615342     -1.573874
  C      -4.590743     -3.721750     -0.770815
  C       0.213430      1.726810      5.267865
  C       2.047928     -0.029265      5.163449
  C       2.585750      2.394547      4.656054
  H      -1.500884     -4.980288      1.275765
  H       1.016185      2.626604      1.401140
  H      -1.684435     -3.447360     -2.740969
  H      -3.355033     -3.839707     -3.262962
  H      -2.481187     -4.948826     -2.154863
  H      -2.478106     -1.161052     -1.917769
  H      -3.796583     -1.035848     -0.702094
  H      -4.173093     -1.517984     -2.392547
  H      -4.476466     -4.789911     -0.498469
  H      -5.322542     -3.652126     -1.603469
  H      -5.008036     -3.182539      0.103907
  H      -0.562824      0.940099      5.205010
  H      -0.196620      2.653402      4.820226
  H       0.421062      1.927329      6.340648
  H       1.289085     -0.834978      5.110064
  H       2.311807      0.124982      6.230981
  H       2.954425     -0.370878      4.625978
  H       2.216879      3.347935      4.229409
  H       3.507316      2.104306      4.113856
  H       2.849882      2.573986      5.719536
  Si      2.573294     -0.567472     -2.051521
  C       4.205148     -0.164489     -2.941323
  C       2.947059     -1.562537     -0.486102
  C       1.465301     -1.623624     -3.186351
  H       4.856995      0.471217     -2.304491
  H       4.026943      0.381406     -3.891900
  H       4.771655     -1.088725     -3.182392
  H       2.011004     -1.965567     -0.042602
  H       3.427745     -0.940731      0.294880
  H       3.601073     -2.427228     -0.724785
  H       0.686531     -2.138638     -2.583913
  H       2.066402     -2.411789     -3.687549
  H       0.969102     -1.024556     -3.979207
  H      -0.332848      0.313324     -1.863918
  C       1.721065      1.114871     -1.694483
  C       0.222839      1.113731     -1.324925
  H       1.896280      1.721326     -2.617170
  H       2.305766      1.621421     -0.890064
  Si     -0.729827      2.738319     -1.654724
  H       0.077276      0.880294     -0.241449
  C       0.154906      4.221325     -0.855435
  C      -2.475454      2.583981     -0.922584
  C      -0.830185      3.027818     -3.530931
  H       0.069481      4.213138      0.251463
  H      -0.297003      5.175618     -1.199098
  H       1.230864      4.249386     -1.128073
  H      -2.422417      2.425158      0.175792
  H      -3.025479      1.723794     -1.361038
  H      -3.077504      3.498520     -1.106043
  H       0.180906      3.097743     -3.986060
  H      -1.367944      3.971385     -3.762435
  H      -1.368812      2.198245     -4.036713
69
Coordinates from ORCA-job my_molecule E -2464.463313358898
  Pt     -0.303948     -1.286822      1.285337
  O      -0.073092     -0.048970      2.768149
  O      -2.560638     -2.488541      1.507411
  P       1.203411      0.986556      2.768723
  P      -2.099004     -3.195046      0.218621
  O      -1.892637     -4.809520      0.402079
  O      -0.659503     -2.561123     -0.199171
  O       0.529178      2.387548      2.209967
  O       2.394315      0.566767      1.937529
  C       1.512390      1.287581      4.566630
  C      -3.244312     -3.105553     -1.220561
  C      -2.652790     -3.884961     -2.411238
  C      -3.418490     -1.612099     -1.568185
  C      -4.587367     -3.714575     -0.764364
  C       0.210656      1.721306      5.263387
  C       2.047492     -0.032448      5.157086
  C       2.583256      2.393266      4.656529
  H      -1.491004     -4.993492      1.267542
  H       1.020176      2.627410      1.396164
  H      -1.690658     -3.449013     -2.748326
  H      -3.364301     -3.836435     -3.262075
  H      -2.487436     -4.950619     -2.160589
  H      -2.468629     -1.160318     -1.916300
  H      -3.778625     -1.033021     -0.693257
  H      -4.167018     -1.509684     -2.381907
  H      -4.477326     -4.783587     -0.493261
  H      -5.321917     -3.641139     -1.594073
  H      -4.998395     -3.173505      0.112056
  H      -0.564620      0.934090      5.196920
  H      -0.199679      2.648820      4.818012
  H       0.416159      1.918677      6.336970
  H       1.289788     -0.838954      5.100175
  H       2.309360      0.119034      6.225441
  H       2.955359     -0.371413      4.620073
  H       2.213714      3.347469      4.232143
  H       3.505809      2.105521      4.114517
  H       2.846022      2.569955      5.720766
  Si      2.569095     -0.565927     -2.046231
  C       4.202703     -0.163832     -2.933811
  C       2.941735     -1.560264     -0.480443
  C       1.462311     -1.622231     -3.181554
  H       4.850824      0.474836     -2.297457
  H       4.026345      0.378560     -3.886209
  H       4.771653     -1.087012     -3.170379
  H       2.006018     -1.963080     -0.035758
  H       3.422825     -0.938496      0.300064
  H       3.595051     -2.425426     -0.718832
  H       0.686157     -2.140562     -2.578829
  H       2.064319     -2.407446     -3.685769
  H       0.963275     -1.023095     -3.971960
  H      -0.336312      0.313225     -1.859461
  C       1.717804      1.115639     -1.690997
  C       0.219527      1.114578     -1.322126
  H       1.892092      1.720608     -2.613745
  H       2.301797      1.623748     -0.888887
  Si     -0.731546      2.739005     -1.656677
  H       0.072845      0.883236     -0.238939
  C       0.155120      4.222640     -0.860812
  C      -2.477825      2.590140     -0.925938
  C      -0.830069      3.023685     -3.533636
  H       0.071472      4.216265      0.246450
  H      -0.296465      5.176634     -1.205491
  H       1.230695      4.249131     -1.135113
  H      -2.426147      2.434955      0.172782
  H      -3.029029      1.729994     -1.362070
  H      -3.077785      3.505055     -1.113229
  H       0.181350      3.089410     -3.987977
  H      -1.364787      3.968088     -3.767994
  H      -1.370743      2.194780     -4.037893
69
Coordinates from ORCA-job my_molecule E -2464.463225708063
  Pt     -0.296839     -1.291519      1.280056
  O      -0.066649     -0.050223      2.762140
  O      -2.552332     -2.487469      1.502973
  P       1.209114      0.986089      2.765637
  P      -2.093297     -3.197092      0.214669
  O      -1.891184     -4.811694      0.400561
  O      -0.652962     -2.567021     -0.203761
  O       0.535069      2.387230      2.207028
  O       2.401910      0.568367      1.936587
  C       1.514639      1.286610      4.564264
  C      -3.240507     -3.107308     -1.223246
  C      -2.652269     -3.889874     -2.413110
  C      -3.412684     -1.614661     -1.574074
  C      -4.584254     -3.712632     -0.763759
  C       0.211636      1.719677      5.258881
  C       2.048944     -0.033517      5.155049
  C       2.585126      2.392506      4.656476
  H      -1.489916     -4.995117      1.265935
  H       1.027353      2.628819      1.394777
  H      -1.690009     -3.455901     -2.752441
  H      -3.365240     -3.842042     -3.262819
  H      -2.488241     -4.954994     -2.160991
  H      -2.463031     -1.165309     -1.925993
  H      -3.769756     -1.032859     -0.699822
  H      -4.163159     -1.512989     -2.386071
  H      -4.475895     -4.781067     -0.490587
  H      -5.320017     -3.639549     -1.592483
  H      -4.992807     -3.168938      0.112124
  H      -0.562960      0.931151      5.192512
  H      -0.199323      2.646400      4.811545
  H       0.416015      1.918872      6.332682
  H       1.291672     -0.840304      5.095961
  H       2.308389      0.117506      6.224062
  H       2.958053     -0.371803      4.619844
  H       2.216348      3.346626      4.231477
  H       3.508648      2.104946      4.116293
  H       2.845814      2.569177      5.721216
  Si      2.563411     -0.567032     -2.039914
  C       4.198118     -0.162806     -2.924491
  C       2.936448     -1.563368     -0.474997
  C       1.458886     -1.623241     -3.177789
  H       4.845565      0.474997     -2.285630
  H       4.022804      0.381540     -3.876295
  H       4.767632     -1.085927     -3.161962
  H       2.000268     -1.966591     -0.029758
  H       3.418512     -0.942483      0.305558
  H       3.588529     -2.429401     -0.714470
  H       0.684200     -2.145335     -2.576443
  H       2.063076     -2.405509     -3.684193
  H       0.958155     -1.023182     -3.966744
  H      -0.344029      0.316102     -1.853674
  C       1.711496      1.114901     -1.685314
  C       0.212659      1.117244     -1.318368
  H       1.887914      1.718902     -2.608497
  H       2.295551      1.622582     -0.883162
  Si     -0.734827      2.743006     -1.656694
  H       0.063771      0.889803     -0.235158
  C       0.156843      4.225512     -0.864958
  C      -2.480724      2.600516     -0.924474
  C      -0.834399      3.023939     -3.534001
  H       0.076545      4.220301      0.242307
  H      -0.293747      5.179987     -1.209444
  H       1.231520      4.249325     -1.142326
  H      -2.428876      2.449257      0.174597
  H      -3.033682      1.739972     -1.357056
  H      -3.079159      3.516072     -1.114966
  H       0.176888      3.087128     -3.989418
  H      -1.367863      3.968922     -3.769648
  H      -1.376882      2.194772     -4.036210
69
Coordinates from ORCA-job my_molecule E -2464.463221465442
  Pt     -0.304693     -1.286128      1.284605
  O      -0.065788     -0.049839      2.770082
  O      -2.569201     -2.488218      1.503778
  P       1.209233      0.987818      2.770305
  P      -2.103236     -3.194667      0.216556
  O      -1.892681     -4.808666      0.402384
  O      -0.664161     -2.557982     -0.200411
  O       0.532337      2.387466      2.212263
  O       2.400570      0.570525      1.939561
  C       1.517036      1.289271      4.568338
  C      -3.245840     -3.109926     -1.225712
  C      -2.650301     -3.890723     -2.413352
  C      -3.422104     -1.618301     -1.577383
  C      -4.589139     -3.719716     -0.770654
  C       0.214646      1.721712      5.264605
  C       2.053011     -0.030210      5.158956
  C       2.586934      2.395855      4.658558
  H      -1.495423     -4.990919      1.269617
  H       1.023117      2.630086      1.399606
  H      -1.687607     -3.454155     -2.748329
  H      -3.359840     -3.844828     -3.266323
  H      -2.484288     -4.955293     -2.160257
  H      -2.472656     -1.166186     -1.925620
  H      -3.784237     -1.038182     -0.704254
  H      -4.170155     -1.518826     -2.391931
  H      -4.477915     -4.787349     -0.496386
  H      -5.322410     -3.649791     -1.601979
  H      -5.002778     -3.177107      0.103537
  H      -0.559561      0.932498      5.199747
  H      -0.197684      2.647975      4.817353
  H       0.420512      1.921580      6.338050
  H       1.296178     -0.837459      5.101420
  H       2.313860      0.121546      6.227463
  H       2.961557     -0.368249      4.622649
  H       2.217369      3.349234      4.232927
  H       3.510125      2.108211      4.118106
  H       2.848254      2.573792      5.722866
  Si      2.565809     -0.567338     -2.043118
  C       4.198195     -0.161919     -2.931205
  C       2.941577     -1.563720     -0.478864
  C       1.460420     -1.624444     -3.179747
  H       4.847236      0.475448     -2.293607
  H       4.020250      0.383146     -3.882074
  H       4.767245     -1.084739     -3.171026
  H       2.005812     -1.968448     -0.033814
  H       3.423151     -0.942543      0.301585
  H       3.595181     -2.428233     -0.719373
  H       0.683777     -2.143955     -2.578660
  H       2.063998     -2.408876     -3.683362
  H       0.961840     -1.025177     -3.970684
  H      -0.342426      0.315779     -1.851818
  C       1.713403      1.114052     -1.686962
  C       0.215035      1.116631     -1.318237
  H       1.888510      1.717888     -2.610311
  H       2.298223      1.621502     -0.886136
  Si     -0.732365      2.742341     -1.655999
  H       0.067720      0.889071     -0.235205
  C       0.158231      4.223932     -0.861892
  C      -2.478615      2.599330     -0.925344
  C      -0.830735      3.024865     -3.533061
  H       0.075984      4.217939      0.245070
  H      -0.291940      5.178528     -1.206411
  H       1.233307      4.248077     -1.137263
  H      -2.427300      2.448319      0.173522
  H      -3.030638      1.738691     -1.358187
  H      -3.077636      3.514597     -1.116266
  H       0.180759      3.089607     -3.987717
  H      -1.365149      3.969349     -3.768302
  H      -1.371901      2.195452     -4.036274
69
Coordinates from ORCA-job my_molecule E -2464.463123463466
  Pt     -0.298215     -1.290821      1.282950
  O      -0.058810     -0.049958      2.763477
  O      -2.563437     -2.491142      1.503194
  P       1.215905      0.988536      2.767211
  P      -2.099101     -3.198902      0.215630
  O      -1.892450     -4.813629      0.401711
  O      -0.658587     -2.565651     -0.201081
  O       0.538043      2.388180      2.210029
  O       2.409575      0.574326      1.938661
  C       1.519363      1.286549      4.566444
  C      -3.242283     -3.111563     -1.226136
  C      -2.650908     -3.895700     -2.414039
  C      -3.414174     -1.619822     -1.578811
  C      -4.587228     -3.716071     -0.768874
  C       0.214964      1.715540      5.261059
  C       2.056070     -0.033599      5.154763
  C       2.587464      2.394261      4.661273
  H      -1.493700     -4.996821      1.269024
  H       1.029360      2.632211      1.398110
  H      -1.688749     -3.460548     -2.753864
  H      -3.363626     -3.851336     -3.264779
  H      -2.484701     -4.959768     -2.158883
  H      -2.465149     -1.170320     -1.930844
  H      -3.771406     -1.037868     -0.704949
  H      -4.165268     -1.518936     -2.390439
  H      -4.479415     -4.783550     -0.492963
  H      -5.321160     -3.645185     -1.599571
  H      -4.997889     -3.170340      0.104761
  H      -0.558614      0.927457      5.189392
  H      -0.195577      2.643865      4.818153
  H       0.416803      1.909287      6.335766
  H       1.300734     -0.841815      5.093310
  H       2.314154      0.115662      6.224173
  H       2.966368     -0.368770      4.619602
  H       2.217336      3.348133      4.237404
  H       3.511993      2.109138      4.121757
  H       2.846571      2.569812      5.726404
  Si      2.560155     -0.566467     -2.036341
  C       4.192258     -0.158602     -2.924166
  C       2.938816     -1.563990     -0.473697
  C       1.455983     -1.623970     -3.173923
  H       4.838303      0.481638     -2.287466
  H       4.014119      0.383728     -3.876163
  H       4.764185     -1.079800     -3.161306
  H       2.003750     -1.969545     -0.027595
  H       3.421030     -0.943453      0.306747
  H       3.592318     -2.427966     -0.716042
  H       0.681461     -2.147149     -2.573267
  H       2.061035     -2.405312     -3.680346
  H       0.954834     -1.024209     -3.962592
  H      -0.349997      0.318089     -1.845681
  C       1.706964      1.114255     -1.680129
  C       0.207877      1.119653     -1.313974
  H       1.883389      1.716700     -2.603391
  H       2.291257      1.621790     -0.880265
  Si     -0.735100      2.746221     -1.658930
  H       0.057998      0.896199     -0.230778
  C       0.158959      4.227567     -0.867907
  C      -2.483115      2.611245     -0.931174
  C      -0.829988      3.022313     -3.536979
  H       0.079406      4.222276      0.239222
  H      -0.290977      5.182436     -1.212043
  H       1.233509      4.250174     -1.145707
  H      -2.434642      2.464611      0.168337
  H      -3.036944      1.750682     -1.361964
  H      -3.078916      3.527437     -1.126950
  H       0.181760      3.080359     -3.990522
  H      -1.359446      3.968126     -3.776731
  H      -1.374491      2.194122     -4.037300
69
Coordinates from ORCA-job my_molecule E -2464.463177167910
  Pt     -0.305542     -1.283460      1.286144
  O      -0.061745     -0.048045      2.769012
  O      -2.574402     -2.488735      1.503932
  P       1.212935      0.990239      2.770077
  P      -2.105996     -3.194725      0.217341
  O      -1.892326     -4.808513      0.403847
  O      -0.667285     -2.555895     -0.199006
  O       0.534474      2.389535      2.213245
  O       2.404822      0.574888      1.939829
  C       1.519091      1.288255      4.568725
  C      -3.246796     -3.112514     -1.226618
  C      -2.649791     -3.894743     -2.412899
  C      -3.423068     -1.621685     -1.579782
  C      -4.590563     -3.721827     -0.772199
  C       0.216120      1.719307      5.264831
  C       2.054704     -0.032459      5.156498
  C       2.588601      2.394480      4.662011
  H      -1.492380     -4.990452      1.272291
  H       1.024564      2.633177      1.400455
  H      -1.687596     -3.457011     -2.750578
  H      -3.360706     -3.852908     -3.265372
  H      -2.480977     -4.957990     -2.156702
  H      -2.474408     -1.169704     -1.929663
  H      -3.783844     -1.041071     -0.706452
  H      -4.172981     -1.523097     -2.392982
  H      -4.479571     -4.789014     -0.496485
  H      -5.323208     -3.653128     -1.604318
  H      -5.004961     -3.177965      0.100922
  H      -0.559295      0.935166      5.189815
  H      -0.190679      2.650030      4.826278
  H       0.417321      1.907759      6.339697
  H       1.298325     -0.839586      5.096126
  H       2.314211      0.116661      6.225481
  H       2.963927     -0.369011      4.620269
  H       2.219032      3.348827      4.238780
  H       3.512084      2.108214      4.121076
  H       2.849287      2.569588      5.726759
  Si      2.563905     -0.566520     -2.040647
  C       4.194752     -0.158938     -2.930764
  C       2.942992     -1.562517     -0.477267
  C       1.459192     -1.625190     -3.176649
  H       4.841005      0.481904     -2.295896
  H       4.015448      0.382202     -3.882911
  H       4.766643     -1.079694     -3.167635
  H       2.008234     -1.968648     -0.031639
  H       3.424213     -0.941081      0.302931
  H       3.597923     -2.425424     -0.719002
  H       0.682582     -2.145264     -2.575859
  H       2.063587     -2.409102     -3.679708
  H       0.960468     -1.026776     -3.967714
  H      -0.346016      0.317242     -1.846110
  C       1.710689      1.114018     -1.684849
  C       0.212720      1.118673     -1.315227
  H       1.883900      1.714587     -2.609006
  H       2.296509      1.622875     -0.888114
  Si     -0.732120      2.744712     -1.657130
  H       0.065425      0.893167     -0.231974
  C       0.159735      4.226058     -0.863659
  C      -2.480061      2.605951     -0.929574
  C      -0.827799      3.023235     -3.534757
  H       0.078016      4.220160      0.243278
  H      -0.290310      5.180831     -1.207996
  H       1.234896      4.249742     -1.139406
  H      -2.431353      2.456634      0.169761
  H      -3.033059      1.745726     -1.362621
  H      -3.076774      3.521836     -1.122976
  H       0.183011      3.081530     -3.988595
  H      -1.357160      3.969083     -3.773453
  H      -1.372575      2.196401     -4.035216
69
Coordinates from ORCA-job my_molecule E -2464.463025767810
  Pt     -0.300031     -1.287482      1.286074
  O      -0.053386     -0.048922      2.763187
  O      -2.575520     -2.486322      1.501008
  P       1.220916      0.990064      2.767145
  P      -2.105292     -3.195684      0.217545
  O      -1.895541     -4.809407      0.407885
  O      -0.663734     -2.561377     -0.196801
  O       0.541578      2.389006      2.210789
  O       2.414770      0.577509      1.939113
  C       1.522425      1.285775      4.566969
  C      -3.242455     -3.115218     -1.229343
  C      -2.644556     -3.902005     -2.411976
  C      -3.415996     -1.625391     -1.587961
  C      -4.588000     -3.720915     -0.775446
  C       0.217945      1.715821      5.260747
  C       2.057036     -0.035495      5.154093
  C       2.591226      2.392158      4.664159
  H      -1.495278     -4.990379      1.277478
  H       1.032575      2.634624      1.399205
  H      -1.681883     -3.465802     -2.750217
  H      -3.354418     -3.862763     -3.265219
  H      -2.476793     -4.964497     -2.152048
  H      -2.466799     -1.176147     -1.940016
  H      -3.775740     -1.040907     -0.716658
  H      -4.166157     -1.528500     -2.401184
  H      -4.479296     -4.787615     -0.496350
  H      -5.319040     -3.653361     -1.609089
  H      -5.002819     -3.173668      0.095407
  H      -0.557539      0.933578      5.180361
  H      -0.186111      2.648153      4.825040
  H       0.415411      1.899829      6.336474
  H       1.301058     -0.842673      5.091124
  H       2.314176      0.112387      6.223777
  H       2.967451     -0.371188      4.619361
  H       2.221929      3.347194      4.242222
  H       3.515799      2.107293      4.124120
  H       2.849905      2.565209      5.729683
  Si      2.557007     -0.566353     -2.034390
  C       4.186385     -0.156460     -2.926516
  C       2.939997     -1.563153     -0.472507
  C       1.452995     -1.626940     -3.169783
  H       4.831581      0.486410     -2.293006
  H       4.005307      0.383049     -3.879104
  H       4.760032     -1.076097     -3.162731
  H       2.006179     -1.970028     -0.025573
  H       3.422266     -0.942354      0.307424
  H       3.594594     -2.425677     -0.716447
  H       0.678635     -2.150141     -2.568720
  H       2.058939     -2.408412     -3.674906
  H       0.951449     -1.028929     -3.959293
  H      -0.354686      0.320812     -1.837903
  C       1.703522      1.114171     -1.678537
  C       0.205361      1.122813     -1.309948
  H       1.877855      1.713019     -2.602983
  H       2.289829      1.622890     -0.882868
  Si     -0.734926      2.750178     -1.657863
  H       0.055826      0.901560     -0.226255
  C       0.161500      4.230505     -0.867977
  C      -2.484036      2.619037     -0.931220
  C      -0.829305      3.023098     -3.536429
  H       0.083496      4.224440      0.239036
  H      -0.288304      5.185981     -1.210789
  H       1.235781      4.252580     -1.147205
  H      -2.437130      2.472612      0.168904
  H      -3.039592      1.759323     -1.362489
  H      -3.077480      3.536246     -1.127849
  H       0.181247      3.075120     -3.990452
  H      -1.354368      3.970304     -3.778847
  H      -1.377771      2.197516     -4.033433
69
Coordinates from ORCA-job my_molecule E -2464.463072896464
  Pt     -0.308315     -1.280523      1.289521
  O      -0.058151     -0.046742      2.767904
  O      -2.586871     -2.484575      1.501711
  P       1.216807      0.991307      2.769260
  P      -2.112030     -3.191961      0.219487
  O      -1.895806     -4.804824      0.410001
  O      -0.672163     -2.552187     -0.193848
  O       0.537800      2.390329      2.213245
  O       2.408444      0.576977      1.939386
  C       1.521574      1.287683      4.568392
  C      -3.246268     -3.116431     -1.230022
  C      -2.642488     -3.901356     -2.410846
  C      -3.424186     -1.627314     -1.589706
  C      -4.590497     -3.727054     -0.779229
  C       0.218575      1.719284      5.264117
  C       2.055865     -0.033730      5.155483
  C       2.591446      2.393158      4.663413
  H      -1.496393     -4.984419      1.280666
  H       1.027776      2.635371      1.400926
  H      -1.680306     -3.462128     -2.746345
  H      -3.349837     -3.864461     -3.266006
  H      -2.472119     -4.963410     -2.150162
  H      -2.475329     -1.175214     -1.938984
  H      -3.788491     -1.044038     -0.719626
  H      -4.172099     -1.533114     -2.405055
  H      -4.478635     -4.793579     -0.500091
  H      -5.319780     -3.661877     -1.614497
  H      -5.009347     -3.181557      0.090775
  H      -0.557356      0.936896      5.186867
  H      -0.186317      2.650981      4.827369
  H       0.418530      1.905250      6.339172
  H       1.298837     -0.840077      5.094766
  H       2.315381      0.114723      6.224541
  H       2.964782     -0.370920      4.619145
  H       2.222234      3.348447      4.241803
  H       3.514976      2.107336      4.121901
  H       2.851953      2.566239      5.728473
  Si      2.560309     -0.566387     -2.039037
  C       4.188937     -0.158310     -2.933681
  C       2.942773     -1.561324     -0.475869
  C       1.455360     -1.628551     -3.172308
  H       4.836082      0.483852     -2.301302
  H       4.006679      0.381520     -3.885865
  H       4.761168     -1.078609     -3.171231
  H       2.009056     -1.968511     -0.029184
  H       3.424215     -0.939585      0.303642
  H       3.598615     -2.423237     -0.718815
  H       0.679349     -2.148596     -2.570680
  H       2.060485     -2.412687     -3.674366
  H       0.955696     -1.032099     -3.964061
  H      -0.350177      0.320582     -1.838266
  C       1.707762      1.114344     -1.683824
  C       0.210906      1.122040     -1.311229
  H       1.879157      1.712509     -2.609140
  H       2.295507      1.624150     -0.890177
  Si     -0.731470      2.749018     -1.654826
  H       0.064276      0.898001     -0.227644
  C       0.163302      4.228905     -0.862970
  C      -2.479768      2.614072     -0.927270
  C      -0.827602      3.025377     -3.532826
  H       0.083321      4.222330      0.243685
  H      -0.286250      5.184379     -1.206073
  H       1.237926      4.251625     -1.140317
  H      -2.431807      2.465057      0.172634
  H      -3.034559      1.754720     -1.360095
  H      -3.074442      3.530949     -1.121368
  H       0.182534      3.080723     -3.987381
  H      -1.355190      3.971787     -3.773061
  H      -1.374348      2.199466     -4.030999
69
Coordinates from ORCA-job my_molecule E -2464.462977109629
  Pt     -0.301972     -1.287599      1.289787
  O      -0.050796     -0.050839      2.764243
  O      -2.584681     -2.483800      1.500028
  P       1.222910      0.989057      2.767086
  P      -2.110457     -3.194097      0.219148
  O      -1.899467     -4.807529      0.411507
  O      -0.667994     -2.559502     -0.192895
  O       0.542174      2.387100      2.210555
  O       2.416695      0.577502      1.939057
  C       1.524375      1.286205      4.566807
  C      -3.242457     -3.117124     -1.231965
  C      -2.638988     -3.904886     -2.411097
  C      -3.416736     -1.628111     -1.594460
  C      -4.588475     -3.724148     -0.782086
  C       0.219433      1.714930      5.260655
  C       2.060654     -0.034052      5.155042
  C       2.591944      2.394063      4.663345
  H      -1.500378     -4.987529      1.282723
  H       1.033994      2.635019      1.400347
  H      -1.676183     -3.467270     -2.746704
  H      -3.345552     -3.868179     -3.266741
  H      -2.470260     -4.967042     -2.148830
  H      -2.466996     -1.178400     -1.944016
  H      -3.780780     -1.042201     -0.726376
  H      -4.163180     -1.534195     -2.410617
  H      -4.479443     -4.790658     -0.501210
  H      -5.316205     -3.658504     -1.618411
  H      -5.007163     -3.176326      0.086326
  H      -0.553776      0.927374      5.187888
  H      -0.190564      2.643248      4.818281
  H       0.420104      1.907792      6.335310
  H       1.305008     -0.841857      5.094037
  H       2.319152      0.115245      6.224359
  H       2.970628     -0.369731      4.619589
  H       2.221190      3.348720      4.241264
  H       3.516842      2.110276      4.123016
  H       2.850814      2.567551      5.728799
  Si      2.554303     -0.566466     -2.033707
  C       4.182503     -0.156897     -2.928766
  C       2.939556     -1.563290     -0.472239
  C       1.449461     -1.628819     -3.167238
  H       4.829313      0.485786     -2.296245
  H       3.999396      0.383071     -3.880747
  H       4.755540     -1.076793     -3.166755
  H       2.006677     -1.971282     -0.024306
  H       3.422375     -0.942669      0.307260
  H       3.594411     -2.425374     -0.717497
  H       0.675511     -2.151734     -2.565549
  H       2.055406     -2.410648     -3.672073
  H       0.947266     -1.031803     -3.956887
  H      -0.356785      0.322241     -1.834247
  C       1.702058      1.114016     -1.677387
  C       0.204272      1.123934     -1.307615
  H       1.876350      1.713413     -2.601854
  H       2.288943      1.622336     -0.881713
  Si     -0.734416      2.752108     -1.655861
  H       0.054881      0.903175     -0.223818
  C       0.164027      4.230991     -0.866814
  C      -2.483204      2.623677     -0.928822
  C      -0.829055      3.024932     -3.534445
  H       0.087130      4.224181      0.239965
  H      -0.285263      5.186998     -1.208675
  H       1.237778      4.252298     -1.147015
  H      -2.436396      2.477053      0.171394
  H      -3.040230      1.765086     -1.359751
  H      -3.074961      3.541788     -1.125482
  H       0.181780      3.078228     -3.988705
  H      -1.355388      3.971679     -3.776663
  H      -1.376651      2.198285     -4.031533
69
Coordinates from ORCA-job my_molecule E -2464.463250728706
  Pt     -0.301630     -1.288233      1.285211
  O      -0.059646     -0.053556      2.767244
  O      -2.566517     -2.481632      1.502352
  P       1.212722      0.986452      2.767581
  P      -2.103384     -3.192522      0.216074
  O      -1.896068     -4.806606      0.404502
  O      -0.663506     -2.560238     -0.201034
  O       0.534510      2.385802      2.209955
  O       2.405652      0.571917      1.938142
  C       1.518766      1.288298      4.565840
  C      -3.244549     -3.109908     -1.227451
  C      -2.645423     -3.892502     -2.411346
  C      -3.420072     -1.619795     -1.584403
  C      -4.588233     -3.719498     -0.774731
  C       0.215668      1.721491      5.260385
  C       2.053126     -0.031500      5.157241
  C       2.588992      2.394370      4.657511
  H      -1.483420     -4.990145      1.273279
  H       1.026582      2.632444      1.399560
  H      -1.681913     -3.456295     -2.743694
  H      -3.351848     -3.848343     -3.266194
  H      -2.480222     -4.957021     -2.156357
  H      -2.470154     -1.169562     -1.933289
  H      -3.783552     -1.035861     -0.715328
  H      -4.165764     -1.524410     -2.400456
  H      -4.477893     -4.787589     -0.500381
  H      -5.319450     -3.649168     -1.607362
  H      -5.003373     -3.176528      0.098052
  H      -0.559311      0.934449      5.191340
  H      -0.193667      2.649395      4.815202
  H       0.418703      1.917595      6.334403
  H       1.295600     -0.837963      5.099248
  H       2.313402      0.120133      6.225922
  H       2.961832     -0.370461      4.621571
  H       2.219487      3.348667      4.232991
  H       3.512521      2.107163      4.116427
  H       2.850187      2.570556      5.722102
  Si      2.561074     -0.568261     -2.038878
  C       4.193322     -0.160576     -2.926220
  C       2.939746     -1.564603     -0.475132
  C       1.457754     -1.627478     -3.175757
  H       4.839262      0.479276     -2.289622
  H       4.015304      0.381873     -3.877924
  H       4.764954     -1.081599     -3.163469
  H       2.006084     -1.971674     -0.028781
  H       3.421377     -0.943518      0.304808
  H       3.593388     -2.428355     -0.717139
  H       0.681541     -2.148662     -2.575586
  H       2.063135     -2.410504     -3.679467
  H       0.958555     -1.029116     -3.966432
  H      -0.348961      0.317856     -1.847416
  C       1.708013      1.112388     -1.685123
  C       0.210046      1.118061     -1.314857
  H       1.880870      1.711280     -2.609947
  H       2.294590      1.621786     -0.889697
  Si     -0.734121      2.745230     -1.654150
  H       0.062423      0.891877     -0.231672
  C       0.160786      4.225253     -0.863259
  C      -2.479918      2.607714     -0.922027
  C      -0.834622      3.024255     -3.531378
  H       0.080811      4.219347      0.243634
  H      -0.288659      5.180390     -1.207114
  H       1.235216      4.247486     -1.140750
  H      -2.428998      2.455005      0.177143
  H      -3.035939      1.750057     -1.355471
  H      -3.074490      3.525282     -1.111794
  H       0.174612      3.081212     -3.988137
  H      -1.363468      3.970819     -3.768792
  H      -1.381842      2.198504     -4.029703
69
Coordinates from ORCA-job my_molecule E -2464.463344693275
  Pt     -0.294773     -1.295391      1.281266
  O      -0.062559     -0.056966      2.764954
  O      -2.542792     -2.485016      1.505802
  P       1.208546      0.983559      2.765761
  P      -2.092006     -3.197228      0.214445
  O      -1.894852     -4.812691      0.398642
  O      -0.652397     -2.571495     -0.205888
  O       0.531012      2.383372      2.206866
  O       2.402887      0.568704      1.937139
  C       1.514787      1.286623      4.563727
  C      -3.241529     -3.103509     -1.221535
  C      -2.652256     -3.884367     -2.411383
  C      -3.411015     -1.610795     -1.571340
  C      -4.585699     -3.708589     -0.764214
  C       0.211755      1.720895      5.257571
  C       2.048623     -0.033140      5.155671
  C       2.585547      2.392092      4.654747
  H      -1.476891     -5.000438      1.264242
  H       1.024517      2.629987      1.397207
  H      -1.687511     -3.452433     -2.744684
  H      -3.361562     -3.831890     -3.263384
  H      -2.492505     -4.951117     -2.162677
  H      -2.460238     -1.163293     -1.922139
  H      -3.767910     -1.027991     -0.698459
  H      -4.159697     -1.509042     -2.384321
  H      -4.479023     -4.778167     -0.494771
  H      -5.320985     -3.631690     -1.592635
  H      -4.993646     -3.166865      0.112690
  H      -0.564745      0.938358      5.181911
  H      -0.192442      2.651762      4.817490
  H       0.411371      1.909698      6.332426
  H       1.291203     -0.839518      5.096753
  H       2.307865      0.118327      6.224529
  H       2.957960     -0.371993      4.620838
  H       2.216585      3.346208      4.229394
  H       3.508952      2.103968      4.113868
  H       2.846850      2.568943      5.719190
  Si      2.563622     -0.567951     -2.038304
  C       4.198396     -0.160385     -2.920335
  C       2.939435     -1.565774     -0.474864
  C       1.460103     -1.622233     -3.178645
  H       4.842797      0.478537     -2.281121
  H       4.024085      0.382689     -3.872447
  H       4.770067     -1.081768     -3.155874
  H       2.004881     -1.971979     -0.029276
  H       3.420825     -0.945166      0.305620
  H       3.591819     -2.430698     -0.715785
  H       0.684472     -2.144905     -2.579210
  H       2.064433     -2.403607     -3.686011
  H       0.960341     -1.020718     -3.966579
  H      -0.345607      0.314939     -1.854937
  C       1.709436      1.112687     -1.683424
  C       0.210023      1.115729     -1.318228
  H       1.884825      1.713054     -2.606481
  H       2.293728      1.620288     -0.885123
  Si     -0.736796      2.741346     -1.658064
  H       0.060227      0.888630     -0.235761
  C       0.155037      4.223568     -0.866888
  C      -2.482660      2.600327     -0.926364
  C      -0.837121      3.019487     -3.535204
  H       0.074047      4.218156      0.240258
  H      -0.295649      5.177766     -1.211799
  H       1.229845      4.247185     -1.143444
  H      -2.431498      2.447747      0.172652
  H      -3.036870      1.741470     -1.360238
  H      -3.079314      3.516763     -1.115977
  H       0.171795      3.075673     -3.991708
  H      -1.365463      3.966052     -3.773146
  H      -1.384688      2.194217     -4.032993
69
Coordinates from ORCA-job my_molecule E -2464.463315697981
  Pt     -0.287844     -1.304530      1.277791
  O      -0.057431     -0.062639      2.762569
  O      -2.529164     -2.486484      1.505962
  P       1.211757      0.979547      2.764105
  P      -2.086313     -3.200930      0.211799
  O      -1.896144     -4.817535      0.394606
  O      -0.646226     -2.580430     -0.210487
  O       0.533334      2.378909      2.204161
  O       2.408396      0.566421      1.937236
  C       1.516382      1.285735      4.562002
  C      -3.239480     -3.101238     -1.220959
  C      -2.654179     -3.882045     -2.412341
  C      -3.404688     -1.608057     -1.569370
  C      -4.584758     -3.702752     -0.762634
  C       0.212061      1.718500      5.254214
  C       2.052030     -0.032290      5.156548
  C       2.585503      2.393293      4.652224
  H      -1.471963     -5.008861      1.259322
  H       1.028345      2.627620      1.396074
  H      -1.689000     -3.452246     -2.746486
  H      -3.364590     -3.826951     -3.263050
  H      -2.496639     -4.949365     -2.165192
  H      -2.452920     -1.163717     -1.921326
  H      -3.758598     -1.023988     -0.696676
  H      -4.153251     -1.504287     -2.381660
  H      -4.481137     -4.773093     -0.495374
  H      -5.321055     -3.621854     -1.589721
  H      -4.989503     -3.161213      0.115645
  H      -0.562453      0.931104      5.183661
  H      -0.196739      2.646150      4.808003
  H       0.412962      1.914723      6.328627
  H       1.295766     -0.840056      5.098215
  H       2.310468      0.121137      6.225447
  H       2.962280     -0.370352      4.622896
  H       2.215305      3.346205      4.224874
  H       3.509809      2.105830      4.112562
  H       2.845958      2.572345      5.716627
  Si      2.560363     -0.568197     -2.033624
  C       4.196695     -0.158758     -2.911365
  C       2.936251     -1.570001     -0.472176
  C       1.457465     -1.619114     -3.177492
  H       4.838898      0.480167     -2.270096
  H       4.024570      0.384724     -3.863633
  H       4.769568     -1.079650     -3.145619
  H       2.001863     -1.976979     -0.026559
  H       3.418841     -0.951130      0.309036
  H       3.586837     -2.435714     -0.714939
  H       0.682430     -2.144547     -2.579618
  H       2.062176     -2.398124     -3.688080
  H       0.956921     -1.014819     -3.962952
  H      -0.348996      0.314338     -1.854104
  C       1.705927      1.112168     -1.676526
  C       0.204891      1.115915     -1.316071
  H       1.885395      1.714746     -2.597822
  H       2.288536      1.616798     -0.874657
  Si     -0.740435      2.741573     -1.660475
  H       0.051732      0.891106     -0.233425
  C       0.152225      4.224226     -0.870676
  C      -2.487238      2.603696     -0.930426
  C      -0.838457      3.016586     -3.538095
  H       0.073212      4.217964      0.236626
  H      -0.299433      5.178468     -1.214272
  H       1.226579      4.248175     -1.149181
  H      -2.437738      2.452259      0.168771
  H      -3.042338      1.745343     -1.363960
  H      -3.081973      3.520823     -1.121566
  H       0.171020      3.070290     -3.993888
  H      -1.364875      3.963695     -3.777962
  H      -1.387191      2.191366     -4.035068
69
Coordinates from ORCA-job my_molecule E -2464.463460854635
  Pt     -0.298770     -1.296872      1.277836
  O      -0.067907     -0.059314      2.770914
  O      -2.534276     -2.486927      1.507287
  P       1.202310      0.981503      2.768377
  P      -2.090541     -3.197528      0.210457
  O      -1.892853     -4.814063      0.389961
  O      -0.653991     -2.570383     -0.213258
  O       0.525289      2.381753      2.209293
  O       2.395622      0.565022      1.937809
  C       1.514158      1.290195      4.564658
  C      -3.245811     -3.100018     -1.221198
  C      -2.657824     -3.876443     -2.414054
  C      -3.416792     -1.607100     -1.567387
  C      -4.588461     -3.707500     -0.763561
  C       0.212756      1.725752      5.260563
  C       2.049788     -0.027639      5.159991
  C       2.585644      2.396330      4.649120
  H      -1.466736     -5.005729      1.254636
  H       1.018242      2.628406      1.399373
  H      -1.693450     -3.443407     -2.746958
  H      -3.368246     -3.821842     -3.264902
  H      -2.497129     -4.943517     -2.168742
  H      -2.466086     -1.159078     -1.917216
  H      -3.774122     -1.025673     -0.694626
  H      -4.164157     -1.505224     -2.380736
  H      -4.480653     -4.777907     -0.498582
  H      -5.325447     -3.627717     -1.590180
  H      -4.994986     -3.169352      0.115883
  H      -0.563013      0.936537      5.197295
  H      -0.198792      2.652174      4.810810
  H       0.419641      1.927557      6.333996
  H       1.291744     -0.834281      5.105981
  H       2.312592      0.127322      6.227782
  H       2.957424     -0.368234      4.623654
  H       2.215563      3.349063      4.221027
  H       3.507647      2.106421      4.106889
  H       2.850305      2.576992      5.712414
  Si      2.567593     -0.569874     -2.040924
  C       4.205343     -0.162740     -2.916531
  C       2.939528     -1.569166     -0.476913
  C       1.465010     -1.620901     -3.185072
  H       4.847055      0.475733     -2.275094
  H       4.035206      0.380258     -3.869235
  H       4.777542     -1.084041     -3.149270
  H       2.004462     -1.976067     -0.032967
  H       3.420140     -0.948660      0.304256
  H       3.591253     -2.434717     -0.716537
  H       0.686910     -2.142524     -2.587822
  H       2.069056     -2.403122     -3.691619
  H       0.968114     -1.017441     -3.973686
  H      -0.341126      0.311343     -1.859290
  C       1.713370      1.111066     -1.685990
  C       0.213646      1.111982     -1.320420
  H       1.889034      1.713152     -2.609172
  H       2.297483      1.617947     -0.886054
  Si     -0.736616      2.736670     -1.656337
  H       0.065319      0.882404     -0.237813
  C       0.152063      4.219939     -0.862580
  C      -2.482025      2.590263     -0.924215
  C      -0.837854      3.018372     -3.532936
  H       0.068595      4.214347      0.244445
  H      -0.299274      5.173708     -1.208131
  H       1.227673      4.245118     -1.137099
  H      -2.430235      2.434307      0.174259
  H      -3.035203      1.731998     -1.360654
  H      -3.079759      3.506327     -1.110412
  H       0.171090      3.076977     -3.989643
  H      -1.367381      3.964738     -3.768414
  H      -1.384697      2.193325     -4.032732
69
Coordinates from ORCA-job my_molecule E -2464.463436729136
  Pt     -0.303383     -1.289119      1.275695
  O      -0.065649     -0.057330      2.774628
  O      -2.544755     -2.481831      1.503264
  P       1.203384      0.984038      2.770340
  P      -2.096767     -3.192231      0.207834
  O      -1.890405     -4.807597      0.389950
  O      -0.662997     -2.558854     -0.216838
  O       0.525538      2.383971      2.211784
  O       2.395951      0.567434      1.938832
  C       1.516507      1.293599      4.566189
  C      -3.250248     -3.102805     -1.226107
  C      -2.654817     -3.877468     -2.415862
  C      -3.427928     -1.611617     -1.575166
  C      -4.590793     -3.716767     -0.770859
  C       0.215798      1.730677      5.262327
  C       2.051649     -0.024216      5.161891
  C       2.588684      2.399223      4.649373
  H      -1.464851     -4.996638      1.256780
  H       1.017874      2.631817      1.402047
  H      -1.691275     -3.440928     -2.744484
  H      -3.361624     -3.826372     -3.269557
  H      -2.490852     -4.943781     -2.169254
  H      -2.477873     -1.161638     -1.924789
  H      -3.788744     -1.029665     -0.703957
  H      -4.174493     -1.514342     -2.390170
  H      -4.478035     -4.786342     -0.504935
  H      -5.326447     -3.641014     -1.599111
  H      -5.002094     -3.180429      0.107423
  H      -0.561470      0.945116      5.194802
  H      -0.191809      2.659444      4.816555
  H       0.420992      1.927277      6.336182
  H       1.293086     -0.830383      5.108747
  H       2.315168      0.131247      6.229406
  H       2.958843     -0.365715      4.625210
  H       2.218719      3.352010      4.221223
  H       3.510144      2.108646      4.106419
  H       2.854315      2.580172      5.712373
  Si      2.567857     -0.573399     -2.041253
  C       4.204362     -0.164666     -2.917688
  C       2.941957     -1.572338     -0.477195
  C       1.466157     -1.625945     -3.185160
  H       4.848018      0.471736     -2.275255
  H       4.032856      0.381233     -3.868717
  H       4.775428     -1.086248     -3.153945
  H       2.007901     -1.981102     -0.033755
  H       3.421632     -0.950798      0.303652
  H       3.594690     -2.436723     -0.717267
  H       0.685875     -2.145955     -2.589113
  H       2.071292     -2.409648     -3.688158
  H       0.971784     -1.023705     -3.976422
  H      -0.342472      0.311213     -1.855481
  C       1.713162      1.108413     -1.687110
  C       0.214267      1.111951     -1.318257
  H       1.887267      1.707481     -2.612251
  H       2.299991      1.616136     -0.890133
  Si     -0.735561      2.737556     -1.652276
  H       0.067978      0.883273     -0.234770
  C       0.154898      4.219626     -0.858713
  C      -2.479974      2.590989     -0.917912
  C      -0.839329      3.021269     -3.528340
  H       0.071634      4.214403      0.248151
  H      -0.295590      5.173822     -1.204281
  H       1.230477      4.243715     -1.133449
  H      -2.426610      2.436038      0.180337
  H      -3.032818      1.731963     -1.352887
  H      -3.078948      3.506646     -1.103951
  H       0.168813      3.080614     -3.986582
  H      -1.369398      3.967871     -3.761762
  H      -1.386941      2.196988     -4.028240
69
Coordinates from ORCA-job my_molecule E -2464.463479473862
  Pt     -0.295216     -1.299968      1.274988
  O      -0.068370     -0.058461      2.769578
  O      -2.523562     -2.490819      1.508883
  P       1.201581      0.981234      2.767585
  P      -2.085379     -3.201413      0.209216
  O      -1.892108     -4.818819      0.386172
  O      -0.648831     -2.577299     -0.215568
  O       0.527143      2.382539      2.207275
  O       2.395222      0.562669      1.938380
  C       1.512144      1.290953      4.563757
  C      -3.244138     -3.098804     -1.219748
  C      -2.658462     -3.873870     -2.414052
  C      -3.413071     -1.605093     -1.563838
  C      -4.587034     -3.705072     -0.761070
  C       0.210950      1.730555      5.257393
  C       2.044061     -0.027582      5.160565
  C       2.585713      2.394888      4.648486
  H      -1.462617     -5.013418      1.249359
  H       1.020035      2.627722      1.396932
  H      -1.692428     -3.443953     -2.741714
  H      -3.366021     -3.812644     -3.266149
  H      -2.503354     -4.943217     -2.173522
  H      -2.461356     -1.159079     -1.914497
  H      -3.768114     -1.023448     -0.689754
  H      -4.161526     -1.500882     -2.376487
  H      -4.480487     -4.776229     -0.498819
  H      -5.325379     -3.622097     -1.586166
  H      -4.991209     -3.168299      0.120204
  H      -0.567711      0.948396      5.185627
  H      -0.192153      2.660984      4.813416
  H       0.412778      1.923577      6.331729
  H       1.284441     -0.832554      5.106042
  H       2.305703      0.127630      6.228520
  H       2.951800     -0.370572      4.625650
  H       2.217757      3.348302      4.219953
  H       3.507490      2.102922      4.106634
  H       2.850056      2.575307      5.711812
  Si      2.568152     -0.570859     -2.041076
  C       4.206987     -0.164271     -2.914178
  C       2.938668     -1.571120     -0.476831
  C       1.465384     -1.619829     -3.187027
  H       4.852336      0.469211     -2.268733
  H       4.037906      0.384579     -3.864435
  H       4.775837     -1.087799     -3.152048
  H       2.003498     -1.977505     -0.033279
  H       3.419755     -0.950974      0.304319
  H       3.588808     -2.437753     -0.716123
  H       0.687284     -2.142343     -2.590492
  H       2.069066     -2.401341     -3.695113
  H       0.968347     -1.014825     -3.974550
  H      -0.340472      0.311564     -1.860022
  C       1.713486      1.111224     -1.686275
  C       0.213632      1.112768     -1.321001
  H       1.889602      1.712298     -2.609599
  H       2.298034      1.617099     -0.886611
  Si     -0.738100      2.736878     -1.656214
  H       0.065302      0.882783     -0.238560
  C       0.150978      4.220339     -0.864497
  C      -2.481641      2.589413     -0.920711
  C      -0.843144      3.018232     -3.532484
  H       0.068293      4.214976      0.242233
  H      -0.300602      5.173917     -1.210248
  H       1.226164      4.245246     -1.139673
  H      -2.426772      2.435857      0.177222
  H      -3.033531      1.729491     -1.354027
  H      -3.082500      3.504330     -1.107372
  H       0.165294      3.078904     -3.990964
  H      -1.375249      3.963680     -3.766982
  H      -1.389144      2.191744     -4.031422
69
Coordinates from ORCA-job my_molecule E -2464.463460480512
  Pt     -0.288437     -1.308270      1.274250
  O      -0.066071     -0.061374      2.765582
  O      -2.511881     -2.494164      1.510973
  P       1.203618      0.978401      2.765741
  P      -2.079518     -3.206339      0.209879
  O      -1.895036     -4.824617      0.385691
  O      -0.640868     -2.588532     -0.215062
  O       0.529427      2.379877      2.205158
  O       2.398836      0.560706      1.938209
  C       1.511874      1.288257      4.562328
  C      -3.240683     -3.096582     -1.216413
  C      -2.660945     -3.872806     -2.412783
  C      -3.403708     -1.601804     -1.558205
  C      -4.585530     -3.697190     -0.755969
  C       0.209773      1.727442      5.254446
  C       2.043352     -0.030115      5.159797
  C       2.585170      2.392371      4.648341
  H      -1.462870     -5.021988      1.247107
  H       1.022483      2.624727      1.394851
  H      -1.693833     -3.446694     -2.743281
  H      -3.371029     -3.808407     -3.262795
  H      -2.509248     -4.942539     -2.173188
  H      -2.450937     -1.158727     -1.909748
  H      -3.755107     -1.019722     -0.682966
  H      -4.153039     -1.493776     -2.369585
  H      -4.483357     -4.768976     -0.495021
  H      -5.325096     -3.610056     -1.579621
  H      -4.985551     -3.159405      0.126586
  H      -0.568029      0.943471      5.184395
  H      -0.194823      2.656433      4.807679
  H       0.411421      1.923574      6.328664
  H       1.283960     -0.835252      5.104283
  H       2.303660      0.125128      6.228092
  H       2.951789     -0.372864      4.626011
  H       2.217718      3.345559      4.219058
  H       3.507632      2.100380      4.107856
  H       2.848105      2.573149      5.711989
  Si      2.566759     -0.569007     -2.038739
  C       4.206348     -0.161320     -2.909681
  C       2.936811     -1.571282     -0.475721
  C       1.464303     -1.615803     -3.186600
  H       4.848073      0.475044     -2.265088
  H       4.038863      0.383983     -3.861815
  H       4.777653     -1.083579     -3.143068
  H       2.001157     -1.976805     -0.031872
  H       3.418923     -0.952540      0.305883
  H       3.585494     -2.438769     -0.715823
  H       0.687407     -2.140603     -2.590396
  H       2.067860     -2.395331     -3.697724
  H       0.965841     -1.008930     -3.971746
  H      -0.341837      0.311723     -1.861397
  C       1.711503      1.112572     -1.682414
  C       0.210512      1.113654     -1.321053
  H       1.890235      1.715460     -2.604030
  H       2.294160      1.616646     -0.880204
  Si     -0.740666      2.737191     -1.660120
  H       0.059573      0.884397     -0.238796
  C       0.147135      4.221884     -0.868118
  C      -2.486140      2.590465     -0.927736
  C      -0.842353      3.015509     -3.537159
  H       0.065298      4.215270      0.238818
  H      -0.306013      5.175241     -1.212605
  H       1.222377      4.248460     -1.144111
  H      -2.433860      2.436088      0.170624
  H      -3.038405      1.731118     -1.363080
  H      -3.085393      3.505964     -1.114813
  H       0.166420      3.072359     -3.994312
  H      -1.371299      3.961725     -3.774624
  H      -1.389960      2.189939     -4.034809
69
Coordinates from ORCA-job my_molecule E -2464.463230795275
  Pt     -0.288387     -1.307730      1.273019
  O      -0.050691     -0.066430      2.771232
  O      -2.528446     -2.489905      1.505127
  P       1.214914      0.978542      2.768971
  P      -2.089400     -3.202546      0.206193
  O      -1.897490     -4.820476      0.385309
  O      -0.652231     -2.579790     -0.218260
  O       0.533384      2.376328      2.208500
  O       2.411737      0.566246      1.941289
  C       1.522306      1.291330      4.565464
  C      -3.244308     -3.100565     -1.226282
  C      -2.655229     -3.878057     -2.417243
  C      -3.410470     -1.607448     -1.573854
  C      -4.589263     -3.704522     -0.771183
  C       0.218676      1.725624      5.257373
  C       2.059984     -0.023996      5.164296
  C       2.591050      2.400445      4.649761
  H      -1.471493     -5.015710      1.251182
  H       1.027441      2.627635      1.401077
  H      -1.689570     -3.447260     -2.745574
  H      -3.362157     -3.821521     -3.270370
  H      -2.497824     -4.945675     -2.172299
  H      -2.457124     -1.164897     -1.924449
  H      -3.765749     -1.022033     -0.702134
  H      -4.157115     -1.504183     -2.388557
  H      -4.484600     -4.775115     -0.506301
  H      -5.324668     -3.622375     -1.599052
  H      -4.995847     -3.165584      0.107573
  H      -0.555902      0.938343      5.188338
  H      -0.189830      2.652355      4.809502
  H       0.419926      1.923873      6.331400
  H       1.303887     -0.832504      5.110279
  H       2.320621      0.133602      6.232339
  H       2.969517     -0.363306      4.630247
  H       2.218729      3.351759      4.220147
  H       3.514365      2.112443      4.108408
  H       2.854565      2.582949      5.713222
  Si      2.560018     -0.573103     -2.031395
  C       4.195745     -0.159571     -2.906091
  C       2.938700     -1.578752     -0.472426
  C       1.457268     -1.619988     -3.179733
  H       4.836847      0.478440     -2.263042
  H       4.024451      0.385328     -3.857583
  H       4.769272     -1.079781     -3.140892
  H       2.005252     -1.988784     -0.028272
  H       3.421015     -0.960475      0.309269
  H       3.588711     -2.443425     -0.717344
  H       0.679519     -2.145528     -2.585189
  H       2.062155     -2.399079     -3.690289
  H       0.959513     -1.012632     -3.965215
  H      -0.350880      0.311318     -1.849350
  C       1.704465      1.108576     -1.670013
  C       0.202575      1.114825     -1.311893
  H       1.887728      1.712654     -2.590631
  H       2.287662      1.608828     -0.865373
  Si     -0.743347      2.740023     -1.659316
  H       0.048826      0.893113     -0.228349
  C       0.147329      4.223612     -0.867167
  C      -2.492434      2.600083     -0.932351
  C      -0.838489      3.014719     -3.537434
  H       0.068392      4.215393      0.240073
  H      -0.306416      5.177851     -1.208844
  H       1.222272      4.250072     -1.145942
  H      -2.444896      2.450483      0.166985
  H      -3.044965      1.739708     -1.366453
  H      -3.089374      3.516113     -1.125268
  H       0.171330      3.065990     -3.992452
  H      -1.362361      3.962753     -3.778154
  H      -1.389191      2.191391     -4.034558
69
Coordinates from ORCA-job my_molecule E -2464.463355521971
  Pt     -0.288157     -1.311185      1.273264
  O      -0.060180     -0.063579      2.769616
  O      -2.515358     -2.497141      1.510368
  P       1.207724      0.978165      2.768165
  P      -2.082519     -3.208145      0.207638
  O      -1.897141     -4.827368      0.381713
  O      -0.644588     -2.589103     -0.216925
  O       0.530706      2.378190      2.207465
  O       2.403417      0.562149      1.940325
  C       1.516784      1.290918      4.564334
  C      -3.241942     -3.097459     -1.220709
  C      -2.659421     -3.873527     -2.416069
  C      -3.404218     -1.602409     -1.563265
  C      -4.587482     -3.698122     -0.763240
  C       0.214545      1.729042      5.256477
  C       2.050925     -0.025658      5.163599
  C       2.588614      2.397080      4.647859
  H      -1.467990     -5.026408      1.244449
  H       1.023723      2.625541      1.398162
  H      -1.692185     -3.446487     -2.744506
  H      -3.367798     -3.809876     -3.267546
  H      -2.507015     -4.943160     -2.176044
  H      -2.450503     -1.160692     -1.913852
  H      -3.756575     -1.018824     -0.689023
  H      -4.152036     -1.494578     -2.376307
  H      -4.485778     -4.770003     -0.502033
  H      -5.325111     -3.611013     -1.588509
  H      -4.989401     -3.160246      0.118258
  H      -0.562274      0.943865      5.187786
  H      -0.191457      2.656837      4.808454
  H       0.416610      1.926961      6.330478
  H       1.292479     -0.832019      5.110260
  H       2.312473      0.131661      6.231514
  H       2.959245     -0.367824      4.629320
  H       2.218721      3.349364      4.218173
  H       3.510888      2.106401      4.106027
  H       2.853197      2.579041      5.711203
  Si      2.563940     -0.571450     -2.035589
  C       4.201960     -0.161203     -2.907533
  C       2.937775     -1.575604     -0.474642
  C       1.460792     -1.616989     -3.184550
  H       4.843145      0.475885     -2.263522
  H       4.033344      0.383639     -3.859541
  H       4.774212     -1.082618     -3.141024
  H       2.003047     -1.983227     -0.030881
  H       3.419996     -0.957240      0.307006
  H       3.586586     -2.441927     -0.716921
  H       0.683502     -2.142341     -2.589427
  H       2.064399     -2.396188     -3.696478
  H       0.962500     -1.008858     -3.969044
  H      -0.345258      0.310920     -1.855897
  C       1.708591      1.110634     -1.675927
  C       0.207046      1.113932     -1.316692
  H       1.890260      1.715086     -2.596802
  H       2.291306      1.611927     -0.871427
  Si     -0.742571      2.737697     -1.659877
  H       0.054759      0.887916     -0.234033
  C       0.145187      4.222598     -0.866837
  C      -2.490522      2.592449     -0.931013
  C      -0.840489      3.014184     -3.537723
  H       0.064216      4.214710      0.240286
  H      -0.309032      5.176175     -1.209735
  H       1.220619      4.250287     -1.143725
  H      -2.441033      2.440025      0.167984
  H      -3.042010      1.732132     -1.366738
  H      -3.089663      3.507813     -1.120742
  H       0.168922      3.067975     -3.993579
  H      -1.366654      3.961267     -3.777212
  H      -1.389794      2.190004     -4.035049
69
Coordinates from ORCA-job my_molecule E -2464.463437388722
  Pt     -0.282820     -1.316783      1.272589
  O      -0.064177     -0.063552      2.763422
  O      -2.500185     -2.501438      1.514509
  P       1.204966      0.976238      2.765031
  P      -2.074556     -3.213441      0.209766
  O      -1.897402     -4.833285      0.381949
  O      -0.635101     -2.600097     -0.215974
  O       0.531764      2.378267      2.203724
  O       2.401530      0.558243      1.939059
  C       1.511570      1.287960      4.561652
  C      -3.238386     -3.094986     -1.213832
  C      -2.662947     -3.870546     -2.412882
  C      -3.395619     -1.598638     -1.551987
  C      -4.585043     -3.691195     -0.753347
  C       0.208389      1.726653      5.251943
  C       2.043722     -0.029539      5.160905
  C       2.584057      2.393263      4.647589
  H      -1.463301     -5.035133      1.241565
  H       1.024758      2.622978      1.393428
  H      -1.694370     -3.447662     -2.743716
  H      -3.373825     -3.801345     -3.261878
  H      -2.514944     -4.941476     -2.175855
  H      -2.441492     -1.158660     -1.903743
  H      -3.743749     -1.016368     -0.675420
  H      -4.145180     -1.486274     -2.362649
  H      -4.487027     -4.764065     -0.495241
  H      -5.325099     -3.598850     -1.575849
  H      -4.981729     -3.153857      0.130860
  H      -0.568952      0.942500      5.180640
  H      -0.195802      2.655464      4.804644
  H       0.408380      1.922727      6.326394
  H       1.284903     -0.835430      5.105355
  H       2.303121      0.126766      6.229347
  H       2.953004     -0.371915      4.628240
  H       2.215719      3.346092      4.217653
  H       3.507082      2.101970      4.107365
  H       2.846781      2.574578      5.711357
  Si      2.565369     -0.568820     -2.036867
  C       4.205712     -0.160146     -2.905491
  C       2.935829     -1.573853     -0.475483
  C       1.462536     -1.612652     -3.187299
  H       4.847659      0.474632     -2.258942
  H       4.039298      0.387086     -3.856846
  H       4.776518     -1.082756     -3.140052
  H       2.000104     -1.979347     -0.031464
  H       3.419072     -0.956553      0.306551
  H       3.582727     -2.442123     -0.717059
  H       0.686028     -2.139313     -2.592274
  H       2.065647     -2.390634     -3.701418
  H       0.963360     -1.003183     -3.970039
  H      -0.342949      0.311550     -1.863314
  C       1.709718      1.112764     -1.678192
  C       0.207413      1.114044     -1.320970
  H       1.891980      1.717934     -2.598273
  H       2.290904      1.614165     -0.872627
  Si     -0.743022      2.737371     -1.662947
  H       0.054050      0.885367     -0.238989
  C       0.144622      4.222482     -0.871196
  C      -2.489134      2.592041     -0.931915
  C      -0.842886      3.013798     -3.540337
  H       0.063761      4.214765      0.235875
  H      -0.309619      5.175741     -1.214592
  H       1.219677      4.250003     -1.148011
  H      -2.437599      2.439685      0.166332
  H      -3.040839      1.732064     -1.366333
  H      -3.088674      3.507340     -1.120746
  H       0.166648      3.071026     -3.996723
  H      -1.372342      3.959440     -3.779081
  H      -1.389604      2.186917     -4.037891
69
Coordinates from ORCA-job my_molecule E -2464.463686288927
  Pt     -0.289186     -1.308820      1.272666
  O      -0.079423     -0.061966      2.765216
  O      -2.490704     -2.498504      1.517538
  P       1.190314      0.976812      2.765107
  P      -2.070705     -3.209579      0.210763
  O      -1.892902     -4.828359      0.381868
  O      -0.634488     -2.593561     -0.219048
  O       0.518607      2.380459      2.205254
  O       2.384546      0.556384      1.935973
  C       1.502915      1.287511      4.560638
  C      -3.241699     -3.089357     -1.205703
  C      -2.671011     -3.859443     -2.410889
  C      -3.402334     -1.591811     -1.535930
  C      -4.585320     -3.689400     -0.740855
  C       0.202303      1.728020      5.254888
  C       2.033990     -0.031502      5.157516
  C       2.578009      2.390106      4.644313
  H      -1.456261     -5.028754      1.238461
  H       1.011018      2.623680      1.394066
  H      -1.702387     -3.436390     -2.743673
  H      -3.385451     -3.785373     -3.257137
  H      -2.523078     -4.931249     -2.179217
  H      -2.450038     -1.147202     -1.887165
  H      -3.749575     -1.015208     -0.655427
  H      -4.154210     -1.477008     -2.344235
  H      -4.484477     -4.762833     -0.487589
  H      -5.329930     -3.594972     -1.559201
  H      -4.978481     -3.156204      0.147608
  H      -0.576687      0.944495      5.186036
  H      -0.202224      2.657633      4.808337
  H       0.406157      1.923932      6.328943
  H       1.273561     -0.835811      5.102911
  H       2.296089      0.123224      6.225389
  H       2.941356     -0.375137      4.622375
  H       2.211374      3.343564      4.214813
  H       3.499185      2.096256      4.102652
  H       2.843057      2.571108      5.707379
  Si      2.576309     -0.567827     -2.045716
  C       4.219591     -0.162035     -2.910208
  C       2.940502     -1.569019     -0.480943
  C       1.474989     -1.611455     -3.196573
  H       4.858345      0.474117     -2.263945
  H       4.057267      0.382005     -3.863529
  H       4.791199     -1.084328     -3.139591
  H       2.003491     -1.972952     -0.038209
  H       3.421029     -0.949681      0.301110
  H       3.588998     -2.437680     -0.717745
  H       0.695747     -2.134285     -2.601659
  H       2.077061     -2.392157     -3.707229
  H       0.979410     -1.002877     -3.981863
  H      -0.331335      0.307442     -1.879275
  C       1.719195      1.112777     -1.691028
  C       0.217543      1.107991     -1.331332
  H       1.897320      1.717024     -2.612194
  H       2.299747      1.617842     -0.887171
  Si     -0.738837      2.729843     -1.662832
  H       0.068121      0.871845     -0.250054
  C       0.143232      4.216419     -0.866583
  C      -2.482817      2.573903     -0.929313
  C      -0.842171      3.013899     -3.538708
  H       0.056060      4.210527      0.240272
  H      -0.310292      5.168610     -1.213785
  H       1.219909      4.245163     -1.137530
  H      -2.428587      2.414962      0.168054
  H      -3.032708      1.714563     -1.368165
  H      -3.085171      3.488107     -1.111264
  H       0.166398      3.076904     -3.995767
  H      -1.375230      3.958498     -3.772605
  H      -1.386226      2.187113     -4.039267
69
Coordinates from ORCA-job my_molecule E -2464.463450134293
  Pt     -0.279369     -1.308934      1.272616
  O      -0.056803     -0.081451      2.767074
  O      -2.496651     -2.481304      1.508758
  P       1.202284      0.970968      2.764245
  P      -2.075939     -3.199105      0.207448
  O      -1.895221     -4.815128      0.389483
  O      -0.641677     -2.581315     -0.227052
  O       0.514385      2.366874      2.203547
  O       2.402072      0.563686      1.936240
  C       1.511076      1.284908      4.559952
  C      -3.245281     -3.087304     -1.209199
  C      -2.671170     -3.857351     -2.414076
  C      -3.408906     -1.590762     -1.540252
  C      -4.587968     -3.690534     -0.744219
  C       0.204712      1.709200      5.254141
  C       2.058510     -0.028336      5.156196
  C       2.573220      2.400340      4.644042
  H      -1.471045     -5.007276      1.249448
  H       1.012696      2.624536      1.400773
  H      -1.703072     -3.431541     -2.747730
  H      -3.386182     -3.785958     -3.261451
  H      -2.519457     -4.928595     -2.180693
  H      -2.456736     -1.144056     -1.889639
  H      -3.759419     -1.014663     -0.661146
  H      -4.158640     -1.478255     -2.350821
  H      -4.484044     -4.762383     -0.487786
  H      -5.331979     -3.600594     -1.563658
  H      -4.984266     -3.156539      0.142500
  H      -0.564968      0.916479      5.184193
  H      -0.210947      2.634564      4.808236
  H       0.405777      1.906152      6.328253
  H       1.308243     -0.842310      5.099696
  H       2.317500      0.128168      6.224357
  H       2.971099     -0.359674      4.621666
  H       2.194990      3.349863      4.214940
  H       3.498100      2.117702      4.102293
  H       2.836243      2.583649      5.707026
  Si      2.571611     -0.569389     -2.035774
  C       4.212996     -0.155735     -2.900782
  C       2.944407     -1.576167     -0.476462
  C       1.472389     -1.611736     -3.188294
  H       4.848968      0.482466     -2.254107
  H       4.048254      0.388548     -3.853440
  H       4.788687     -1.075175     -3.131103
  H       2.009988     -1.985310     -0.032003
  H       3.425163     -0.958284      0.306318
  H       3.595030     -2.442184     -0.719251
  H       0.691625     -2.135231     -2.595767
  H       2.075985     -2.391288     -3.698146
  H       0.979142     -1.002486     -3.973593
  H      -0.338561      0.302516     -1.882705
  C       1.711964      1.107206     -1.675299
  C       0.206233      1.102906     -1.328466
  H       1.899911      1.717461     -2.590929
  H       2.287110      1.605865     -0.862635
  Si     -0.743246      2.727256     -1.668686
  H       0.048906      0.873267     -0.246465
  C       0.141915      4.211647     -0.872469
  C      -2.488770      2.581519     -0.940871
  C      -0.836965      3.010516     -3.544299
  H       0.056799      4.205491      0.234695
  H      -0.310710      5.164203     -1.219025
  H       1.217816      4.238165     -1.144790
  H      -2.438977      2.428514      0.156099
  H      -3.039912      1.722461     -1.376149
  H      -3.086302      3.497042     -1.129764
  H       0.175153      3.075381     -3.996764
  H      -1.369659      3.955470     -3.778989
  H      -1.378117      2.181366     -4.049487
69
Coordinates from ORCA-job my_molecule E -2464.463260551790
  Pt     -0.285249     -1.312463      1.273415
  O      -0.038311     -0.107809      2.794296
  O      -2.508469     -2.483229      1.512460
  P       1.205736      0.966534      2.776944
  P      -2.087543     -3.192320      0.202574
  O      -1.893531     -4.811188      0.374189
  O      -0.661803     -2.560258     -0.237135
  O       0.489405      2.348477      2.215203
  O       2.406744      0.575218      1.941517
  C       1.523548      1.291142      4.569664
  C      -3.257229     -3.079054     -1.214326
  C      -2.676910     -3.843798     -2.419507
  C      -3.422393     -1.580491     -1.539279
  C      -4.598605     -3.688335     -0.757473
  C       0.216137      1.696573      5.272522
  C       2.097004     -0.011143      5.165996
  C       2.568616      2.423390      4.642209
  H      -1.472067     -5.008978      1.239715
  H       0.995241      2.629465      1.424545
  H      -1.711122     -3.409895     -2.750078
  H      -3.389396     -3.777221     -3.267607
  H      -2.517574     -4.913732     -2.186234
  H      -2.470741     -1.127953     -1.879622
  H      -3.779123     -1.009528     -0.659595
  H      -4.167219     -1.466358     -2.353694
  H      -4.492699     -4.762478     -0.506277
  H      -5.339242     -3.596720     -1.579116
  H      -4.999497     -3.158715      0.129618
  H      -0.542696      0.893437      5.207508
  H      -0.215034      2.615452      4.828822
  H       0.421338      1.896116      6.345525
  H       1.360361     -0.837783      5.115344
  H       2.359828      0.151628      6.232526
  H       3.011929     -0.327400      4.626724
  H       2.173227      3.364505      4.210277
  H       3.494691      2.152415      4.097174
  H       2.834871      2.616109      5.702898
  Si      2.571652     -0.573669     -2.030605
  C       4.209526     -0.150827     -2.898388
  C       2.955646     -1.588386     -0.479467
  C       1.470294     -1.609076     -3.186534
  H       4.851967      0.479461     -2.245087
  H       4.039353      0.406645     -3.843698
  H       4.783276     -1.070255     -3.144354
  H       2.025366     -2.008398     -0.036535
  H       3.433797     -0.970167      0.305269
  H       3.613122     -2.446826     -0.729002
  H       0.685574     -2.128033     -2.596966
  H       2.071040     -2.391358     -3.696785
  H       0.981673     -0.995433     -3.971473
  H      -0.339406      0.291092     -1.893387
  C       1.707230      1.096634     -1.655646
  C       0.196829      1.087840     -1.328504
  H       1.906572      1.718023     -2.561352
  H       2.271922      1.585167     -0.829933
  Si     -0.745187      2.714361     -1.676664
  H       0.028645      0.861918     -0.248946
  C       0.136963      4.197167     -0.870791
  C      -2.499691      2.574185     -0.967565
  C      -0.819263      2.997572     -3.552969
  H       0.045638      4.190440      0.236710
  H      -0.313936      5.149935     -1.219039
  H       1.214385      4.223627     -1.136951
  H      -2.464069      2.421566      0.131874
  H      -3.049688      1.716646     -1.410205
  H      -3.091969      3.491527     -1.164119
  H       0.195515      3.053356     -3.996114
  H      -1.341878      3.946211     -3.793384
  H      -1.363124      2.175443     -4.061114
69
Coordinates from ORCA-job my_molecule E -2464.463494711216
  Pt     -0.286812     -1.315697      1.272237
  O      -0.062015     -0.094544      2.786237
  O      -2.486229     -2.497375      1.522479
  P       1.190751      0.968929      2.773571
  P      -2.075399     -3.203507      0.206326
  O      -1.891913     -4.824557      0.369406
  O      -0.647899     -2.578238     -0.233499
  O       0.490215      2.359437      2.212235
  O       2.389220      0.566009      1.938967
  C       1.510585      1.290839      4.566329
  C      -3.251988     -3.075913     -1.203766
  C      -2.682339     -3.838284     -2.415931
  C      -3.410607     -1.574529     -1.520674
  C      -4.594367     -3.679817     -0.743292
  C       0.205786      1.706180      5.268406
  C       2.073340     -0.016301      5.162632
  C       2.564711      2.414783      4.639977
  H      -1.461805     -5.029038      1.228607
  H       0.991820      2.627822      1.414622
  H      -1.714454     -3.410057     -2.748417
  H      -3.397837     -3.761391     -3.260598
  H      -2.530102     -4.910975     -2.189570
  H      -2.458891     -1.123965     -1.862944
  H      -3.760873     -1.005937     -0.636908
  H      -4.158434     -1.453299     -2.331181
  H      -4.493575     -4.756123     -0.498276
  H      -5.338342     -3.579699     -1.560620
  H      -4.987517     -3.152189      0.148228
  H      -0.559486      0.909412      5.201513
  H      -0.217360      2.629174      4.825603
  H       0.411476      1.902515      6.341869
  H       1.330078     -0.837089      5.111316
  H       2.336956      0.144007      6.229383
  H       2.986080     -0.339720      4.623781
  H       2.177114      3.359249      4.208054
  H       3.488926      2.136658      4.095321
  H       2.832061      2.604920      5.700951
  Si      2.578949     -0.571006     -2.039975
  C       4.220948     -0.156015     -2.903549
  C       2.953487     -1.581100     -0.484064
  C       1.476791     -1.605615     -3.196128
  H       4.866432      0.470171     -2.247603
  H       4.055169      0.403883     -3.848571
  H       4.790042     -1.079158     -3.150093
  H       2.020146     -1.994844     -0.041982
  H       3.431554     -0.962428      0.300225
  H       3.607753     -2.443576     -0.727942
  H       0.693173     -2.124621     -2.605548
  H       2.076035     -2.387989     -3.708051
  H       0.986887     -0.991563     -3.979752
  H      -0.329679      0.292590     -1.901428
  C       1.715888      1.101171     -1.670967
  C       0.207244      1.088694     -1.335728
  H       1.908506      1.719322     -2.580611
  H       2.283410      1.595226     -0.850033
  Si     -0.742243      2.712620     -1.674322
  H       0.046249      0.856076     -0.256689
  C       0.136206      4.197896     -0.869087
  C      -2.492818      2.562609     -0.957631
  C      -0.825696      2.998970     -3.549895
  H       0.042474      4.192810      0.238413
  H      -0.315448      5.149330     -1.219826
  H       1.214096      4.225935     -1.133026
  H      -2.451216      2.403434      0.141045
  H      -3.042352      1.705957     -1.402827
  H      -3.088698      3.479023     -1.145884
  H       0.187111      3.060080     -3.996879
  H      -1.353623      3.945425     -3.786842
  H      -1.367648      2.175001     -4.057130
69
Coordinates from ORCA-job my_molecule E -2464.463613934166
  Pt     -0.280976     -1.323755      1.270888
  O      -0.069827     -0.091317      2.778641
  O      -2.465723     -2.502996      1.526817
  P       1.185367      0.967379      2.769843
  P      -2.064694     -3.211054      0.208534
  O      -1.894831     -4.832878      0.369515
  O      -0.634540     -2.595325     -0.231610
  O       0.491553      2.361114      2.208608
  O       2.383858      0.560797      1.937023
  C       1.504057      1.288198      4.562970
  C      -3.246213     -3.072474     -1.196294
  C      -2.685113     -3.833739     -2.413099
  C      -3.398466     -1.569128     -1.507575
  C      -4.589995     -3.670876     -0.732408
  C       0.200286      1.709601      5.263277
  C       2.059278     -0.021499      5.160088
  C       2.563523      2.406594      4.638526
  H      -1.459648     -5.041029      1.224204
  H       0.992136      2.624928      1.409040
  H      -1.714184     -3.412669     -2.743035
  H      -3.400265     -3.745418     -3.257027
  H      -2.542646     -4.909248     -2.193467
  H      -2.445726     -1.121124     -1.851126
  H      -3.743721     -1.002005     -0.620706
  H      -4.148371     -1.441636     -2.315502
  H      -4.493777     -4.748214     -0.491236
  H      -5.336987     -3.564234     -1.546367
  H      -4.976720     -3.144114      0.162528
  H      -0.568153      0.915298      5.197108
  H      -0.219099      2.633586      4.818351
  H       0.406142      1.907068      6.336844
  H       1.312120     -0.838411      5.107415
  H       2.321832      0.137512      6.227287
  H       2.971183     -0.349452      4.622739
  H       2.181942      3.352589      4.205403
  H       3.487274      2.123352      4.096051
  H       2.829483      2.595923      5.699931
  Si      2.581079     -0.569014     -2.042622
  C       4.224815     -0.154872     -2.902623
  C       2.951812     -1.577992     -0.485453
  C       1.480489     -1.602871     -3.200265
  H       4.864549      0.476058     -2.248912
  H       4.062604      0.398087     -3.851427
  H       4.796961     -1.076542     -3.140480
  H       2.017113     -1.988779     -0.043197
  H       3.430323     -0.959841      0.298637
  H       3.603741     -2.442566     -0.727509
  H       0.697845     -2.123542     -2.609784
  H       2.079762     -2.383711     -3.714133
  H       0.989510     -0.987913     -3.982418
  H      -0.327583      0.293682     -1.905601
  C       1.717075      1.103382     -1.675660
  C       0.208776      1.089712     -1.339272
  H       1.908319      1.720251     -2.586177
  H       2.284885      1.598801     -0.856190
  Si     -0.743135      2.712395     -1.675966
  H       0.048878      0.854234     -0.260868
  C       0.133279      4.199064     -0.870692
  C      -2.493309      2.558355     -0.957638
  C      -0.829163      2.998479     -3.551768
  H       0.039240      4.193543      0.236677
  H      -0.319724      5.149932     -1.221371
  H       1.211480      4.228895     -1.134350
  H      -2.450369      2.396768      0.141029
  H      -3.042318      1.701694     -1.404645
  H      -3.090888      3.474383     -1.143102
  H       0.182553      3.058258     -4.000172
  H      -1.356382      3.945025     -3.789089
  H      -1.372576      2.175304     -4.057137
69
Coordinates from ORCA-job my_molecule E -2464.463588060532
  Pt     -0.290742     -1.311715      1.277138
  O      -0.064368     -0.103093      2.795459
  O      -2.486694     -2.488236      1.520554
  P       1.182921      0.966294      2.776970
  P      -2.077251     -3.196396      0.206730
  O      -1.895840     -4.815557      0.373155
  O      -0.651675     -2.570626     -0.233234
  O       0.473586      2.352598      2.217101
  O       2.379863      0.568079      1.938136
  C       1.509306      1.291330      4.567994
  C      -3.254522     -3.069758     -1.202349
  C      -2.682762     -3.826958     -2.417617
  C      -3.417075     -1.567122     -1.514246
  C      -4.594698     -3.679089     -0.742196
  C       0.207269      1.707637      5.274648
  C       2.073760     -0.014663      5.164353
  C       2.563888      2.414555      4.636190
  H      -1.473310     -5.015630      1.232450
  H       0.976493      2.628278      1.423320
  H      -1.712124     -3.400881     -2.736165
  H      -3.390834     -3.737549     -3.267934
  H      -2.538303     -4.903857     -2.201564
  H      -2.464769     -1.112171     -1.850879
  H      -3.772627     -1.003194     -0.629133
  H      -4.162334     -1.444287     -2.327321
  H      -4.490000     -4.754888     -0.499156
  H      -5.339985     -3.580163     -1.558834
  H      -4.989353     -3.154709      0.150792
  H      -0.557719      0.908818      5.215040
  H      -0.219580      2.628409      4.829148
  H       0.418530      1.909207      6.346741
  H       1.330150     -0.835013      5.117052
  H       2.341203      0.147327      6.229902
  H       2.984210     -0.339312      4.622624
  H       2.176007      3.357887      4.203132
  H       3.486290      2.134352      4.089884
  H       2.833926      2.607138      5.695908
  Si      2.585415     -0.573085     -2.044987
  C       4.225759     -0.154987     -2.909413
  C       2.961670     -1.579648     -0.488123
  C       1.485683     -1.609514     -3.200033
  H       4.860079      0.482761     -2.261626
  H       4.061208      0.390079     -3.861092
  H       4.803079     -1.072481     -3.140982
  H       2.030127     -1.996089     -0.046150
  H       3.436262     -0.958639      0.295645
  H       3.619705     -2.439257     -0.730491
  H       0.699883     -2.124751     -2.609132
  H       2.084306     -2.394133     -3.708357
  H       0.998765     -0.997305     -3.986498
  H      -0.325415      0.287018     -1.911268
  C       1.718880      1.097199     -1.676143
  C       0.210278      1.081498     -1.342233
  H       1.911516      1.716711     -2.584740
  H       2.284285      1.590773     -0.853640
  Si     -0.741871      2.705080     -1.675177
  H       0.050053      0.846200     -0.263990
  C       0.132369      4.190297     -0.864159
  C      -2.492750      2.548336     -0.959301
  C      -0.824445      2.997901     -3.550323
  H       0.032759      4.185120      0.242855
  H      -0.318419      5.141465     -1.216740
  H       1.211881      4.219450     -1.122688
  H      -2.450673      2.386979      0.139031
  H      -3.039509      1.690816     -1.406696
  H      -3.092082      3.463585     -1.145561
  H       0.188584      3.060437     -3.996515
  H      -1.351921      3.945132     -3.785062
  H      -1.366299      2.176010     -4.060204
69
Coordinates from ORCA-job my_molecule E -2464.463716092624
  Pt     -0.319098     -1.282947      1.284583
  O      -0.075145     -0.094806      2.812044
  O      -2.529499     -2.479875      1.516549
  P       1.174593      0.974705      2.785273
  P      -2.098306     -3.180035      0.207064
  O      -1.885270     -4.796053      0.375217
  O      -0.679493     -2.529880     -0.229540
  O       0.461749      2.360591      2.228319
  O       2.365378      0.573341      1.939391
  C       1.510249      1.296823      4.574506
  C      -3.267707     -3.078288     -1.210511
  C      -2.677177     -3.834529     -2.415540
  C      -3.448037     -1.581063     -1.532628
  C      -4.602994     -3.703189     -0.756301
  C       0.212234      1.714938      5.287984
  C       2.075812     -0.010795      5.166525
  C       2.566025      2.419077      4.637896
  H      -1.461214     -4.989470      1.241020
  H       0.962898      2.637927      1.432835
  H      -1.709492     -3.397064     -2.734767
  H      -3.383415     -3.764217     -3.268618
  H      -2.517874     -4.905609     -2.188413
  H      -2.498834     -1.117052     -1.864735
  H      -3.816580     -1.017931     -0.653268
  H      -4.189200     -1.472394     -2.350336
  H      -4.485909     -4.776683     -0.508398
  H      -5.344267     -3.617465     -1.577967
  H      -5.010529     -3.180836      0.132170
  H      -0.554606      0.918736      5.229501
  H      -0.214055      2.637763      4.847308
  H       0.427975      1.912861      6.359058
  H       1.330783     -0.830120      5.123178
  H       2.349222      0.150279      6.230378
  H       2.982784     -0.336891      4.619519
  H       2.176546      3.363583      4.207911
  H       3.485557      2.138536      4.086436
  H       2.841259      2.610445      5.696211
  Si      2.592288     -0.574035     -2.054932
  C       4.232928     -0.162236     -2.924028
  C       2.965599     -1.577048     -0.493724
  C       1.489930     -1.615207     -3.204580
  H       4.877742      0.468482     -2.273911
  H       4.065606      0.391427     -3.872221
  H       4.803019     -1.084801     -3.165851
  H       2.033806     -1.995381     -0.053444
  H       3.438165     -0.952436      0.290040
  H       3.628777     -2.435276     -0.732468
  H       0.699727     -2.122273     -2.611964
  H       2.087089     -2.406997     -3.704064
  H       1.007749     -1.007306     -3.998178
  H      -0.317559      0.287594     -1.910274
  C       1.728808      1.097340     -1.691263
  C       0.223250      1.080896     -1.345901
  H       1.912492      1.712390     -2.603859
  H       2.298208      1.596583     -0.875483
  Si     -0.732062      2.705266     -1.666724
  H       0.070188      0.842482     -0.266671
  C       0.144417      4.187518     -0.855945
  C      -2.476552      2.546419     -0.941839
  C      -0.825095      3.005282     -3.539161
  H       0.039206      4.185322      0.250208
  H      -0.300960      5.139670     -1.212476
  H       1.224192      4.211958     -1.109461
  H      -2.427038      2.381833      0.154236
  H      -3.025018      1.690923     -1.386585
  H      -3.076470      3.462022     -1.122242
  H       0.186456      3.078096     -3.988820
  H      -1.361835      3.949767     -3.766892
  H      -1.361412      2.179313     -4.051374
69
Coordinates from ORCA-job my_molecule E -2464.463427711123
  Pt     -0.311882     -1.290144      1.287371
  O      -0.048549     -0.110156      2.817878
  O      -2.543124     -2.474956      1.511612
  P       1.193336      0.970045      2.788466
  P      -2.105827     -3.176498      0.205238
  O      -1.891304     -4.792449      0.377321
  O      -0.685716     -2.525520     -0.229478
  O       0.465190      2.347519      2.230841
  O       2.387675      0.580622      1.943166
  C       1.524786      1.295546      4.578131
  C      -3.268045     -3.079728     -1.218761
  C      -2.671648     -3.840613     -2.418004
  C      -3.447593     -1.583760     -1.548115
  C      -4.605196     -3.703073     -0.768601
  C       0.223719      1.704945      5.290681
  C       2.099626     -0.006964      5.171822
  C       2.572165      2.425473      4.641146
  H      -1.476203     -4.984367      1.247849
  H       0.969141      2.635915      1.441032
  H      -1.704653     -3.401389     -2.737453
  H      -3.376084     -3.777771     -3.273101
  H      -2.509244     -4.909367     -2.184240
  H      -2.497204     -1.120725     -1.878132
  H      -3.820306     -1.016624     -0.672874
  H      -4.185181     -1.479007     -2.369823
  H      -4.488969     -4.775575     -0.515630
  H      -5.342505     -3.620982     -1.594337
  H      -5.017161     -3.177085      0.115769
  H      -0.536535      0.901628      5.235919
  H      -0.210837      2.622338      4.846145
  H       0.438766      1.909303      6.361161
  H       1.360692     -0.831687      5.129167
  H       2.371472      0.157374      6.235674
  H       3.009008     -0.326954      4.625551
  H       2.176314      3.366284      4.209620
  H       3.494048      2.150945      4.091146
  H       2.844823      2.620495      5.699500
  Si      2.581990     -0.574242     -2.043049
  C       4.218462     -0.154801     -2.916607
  C       2.965079     -1.583291     -0.487754
  C       1.479503     -1.614875     -3.193128
  H       4.862848      0.477230     -2.267326
  H       4.046034      0.399955     -3.863177
  H       4.791329     -1.074718     -3.161936
  H       2.035988     -2.007086     -0.045900
  H       3.439241     -0.960956      0.296770
  H       3.629797     -2.438262     -0.733412
  H       0.690179     -2.123834     -2.600934
  H       2.077324     -2.404971     -3.694761
  H       0.996026     -1.005769     -3.985097
  H      -0.329700      0.286793     -1.902244
  C       1.716978      1.094914     -1.671486
  C       0.208600      1.081557     -1.337830
  H       1.909426      1.715094     -2.578285
  H       2.281666      1.587077     -0.848623
  Si     -0.738122      2.708042     -1.672990
  H       0.045627      0.850274     -0.258810
  C       0.140343      4.189383     -0.859834
  C      -2.490880      2.559350     -0.961683
  C      -0.816255      3.000683     -3.547753
  H       0.038682      4.182798      0.246825
  H      -0.306731      5.142879     -1.211195
  H       1.219905      4.215250     -1.116756
  H      -2.453114      2.396196      0.136796
  H      -3.041425      1.705324     -1.410937
  H      -3.083311      3.477771     -1.148805
  H       0.197182      3.059693     -3.991766
  H      -1.340683      3.949400     -3.784075
  H      -1.358982      2.180104     -4.057894
69
Coordinates from ORCA-job my_molecule E -2464.463542774590
  Pt     -0.304565     -1.297649      1.283746
  O      -0.058357     -0.107697      2.808798
  O      -2.516410     -2.482400      1.518127
  P       1.186297      0.968258      2.784043
  P      -2.092654     -3.185108      0.206976
  O      -1.890584     -4.802511      0.375059
  O      -0.671226     -2.542871     -0.231949
  O       0.466101      2.350064      2.225693
  O       2.381485      0.574241      1.941075
  C       1.515860      1.292426      4.574192
  C      -3.263883     -3.075290     -1.208201
  C      -2.679462     -3.834507     -2.414523
  C      -3.435970     -1.577099     -1.529677
  C      -4.602357     -3.692250     -0.752426
  C       0.214274      1.704322      5.284523
  C       2.086347     -0.012068      5.168023
  C       2.565803      2.419826      4.639910
  H      -1.466191     -4.999158      1.239988
  H       0.969982      2.633556      1.433945
  H      -1.710377     -3.401142     -2.737776
  H      -3.388402     -3.762131     -3.265370
  H      -2.523696     -4.905551     -2.186730
  H      -2.485035     -1.117184     -1.862861
  H      -3.800699     -1.012110     -0.649897
  H      -4.177541     -1.464691     -2.346615
  H      -4.491387     -4.766454     -0.505046
  H      -5.344383     -3.601776     -1.573032
  H      -5.005420     -3.167605      0.136862
  H      -0.548057      0.903446      5.226198
  H      -0.216537      2.623898      4.841049
  H       0.427153      1.905627      6.355785
  H       1.345539     -0.835017      5.122804
  H       2.356163      0.150535      6.232604
  H       2.996279     -0.333666      4.623467
  H       2.172546      3.362307      4.209029
  H       3.487926      2.143819      4.090459
  H       2.837725      2.612587      5.698847
  Si      2.586077     -0.571380     -2.045908
  C       4.226306     -0.153889     -2.913385
  C       2.963391     -1.580858     -0.489516
  C       1.484862     -1.609107     -3.199602
  H       4.870040      0.475916     -2.260827
  H       4.058291      0.402608     -3.859949
  H       4.798067     -1.074991     -3.157871
  H       2.032080     -2.000607     -0.048094
  H       3.438477     -0.959791      0.295476
  H       3.625033     -2.439097     -0.733204
  H       0.695705     -2.119975     -2.608804
  H       2.082463     -2.397598     -3.703799
  H       1.001291     -0.997573     -3.989595
  H      -0.324810      0.287138     -1.912220
  C       1.720080      1.097291     -1.675853
  C       0.211022      1.080854     -1.344071
  H       1.913021      1.718240     -2.582303
  H       2.283182      1.590029     -0.851563
  Si     -0.738458      2.706162     -1.676315
  H       0.047909      0.845798     -0.266006
  C       0.138573      4.188741     -0.864801
  C      -2.488414      2.554929     -0.961076
  C      -0.820527      2.999195     -3.550435
  H       0.036603      4.183214      0.241858
  H      -0.309199      5.141290     -1.217577
  H       1.217862      4.215127     -1.121335
  H      -2.447055      2.390959      0.136292
  H      -3.038736      1.701170     -1.409007
  H      -3.082418      3.472841     -1.145805
  H       0.192835      3.063633     -3.995707
  H      -1.350176      3.945751     -3.785124
  H      -1.359661      2.174999     -4.060973
69
Coordinates from ORCA-job my_molecule E -2464.463526931919
  Pt     -0.303127     -1.298283      1.284250
  O      -0.054274     -0.117700      2.815869
  O      -2.511259     -2.481685      1.518529
  P       1.184479      0.965268      2.787065
  P      -2.091691     -3.183130      0.204699
  O      -1.889528     -4.800577      0.371161
  O      -0.672881     -2.538642     -0.237113
  O       0.455151      2.342546      2.228679
  O       2.380238      0.576650      1.941839
  C       1.516892      1.293086      4.576030
  C      -3.266854     -3.070397     -1.206851
  C      -2.684772     -3.826160     -2.417080
  C      -3.439265     -1.571288     -1.523361
  C      -4.604507     -3.688501     -0.749974
  C       0.214857      1.699912      5.288574
  C       2.094736     -0.008169      5.170298
  C       2.561864      2.425527      4.637832
  H      -1.468470     -4.997547      1.236033
  H       0.961111      2.633111      1.440965
  H      -1.715475     -3.392669     -2.740474
  H      -3.395236     -3.750146     -3.266868
  H      -2.529216     -4.898288     -2.193034
  H      -2.488225     -1.109983     -1.854912
  H      -3.804110     -1.009349     -0.641547
  H      -4.180935     -1.456262     -2.340097
  H      -4.492985     -4.763206     -0.505638
  H      -5.348279     -3.595972     -1.568851
  H      -5.006025     -3.166176      0.141458
  H      -0.544336      0.896172      5.231489
  H      -0.220219      2.617664      4.845705
  H       0.428561      1.901992      6.359364
  H       1.357469     -0.834561      5.127665
  H       2.366309      0.156794      6.234147
  H       3.004966     -0.326202      4.624007
  H       2.162634      3.366135      4.207505
  H       3.483904      2.153599      4.085493
  H       2.836228      2.619964      5.695938
  Si      2.588965     -0.572545     -2.045899
  C       4.229582     -0.152557     -2.911274
  C       2.967347     -1.583575     -0.490894
  C       1.488652     -1.608049     -3.201658
  H       4.871731      0.477170     -2.257504
  H       4.062440      0.404472     -3.857533
  H       4.802540     -1.072746     -3.155635
  H       2.037200     -2.005797     -0.049924
  H       3.441113     -0.962381      0.294676
  H       3.630814     -2.440082     -0.735302
  H       0.697614     -2.117340     -2.612059
  H       2.085388     -2.397365     -3.705305
  H       1.007504     -0.995289     -3.991982
  H      -0.322406      0.282185     -1.921167
  C       1.720625      1.094154     -1.672929
  C       0.209869      1.074798     -1.348095
  H       1.918011      1.719746     -2.575889
  H       2.279292      1.583438     -0.842916
  Si     -0.739577      2.700262     -1.680075
  H       0.043178      0.838610     -0.270818
  C       0.135473      4.182548     -0.865435
  C      -2.490232      2.548371     -0.967715
  C      -0.817711      2.995959     -3.553818
  H       0.030270      4.177041      0.241053
  H      -0.311411      5.134971     -1.219472
  H       1.215433      4.208798     -1.118809
  H      -2.450272      2.384489      0.129150
  H      -3.039381      1.694704     -1.416250
  H      -3.084402      3.466223     -1.153211
  H       0.197398      3.063470     -3.996606
  H      -1.348767      3.942103     -3.787729
  H      -1.354010      2.170688     -4.067770
69
Coordinates from ORCA-job my_molecule E -2464.463488749519
  Pt     -0.301717     -1.300191      1.285126
  O      -0.047442     -0.132194      2.825294
  O      -2.505326     -2.479323      1.520044
  P       1.182720      0.960947      2.791239
  P      -2.090791     -3.178869      0.203094
  O      -1.888882     -4.796387      0.367457
  O      -0.674923     -2.532043     -0.242516
  O       0.439068      2.331312      2.234239
  O       2.378984      0.581316      1.942519
  C       1.518790      1.292548      4.578798
  C      -3.270485     -3.063418     -1.204166
  C      -2.690313     -3.815672     -2.417277
  C      -3.443756     -1.563595     -1.515882
  C      -4.606766     -3.683529     -0.746450
  C       0.216868      1.693956      5.294693
  C       2.104604     -0.004907      5.173206
  C       2.558305      2.429904      4.636220
  H      -1.467208     -4.994567      1.232615
  H       0.947480      2.633083      1.452362
  H      -1.719945     -3.383591     -2.737225
  H      -3.399418     -3.734050     -3.267229
  H      -2.537950     -4.889232     -2.197982
  H      -2.492704     -1.100349     -1.844414
  H      -3.809988     -1.005306     -0.632517
  H      -4.184546     -1.446186     -2.332907
  H      -4.494293     -4.758978     -0.506007
  H      -5.352381     -3.588536     -1.563352
  H      -5.006784     -3.164406      0.147475
  H      -0.538351      0.885777      5.241933
  H      -0.224573      2.608359      4.850736
  H       0.433089      1.899756      6.364501
  H       1.371502     -0.834971      5.133275
  H       2.377752      0.162763      6.236152
  H       3.015114     -0.319027      4.625190
  H       2.154820      3.366911      4.203195
  H       3.480762      2.160174      4.084624
  H       2.832236      2.629571      5.693269
  Si      2.592363     -0.573196     -2.045938
  C       4.232949     -0.148179     -2.908882
  C       2.972527     -1.586359     -0.492881
  C       1.495001     -1.607498     -3.204623
  H       4.873131      0.481196     -2.253079
  H       4.065994      0.410530     -3.854109
  H       4.807816     -1.066673     -3.154565
  H       2.043836     -2.012255     -0.052575
  H       3.444524     -0.965041      0.293619
  H       3.639044     -2.440160     -0.738468
  H       0.701134     -2.114473     -2.616951
  H       2.091341     -2.398092     -3.706519
  H       1.017491     -0.993801     -3.996325
  H      -0.321302      0.276643     -1.933805
  C       1.719349      1.089945     -1.669509
  C       0.206505      1.067159     -1.354117
  H       1.920976      1.719569     -2.567805
  H       2.271992      1.575841     -0.834450
  Si     -0.741089      2.693599     -1.686199
  H       0.033181      0.828689     -0.278326
  C       0.132223      4.174725     -0.866539
  C      -2.494563      2.542081     -0.979824
  C      -0.813081      2.991444     -3.559837
  H       0.022086      4.168581      0.239584
  H      -0.312697      5.127584     -1.221825
  H       1.213363      4.200389     -1.115167
  H      -2.458946      2.375761      0.117410
  H      -3.043577      1.689894     -1.432512
  H      -3.086857      3.461051     -1.165450
  H       0.202569      3.056025     -3.999656
  H      -1.340547      3.939036     -3.795062
  H      -1.350288      2.168928     -4.074946
69
Coordinates from ORCA-job my_molecule E -2464.463481709329
  Pt     -0.298561     -1.304371      1.285561
  O      -0.042793     -0.140154      2.829111
  O      -2.497973     -2.482200      1.521843
  P       1.182551      0.958108      2.793186
  P      -2.088027     -3.179939      0.202058
  O      -1.888985     -4.798020      0.364007
  O      -0.673026     -2.533291     -0.245722
  O       0.431466      2.324742      2.237010
  O       2.379406      0.583559      1.943148
  C       1.519720      1.291647      4.580181
  C      -3.271571     -3.060135     -1.201788
  C      -2.695195     -3.811264     -2.417936
  C      -3.443528     -1.559432     -1.510729
  C      -4.607898     -3.678910     -0.742077
  C       0.217401      1.690241      5.297077
  C       2.109694     -0.003632      5.175356
  C       2.555911      2.432233      4.635407
  H      -1.468539     -4.997979      1.228299
  H       0.940878      2.632100      1.458018
  H      -1.723317     -3.382144     -2.737342
  H      -3.404908     -3.724179     -3.267210
  H      -2.546723     -4.886405     -2.202236
  H      -2.492061     -1.096386     -1.838751
  H      -3.809109     -1.002575     -0.626031
  H      -4.184633     -1.439647     -2.327197
  H      -4.496606     -4.754962     -0.503865
  H      -5.355244     -3.581280     -1.557064
  H      -5.005245     -3.160811      0.153675
  H      -0.535861      0.880310      5.245277
  H      -0.226516      2.603350      4.853100
  H       0.433894      1.896975      6.366561
  H       1.378559     -0.835615      5.137573
  H       2.384024      0.166022      6.237780
  H       3.020204     -0.316178      4.626367
  H       2.148357      3.368317      4.203310
  H       3.478341      2.165510      4.081471
  H       2.831460      2.632461      5.692052
  Si      2.593694     -0.572711     -2.045224
  C       4.234934     -0.144734     -2.905631
  C       2.973990     -1.587353     -0.492984
  C       1.499009     -1.606672     -3.206395
  H       4.872563      0.485547     -2.248983
  H       4.068954      0.413524     -3.851107
  H       4.811732     -1.061908     -3.150156
  H       2.045966     -2.014878     -0.052822
  H       3.445643     -0.966566      0.294096
  H       3.641483     -2.440229     -0.739265
  H       0.703605     -2.113027     -2.620282
  H       2.095448     -2.397520     -3.707581
  H       1.023465     -0.992306     -3.998687
  H      -0.321053      0.274377     -1.942085
  C       1.717933      1.088442     -1.667048
  C       0.203610      1.063723     -1.358517
  H       1.923614      1.722004     -2.562045
  H       2.266207      1.571462     -0.827229
  Si     -0.742579      2.690844     -1.690988
  H       0.024593      0.822960     -0.284159
  C       0.130757      4.170652     -0.869451
  C      -2.496746      2.541022     -0.986820
  C      -0.811807      2.989835     -3.564542
  H       0.018404      4.163770      0.236307
  H      -0.312732      5.123999     -1.225075
  H       1.212253      4.195424     -1.115890
  H      -2.462387      2.374196      0.110008
  H      -3.046104      1.689935     -1.440124
  H      -3.087896      3.460896     -1.172745
  H       0.205203      3.056644     -4.002645
  H      -1.340770      3.936817     -3.799967
  H      -1.346534      2.165765     -4.081446
69
Coordinates from ORCA-job my_molecule E -2464.463499897382
  Pt     -0.296357     -1.307575      1.285996
  O      -0.043772     -0.146368      2.831153
  O      -2.486208     -2.488259      1.527227
  P       1.178216      0.956143      2.794465
  P      -2.083219     -3.182649      0.203122
  O      -1.888322     -4.801533      0.360082
  O      -0.669438     -2.536540     -0.247651
  O       0.420962      2.320726      2.240716
  O       2.375147      0.585518      1.942453
  C       1.517542      1.289432      4.581001
  C      -3.272537     -3.054999     -1.194740
  C      -2.703121     -3.803574     -2.415700
  C      -3.441512     -1.552575     -1.496834
  C      -4.608600     -3.671913     -0.732091
  C       0.215789      1.686159      5.299914
  C       2.109808     -0.005092      5.174966
  C       2.552296      2.431043      4.635137
  H      -1.464892     -5.004809      1.221940
  H       0.929894      2.632357      1.463047
  H      -1.729765     -3.378403     -2.735507
  H      -3.414387     -3.709161     -3.262774
  H      -2.559687     -4.880245     -2.204997
  H      -2.489986     -1.089488     -1.824692
  H      -3.803766     -0.999049     -0.608568
  H      -4.184730     -1.427585     -2.310771
  H      -4.499283     -4.749130     -0.498526
  H      -5.359114     -3.569140     -1.543627
  H      -5.000874     -3.156147      0.167285
  H      -0.536126      0.874622      5.250232
  H      -0.230671      2.597991      4.855666
  H       0.433933      1.894372      6.368936
  H       1.379637     -0.837771      5.138083
  H       2.385446      0.164696      6.236979
  H       3.019763     -0.316548      4.624580
  H       2.143892      3.366056      4.202486
  H       3.474535      2.164727      4.081461
  H       2.827712      2.632735      5.691429
  Si      2.598180     -0.570993     -2.046611
  C       4.240306     -0.140621     -2.904232
  C       2.977550     -1.586410     -0.495054
  C       1.505887     -1.603517     -3.210945
  H       4.877639      0.487789     -2.245048
  H       4.075292      0.420301     -3.848366
  H       4.817192     -1.057451     -3.150831
  H       2.049480     -2.014208     -0.055586
  H       3.448320     -0.965744      0.292571
  H       3.646166     -2.438427     -0.741059
  H       0.708554     -2.108752     -2.626674
  H       2.101893     -2.394883     -3.711666
  H       1.032795     -0.987846     -4.003650
  H      -0.317588      0.271587     -1.954733
  C       1.718851      1.087866     -1.666718
  C       0.203085      1.059726     -1.365383
  H       1.927235      1.724535     -2.558487
  H       2.262542      1.569015     -0.822877
  Si     -0.742952      2.686784     -1.697754
  H       0.018912      0.815623     -0.292641
  C       0.127339      4.166909     -0.871686
  C      -2.499739      2.535425     -0.998595
  C      -0.807243      2.986623     -3.571508
  H       0.010497      4.159087      0.233882
  H      -0.315443      5.120401     -1.228068
  H       1.210096      4.192616     -1.113957
  H      -2.468772      2.365672      0.098433
  H      -3.048571      1.685395     -1.456408
  H      -3.090016      3.455938     -1.183502
  H       0.210219      3.051749     -4.007031
  H      -1.334141      3.933936     -3.808742
  H      -1.341768      2.163851     -4.088952
69
Coordinates from ORCA-job my_molecule E -2464.463560701557
  Pt     -0.296941     -1.310216      1.286211
  O      -0.047812     -0.148707      2.833408
  O      -2.478149     -2.495128      1.531723
  P       1.172608      0.955974      2.796378
  P      -2.080027     -3.185838      0.203770
  O      -1.887546     -4.805551      0.355816
  O      -0.667042     -2.539635     -0.248498
  O       0.412604      2.320338      2.245158
  O       2.368687      0.586698      1.942334
  C       1.514642      1.288899      4.582454
  C      -3.274126     -3.052658     -1.189791
  C      -2.709628     -3.799929     -2.414375
  C      -3.441875     -1.549227     -1.488702
  C      -4.610031     -3.668123     -0.724419
  C       0.213736      1.685633      5.303218
  C       2.107972     -0.005533      5.175954
  C       2.549128      2.431068      4.634815
  H      -1.462388     -5.011848      1.215465
  H       0.920154      2.633732      1.467223
  H      -1.733616     -3.379772     -2.731891
  H      -3.420346     -3.697098     -3.261245
  H      -2.573008     -4.878958     -2.208916
  H      -2.490118     -1.086356     -1.816364
  H      -3.803117     -0.997221     -0.599035
  H      -4.185620     -1.421803     -2.301634
  H      -4.502024     -4.746073     -0.493475
  H      -5.362670     -3.562398     -1.533449
  H      -4.998901     -3.153563      0.177058
  H      -0.538471      0.874424      5.253895
  H      -0.232886      2.597926      4.860135
  H       0.433076      1.893003      6.372073
  H       1.377606     -0.838310      5.140882
  H       2.385568      0.164753      6.237464
  H       3.017009     -0.317365      4.624076
  H       2.139151      3.366400      4.203409
  H       3.470593      2.165533      4.078753
  H       2.826708      2.632234      5.690771
  Si      2.602680     -0.569902     -2.050039
  C       4.246248     -0.138003     -2.904230
  C       2.979469     -1.584648     -0.497377
  C       1.513880     -1.603139     -3.216791
  H       4.880168      0.492172     -2.244890
  H       4.083280      0.420819     -3.849638
  H       4.825172     -1.053594     -3.147533
  H       2.051090     -2.012307     -0.058589
  H       3.449517     -0.963826      0.290606
  H       3.648660     -2.436714     -0.741987
  H       0.714390     -2.106902     -2.634321
  H       2.110125     -2.395512     -3.715432
  H       1.043581     -0.987578     -4.011178
  H      -0.314491      0.270400     -1.965777
  C       1.720453      1.087242     -1.671185
  C       0.204167      1.056594     -1.372821
  H       1.929715      1.725861     -2.561711
  H       2.261227      1.568326     -0.825193
  Si     -0.742100      2.684266     -1.701265
  H       0.017241      0.809191     -0.301530
  C       0.128496      4.162934     -0.873676
  C      -2.497534      2.532737     -1.000320
  C      -0.808055      2.986887     -3.574468
  H       0.007825      4.155530      0.231511
  H      -0.311646      5.116839     -1.231821
  H       1.211749      4.186780     -1.112227
  H      -2.465076      2.359337      0.095857
  H      -3.047909      1.685236     -1.459415
  H      -3.086764      3.454621     -1.181673
  H       0.209778      3.056924     -4.010158
  H      -1.339198      3.932551     -3.810237
  H      -1.339040      2.161571     -4.093139
69
Coordinates from ORCA-job my_molecule E -2464.463611801945
  Pt     -0.298420     -1.309674      1.288187
  O      -0.051726     -0.150712      2.835537
  O      -2.472574     -2.501500      1.536773
  P       1.166941      0.956474      2.798051
  P      -2.078083     -3.188071      0.205788
  O      -1.886500     -4.808051      0.353114
  O      -0.666276     -2.540441     -0.247845
  O       0.402524      2.320289      2.250958
  O       2.361930      0.589723      1.941350
  C       1.511957      1.287083      4.583804
  C      -3.276198     -3.050354     -1.183493
  C      -2.716603     -3.796086     -2.410965
  C      -3.442662     -1.546039     -1.478252
  C      -4.611470     -3.664949     -0.715300
  C       0.212534      1.684138      5.306983
  C       2.104912     -0.008215      5.175029
  C       2.547305      2.428149      4.635612
  H      -1.457939     -5.016741      1.210589
  H       0.907568      2.636157      1.472394
  H      -1.738482     -3.380331     -2.727893
  H      -3.427547     -3.687119     -3.256731
  H      -2.585306     -4.876107     -2.209013
  H      -2.491013     -1.082955     -1.805930
  H      -3.801836     -0.996158     -0.586298
  H      -4.188079     -1.415700     -2.289352
  H      -4.504240     -4.743497     -0.487184
  H      -5.366733     -3.556350     -1.521652
  H      -4.996619     -3.151916      0.188734
  H      -0.539966      0.873028      5.259093
  H      -0.234691      2.596454      4.864574
  H       0.433942      1.891579      6.375471
  H       1.373679     -0.840014      5.140725
  H       2.384589      0.161054      6.236077
  H       3.012436     -0.320734      4.621226
  H       2.137810      3.363852      4.205307
  H       3.467663      2.162043      4.078418
  H       2.826077      2.628673      5.691279
  Si      2.608042     -0.567914     -2.053163
  C       4.252621     -0.134574     -2.904839
  C       2.982883     -1.582247     -0.500032
  C       1.521958     -1.601013     -3.222602
  H       4.887275      0.493334     -2.242979
  H       4.090416      0.427291     -3.848842
  H       4.830880     -1.050506     -3.150748
  H       2.053948     -2.009360     -0.061970
  H       3.452193     -0.960977      0.288002
  H       3.652984     -2.434009     -0.743378
  H       0.719849     -2.102996     -2.642208
  H       2.118187     -2.394687     -3.719150
  H       1.054875     -0.985081     -4.018712
  H      -0.310331      0.269147     -1.976844
  C       1.722864      1.087720     -1.674582
  C       0.205973      1.054414     -1.380112
  H       1.932645      1.727554     -2.563688
  H       2.260840      1.568726     -0.826963
  Si     -0.740954      2.682025     -1.706684
  H       0.015692      0.803952     -0.310062
  C       0.127498      4.160433     -0.875092
  C      -2.497668      2.528645     -1.007978
  C      -0.805000      2.986347     -3.579805
  H       0.001667      4.152604      0.229653
  H      -0.310880      5.114765     -1.234536
  H       1.212104      4.184175     -1.108824
  H      -2.466370      2.352866      0.087956
  H      -3.047640      1.681842     -1.470096
  H      -3.087130      3.450953     -1.187641
  H       0.212795      3.057051     -4.014224
  H      -1.336427      3.931424     -3.816198
  H      -1.334697      2.161118     -4.098824
69
Coordinates from ORCA-job my_molecule E -2464.463719401018
  Pt     -0.301611     -1.311613      1.288112
  O      -0.060008     -0.150915      2.838031
  O      -2.463158     -2.513532      1.544349
  P       1.157146      0.958217      2.800595
  P      -2.074513     -3.193168      0.207575
  O      -1.883860     -4.814106      0.346489
  O      -0.664468     -2.543482     -0.248090
  O       0.389552      2.322839      2.259316
  O       2.350091      0.593248      1.940142
  C       1.506858      1.286209      4.585893
  C      -3.279706     -3.048210     -1.175258
  C      -2.727835     -3.791722     -2.408077
  C      -3.444909     -1.542682     -1.465037
  C      -4.614208     -3.661083     -0.702394
  C       0.209209      1.683408      5.312560
  C       2.100726     -0.010029      5.174726
  C       2.542839      2.427178      4.635995
  H      -1.451851     -5.027144      1.200356
  H       0.890370      2.639885      1.478491
  H      -1.746366     -3.383165     -2.723589
  H      -3.438888     -3.671755     -3.252602
  H      -2.605332     -4.874449     -2.212691
  H      -2.493404     -1.080039     -1.793783
  H      -3.801186     -0.995120     -0.570455
  H      -4.192448     -1.408755     -2.273589
  H      -4.508379     -4.740533     -0.477832
  H      -5.372987     -3.548600     -1.504795
  H      -4.993968     -3.149757      0.204756
  H      -0.544205      0.873237      5.264803
  H      -0.237931      2.597012      4.872801
  H       0.432939      1.888611      6.380877
  H       1.368700     -0.841500      5.142217
  H       2.383635      0.158556      6.235102
  H       3.006601     -0.322954      4.618209
  H       2.132406      3.363539      4.207282
  H       3.461914      2.161312      4.076287
  H       2.824225      2.626899      5.691211
  Si      2.615845     -0.566094     -2.059276
  C       4.262684     -0.130689     -2.905366
  C       2.986033     -1.578857     -0.504179
  C       1.535330     -1.600411     -3.232651
  H       4.892345      0.499644     -2.243076
  H       4.103628      0.428259     -3.851112
  H       4.843823     -1.044927     -3.146456
  H       2.056228     -2.004951     -0.067515
  H       3.454140     -0.956784      0.283993
  H       3.656746     -2.430870     -0.744728
  H       0.729093     -2.099741     -2.655716
  H       2.132364     -2.396089     -3.724737
  H       1.073574     -0.985064     -4.032181
  H      -0.304722      0.267721     -1.991209
  C       1.726751      1.087576     -1.682960
  C       0.209616      1.051046     -1.390717
  H       1.936214      1.728836     -2.571579
  H       2.261867      1.569779     -0.834063
  Si     -0.738387      2.679070     -1.711923
  H       0.016438      0.796548     -0.322088
  C       0.129854      4.155427     -0.877167
  C      -2.493797      2.524344     -1.011279
  C      -0.804489      2.987761     -3.584301
  H      -0.002751      4.148348      0.226713
  H      -0.304071      5.110548     -1.239528
  H       1.215561      4.176296     -1.104348
  H      -2.461005      2.342013      0.083567
  H      -3.046071      1.681538     -1.476883
  H      -3.081422      3.448665     -1.184695
  H       0.213434      3.064601     -4.018864
  H      -1.340939      3.930672     -3.818749
  H      -1.329902      2.159951     -4.104908
69
Coordinates from ORCA-job my_molecule E -2464.463773051905
  Pt     -0.300220     -1.313976      1.288089
  O      -0.062900     -0.150677      2.835525
  O      -2.454424     -2.522355      1.550023
  P       1.153173      0.959074      2.799831
  P      -2.070799     -3.198062      0.209928
  O      -1.882488     -4.819518      0.343413
  O      -0.661224     -2.548724     -0.247678
  O       0.384004      2.324300      2.262520
  O       2.345716      0.595983      1.938242
  C       1.503449      1.283712      4.585490
  C      -3.280662     -3.046984     -1.167957
  C      -2.735228     -3.789389     -2.403845
  C      -3.443198     -1.540509     -1.453903
  C      -4.614892     -3.657524     -0.691317
  C       0.206108      1.680246      5.313071
  C       2.096639     -0.013691      5.171956
  C       2.539833      2.424054      4.637361
  H      -1.445167     -5.035935      1.194227
  H       0.881915      2.642098      1.480262
  H      -1.751794     -3.386064     -2.719669
  H      -3.446758     -3.662758     -3.246660
  H      -2.618830     -4.873230     -2.211885
  H      -2.491841     -1.078865     -1.784582
  H      -3.795387     -0.994269     -0.556940
  H      -4.193276     -1.403272     -2.259509
  H      -4.510953     -4.737672     -0.469481
  H      -5.376522     -3.541320     -1.490508
  H      -4.989697     -3.147234      0.218465
  H      -0.547375      0.870163      5.264648
  H      -0.241114      2.594380      4.874546
  H       0.430236      1.884213      6.381520
  H       1.364123     -0.844519      5.138394
  H       2.379938      0.153148      6.232411
  H       3.002070     -0.326450      4.614700
  H       2.129877      3.361139      4.210148
  H       3.458693      2.158574      4.077279
  H       2.821163      2.622178      5.692798
  Si      2.619581     -0.563775     -2.061073
  C       4.267994     -0.127054     -2.903516
  C       2.987152     -1.576930     -0.505574
  C       1.542179     -1.597754     -3.237813
  H       4.897248      0.501964     -2.238826
  H       4.110391      0.433835     -3.848547
  H       4.849157     -1.041472     -3.145638
  H       2.056468     -2.001754     -0.069297
  H       3.455511     -0.954920      0.282454
  H       3.657347     -2.429707     -0.745191
  H       0.733486     -2.096404     -2.663653
  H       2.139902     -2.393961     -3.728205
  H       1.083451     -0.981778     -4.038701
  H      -0.301685      0.268016     -1.999797
  C       1.728278      1.088937     -1.685283
  C       0.210499      1.050872     -1.396533
  H       1.938518      1.730883     -2.572905
  H       2.261366      1.570986     -0.835396
  Si     -0.737419      2.678884     -1.717400
  H       0.013492      0.793426     -0.329140
  C       0.130199      4.154364     -0.880469
  C      -2.493455      2.524204     -1.017984
  C      -0.802417      2.988449     -3.589678
  H      -0.005791      4.146781      0.222806
  H      -0.301843      5.110099     -1.243588
  H       1.216648      4.174384     -1.104393
  H      -2.461041      2.341352      0.076466
  H      -3.045614      1.681851     -1.484568
  H      -3.081294      3.448950     -1.190878
  H       0.215624      3.066747     -4.023385
  H      -1.340029      3.930465     -3.824665
  H      -1.326089      2.159796     -4.110542
69
Coordinates from ORCA-job my_molecule E -2464.463837748689
  Pt     -0.298760     -1.318766      1.287320
  O      -0.063722     -0.153183      2.834693
  O      -2.443847     -2.536688      1.557696
  P       1.148595      0.959943      2.800211
  P      -2.066726     -3.204856      0.211981
  O      -1.880013     -4.827154      0.336457
  O      -0.658561     -2.553792     -0.248562
  O       0.373539      2.324212      2.269469
  O       2.340336      0.602343      1.935657
  C       1.500598      1.281001      4.586229
  C      -3.284001     -3.045484     -1.158692
  C      -2.748329     -3.786136     -2.400107
  C      -3.444010     -1.537753     -1.439313
  C      -4.617664     -3.652657     -0.676038
  C       0.203288      1.673601      5.316242
  C       2.097290     -0.016212      5.169794
  C       2.534447      2.423903      4.638949
  H      -1.438469     -5.048351      1.183247
  H       0.866597      2.645142      1.485400
  H      -1.762494     -3.390149     -2.718763
  H      -3.462447     -3.650325     -3.239584
  H      -2.639646     -4.871862     -2.212845
  H      -2.493274     -1.077827     -1.773747
  H      -3.790220     -0.993416     -0.538699
  H      -4.198314     -1.395962     -2.240354
  H      -4.516284     -4.733807     -0.457768
  H      -5.383518     -3.531401     -1.470463
  H      -4.985244     -3.143662      0.237433
  H      -0.548643      0.862208      5.267142
  H      -0.246205      2.587756      4.880220
  H       0.428280      1.875831      6.384761
  H       1.366168     -0.848481      5.136459
  H       2.382202      0.149800      6.229996
  H       3.002412     -0.326626      4.610642
  H       2.121338      3.361093      4.214418
  H       3.453180      2.161984      4.076708
  H       2.816955      2.620519      5.694435
  Si      2.624797     -0.561137     -2.063083
  C       4.275140     -0.120353     -2.899666
  C       2.989077     -1.574835     -0.507071
  C       1.553876     -1.596031     -3.245182
  H       4.899915      0.510230     -2.233337
  H       4.119803      0.439579     -3.845352
  H       4.859353     -1.032884     -3.139240
  H       2.057900     -1.999083     -0.071654
  H       3.457221     -0.952761      0.281112
  H       3.659422     -2.427777     -0.745562
  H       0.740451     -2.092923     -2.675970
  H       2.153420     -2.393607     -3.730984
  H       1.101186     -0.980172     -4.049559
  H      -0.298168      0.267665     -2.012968
  C       1.729338      1.089409     -1.687483
  C       0.210453      1.049139     -1.405432
  H       1.942303      1.734383     -2.572622
  H       2.258086      1.570072     -0.833989
  Si     -0.735938      2.677968     -1.725970
  H       0.005769      0.786838     -0.340225
  C       0.131676      4.150706     -0.884511
  C      -2.493612      2.524705     -1.029877
  C      -0.797297      2.990259     -3.598162
  H      -0.009787      4.141433      0.217810
  H      -0.296422      5.108074     -1.247956
  H       1.219077      4.168504     -1.103167
  H      -2.463614      2.336537      0.063998
  H      -3.047843      1.686399     -1.501137
  H      -3.077943      3.451931     -1.199171
  H       0.221873      3.071217     -4.029584
  H      -1.336452      3.931292     -3.833706
  H      -1.317892      2.160441     -4.120924
69
Coordinates from ORCA-job my_molecule E -2464.463817121358
  Pt     -0.293063     -1.324593      1.285250
  O      -0.056272     -0.157698      2.832103
  O      -2.435980     -2.542112      1.560117
  P       1.152039      0.958247      2.798508
  P      -2.063591     -3.208018      0.212011
  O      -1.879528     -4.830717      0.333306
  O      -0.655641     -2.558109     -0.251280
  O       0.372219      2.319685      2.269403
  O       2.345016      0.605917      1.934318
  C       1.501448      1.278524      4.585166
  C      -3.284761     -3.044099     -1.154667
  C      -2.754122     -3.783746     -2.398365
  C      -3.442894     -1.535886     -1.432716
  C      -4.618102     -3.649402     -0.668732
  C       0.202159      1.666218      5.314382
  C       2.101936     -0.017124      5.168199
  C       2.531233      2.425023      4.639939
  H      -1.434780     -5.054436      1.178443
  H       0.864159      2.644082      1.486309
  H      -1.768160     -3.390348     -2.719668
  H      -3.470072     -3.644989     -3.235394
  H      -2.647962     -4.869909     -2.212460
  H      -2.492505     -1.077349     -1.770083
  H      -3.784963     -0.992306     -0.530217
  H      -4.199808     -1.391619     -2.230757
  H      -4.518281     -4.731055     -0.452511
  H      -5.386223     -3.524984     -1.460455
  H      -4.981621     -3.141329      0.246813
  H      -0.546803      0.852221      5.264289
  H      -0.250218      2.579006      4.878608
  H       0.425563      1.868682      6.383076
  H       1.373667     -0.851828      5.133513
  H       2.385192      0.149137      6.228712
  H       3.008701     -0.324180      4.609820
  H       2.115450      3.360969      4.215432
  H       3.451534      2.166560      4.078901
  H       2.811536      2.622318      5.695785
  Si      2.624242     -0.559998     -2.059848
  C       4.275206     -0.115677     -2.893358
  C       2.988618     -1.576455     -0.505076
  C       1.556570     -1.594607     -3.245435
  H       4.897865      0.515310     -2.225467
  H       4.120460      0.444850     -3.838763
  H       4.861227     -1.027069     -3.132902
  H       2.057649     -2.001553     -0.069620
  H       3.457457     -0.955348      0.283481
  H       3.658639     -2.429263     -0.744936
  H       0.741244     -2.092056     -2.679123
  H       2.157581     -2.391742     -3.730155
  H       1.106223     -0.978004     -4.050662
  H      -0.299200      0.267900     -2.017983
  C       1.726679      1.089489     -1.682376
  C       0.206252      1.049173     -1.407426
  H       1.943549      1.736942     -2.564556
  H       2.252229      1.567072     -0.825904
  Si     -0.737301      2.678751     -1.731786
  H      -0.005917      0.783698     -0.343906
  C       0.131305      4.149461     -0.888704
  C      -2.496893      2.529223     -1.039991
  C      -0.793771      2.990936     -3.604171
  H      -0.010347      4.137947      0.213051
  H      -0.295629      5.107986     -1.250486
  H       1.218636      4.166350     -1.107034
  H      -2.469412      2.343694      0.053756
  H      -3.050611      1.690743     -1.510577
  H      -3.080453      3.456942     -1.212539
  H       0.226718      3.071237     -4.033188
  H      -1.331736      3.932300     -3.841249
  H      -1.313584      2.161015     -4.128166
69
Coordinates from ORCA-job my_molecule E -2464.463849547245
  Pt     -0.298690     -1.319360      1.286882
  O      -0.062897     -0.152884      2.834868
  O      -2.442604     -2.535853      1.557313
  P       1.148932      0.959569      2.800278
  P      -2.066085     -3.204578      0.211872
  O      -1.879734     -4.826560      0.337087
  O      -0.657944     -2.554015     -0.249256
  O       0.374030      2.323297      2.269691
  O       2.340498      0.602285      1.936039
  C       1.500265      1.280362      4.586344
  C      -3.284056     -3.045716     -1.158292
  C      -2.748363     -3.785852     -2.399413
  C      -3.444590     -1.538389     -1.438999
  C      -4.617265     -3.653390     -0.674931
  C       0.202917      1.674373      5.315532
  C       2.095169     -0.017478      5.170127
  C       2.535230      2.422158      4.639624
  H      -1.436099     -5.047589      1.183703
  H       0.866813      2.644271      1.485790
  H      -1.762565     -3.390172     -2.717878
  H      -3.462106     -3.650027     -3.238769
  H      -2.639873     -4.871376     -2.212037
  H      -2.493946     -1.078494     -1.773898
  H      -3.790519     -0.994292     -0.538344
  H      -4.199238     -1.396727     -2.239623
  H      -4.515332     -4.734341     -0.456755
  H      -5.383637     -3.532241     -1.468920
  H      -4.984568     -3.144793      0.238789
  H      -0.549722      0.863751      5.265917
  H      -0.245385      2.588961      4.879358
  H       0.427349      1.876372      6.384085
  H       1.363293     -0.848990      5.136100
  H       2.379300      0.148267      6.230440
  H       3.000430     -0.328817      4.611734
  H       2.123999      3.359288      4.213691
  H       3.454281      2.158564      4.079235
  H       2.816257      2.619711      5.695160
  Si      2.625034     -0.560864     -2.063374
  C       4.275877     -0.119835     -2.898584
  C       2.988424     -1.575264     -0.507175
  C       1.554995     -1.595915     -3.246293
  H       4.899629      0.511349     -2.232111
  H       4.121355      0.439380     -3.844749
  H       4.860622     -1.032228     -3.136928
  H       2.056878     -1.999439     -0.072021
  H       3.456885     -0.953424      0.281033
  H       3.658283     -2.428522     -0.745536
  H       0.741029     -2.093099     -2.677727
  H       2.155059     -2.393413     -3.731585
  H       1.102877     -0.980000     -4.051127
  H      -0.298415      0.267915     -2.012139
  C       1.729476      1.090133     -1.688450
  C       0.210546      1.050264     -1.405679
  H       1.941608      1.733750     -2.574338
  H       2.259002      1.571511     -0.837005
  Si     -0.736332      2.678694     -1.726709
  H       0.005293      0.787939     -0.340196
  C       0.132149      4.150787     -0.886130
  C      -2.493026      2.525944     -1.029081
  C      -0.799366      2.991321     -3.598667
  H      -0.009128      4.141800      0.215746
  H      -0.295301      5.108306     -1.249910
  H       1.219403      4.167745     -1.104867
  H      -2.461010      2.342477      0.064383
  H      -3.045622      1.685174     -1.496276
  H      -3.080288      3.451949     -1.201269
  H       0.219677      3.073859     -4.030800
  H      -1.339964      3.931797     -3.833426
  H      -1.319193      2.160616     -4.121556
69
Coordinates from ORCA-job my_molecule E -2464.463777461222
  Pt     -0.296107     -1.320637      1.286595
  O      -0.052173     -0.158997      2.837003
  O      -2.446625     -2.532609      1.554408
  P       1.155492      0.957480      2.800561
  P      -2.068407     -3.201786      0.210019
  O      -1.880486     -4.823417      0.337090
  O      -0.660574     -2.550081     -0.251570
  O       0.374140      2.316649      2.268867
  O       2.348325      0.605186      1.936669
  C       1.504982      1.280349      4.586643
  C      -3.285308     -3.045518     -1.161373
  C      -2.747638     -3.785613     -2.401571
  C      -3.447569     -1.538713     -1.443161
  C      -4.618124     -3.654552     -0.678607
  C       0.205869      1.669473      5.315363
  C       2.105239     -0.014586      5.171375
  C       2.534990      2.426672      4.639508
  H      -1.439341     -5.043191      1.185579
  H       0.868287      2.642213      1.487788
  H      -1.763353     -3.387307     -2.722118
  H      -3.462674     -3.653620     -3.240387
  H      -2.635507     -4.870379     -2.212078
  H      -2.497215     -1.078384     -1.778181
  H      -3.794374     -0.994603     -0.542873
  H      -4.202151     -1.398169     -2.244042
  H      -4.515080     -4.735261     -0.459870
  H      -5.384112     -3.534460     -1.473164
  H      -4.986698     -3.146144      0.234751
  H      -0.543238      0.855624      5.266476
  H      -0.246289      2.581692      4.878322
  H       0.429295      1.873477      6.383669
  H       1.376905     -0.849245      5.137852
  H       2.388437      0.153156      6.231588
  H       3.011935     -0.322571      4.613434
  H       2.119708      3.361856      4.213114
  H       3.455284      2.166809      4.079387
  H       2.814921      2.626066      5.694961
  Si      2.622018     -0.561871     -2.058993
  C       4.271620     -0.118094     -2.895344
  C       2.988578     -1.578333     -0.504437
  C       1.552288     -1.597338     -3.242012
  H       4.894545      0.514055     -2.229344
  H       4.115620      0.440887     -3.841324
  H       4.857760     -1.029290     -3.134119
  H       2.058370     -2.005190     -0.068891
  H       3.457032     -0.956966      0.284259
  H       3.659672     -2.430001     -0.745012
  H       0.738246     -2.094900     -2.673596
  H       2.152823     -2.394570     -3.727193
  H       1.100144     -0.981489     -4.046960
  H      -0.301535      0.267526     -2.011524
  C       1.725889      1.088521     -1.681344
  C       0.205915      1.049590     -1.403629
  H       1.941551      1.734696     -2.564489
  H       2.253168      1.566462     -0.826932
  Si     -0.738016      2.679057     -1.728066
  H      -0.004169      0.786077     -0.339007
  C       0.131523      4.149683     -0.886514
  C      -2.496534      2.529871     -1.034592
  C      -0.796181      2.991370     -3.600267
  H      -0.008378      4.138768      0.215253
  H      -0.295914      5.107981     -1.248246
  H       1.218443      4.166392     -1.106475
  H      -2.467220      2.349309      0.059034
  H      -3.048498      1.688529     -1.500780
  H      -3.082893      3.456059     -1.210591
  H       0.224227      3.071949     -4.030164
  H      -1.334410      3.932978     -3.836261
  H      -1.316451      2.161421     -4.124468
69
Coordinates from ORCA-job my_molecule E -2464.463853549760
  Pt     -0.295810     -1.321291      1.284551
  O      -0.059459     -0.157811      2.834588
  O      -2.434384     -2.542583      1.560440
  P       1.147612      0.959101      2.799853
  P      -2.063174     -3.206707      0.211245
  O      -1.876384     -4.828864      0.331184
  O      -0.657403     -2.553670     -0.253562
  O       0.366015      2.320394      2.272624
  O       2.339459      0.607494      1.933668
  C       1.499657      1.278802      4.585975
  C      -3.287192     -3.043047     -1.152735
  C      -2.757885     -3.779714     -2.398463
  C      -3.447481     -1.534763     -1.427404
  C      -4.618788     -3.650900     -0.665160
  C       0.201675      1.667542      5.316824
  C       2.099398     -0.017461      5.167863
  C       2.530579      2.424103      4.639793
  H      -1.430144     -5.052148      1.175580
  H       0.856622      2.645673      1.489099
  H      -1.772424     -3.385702     -2.720383
  H      -3.474945     -3.639743     -3.234257
  H      -2.651044     -4.865892     -2.214414
  H      -2.497771     -1.075040     -1.765189
  H      -3.788562     -0.993619     -0.523033
  H      -4.205963     -1.389217     -2.223928
  H      -4.517031     -4.732562     -0.450986
  H      -5.388899     -3.526051     -1.455099
  H      -4.981103     -3.145056      0.252141
  H      -0.547903      0.854007      5.267810
  H      -0.250603      2.580520      4.881446
  H       0.426636      1.870091      6.385206
  H       1.370267     -0.851261      5.133826
  H       2.384054      0.148330      6.228004
  H       3.005058     -0.325427      4.608336
  H       2.115689      3.360194      4.215399
  H       3.450019      2.164405      4.078301
  H       2.811729      2.621563      5.695288
  Si      2.627914     -0.560479     -2.062507
  C       4.279632     -0.115824     -2.893920
  C       2.990499     -1.576058     -0.506861
  C       1.562011     -1.595466     -3.249212
  H       4.900924      0.515661     -2.225620
  H       4.126094      0.444065     -3.839751
  H       4.866306     -1.026939     -3.132135
  H       2.059361     -2.001306     -0.072317
  H       3.458175     -0.954046      0.281753
  H       3.661267     -2.428430     -0.745326
  H       0.744639     -2.091350     -2.684179
  H       2.163387     -2.393899     -3.731279
  H       1.114310     -0.979409     -4.056470
  H      -0.296313      0.266538     -2.022341
  C       1.729315      1.088808     -1.686492
  C       0.209211      1.047523     -1.410856
  H       1.944763      1.735184     -2.569475
  H       2.254857      1.567774     -0.831315
  Si     -0.736002      2.676771     -1.732728
  H      -0.002549      0.781197     -0.347280
  C       0.131278      4.147380     -0.887504
  C      -2.495239      2.524735     -1.040303
  C      -0.793161      2.991792     -3.604675
  H      -0.013266      4.136383      0.213995
  H      -0.294407      5.106070     -1.250461
  H       1.219332      4.163863     -1.103120
  H      -2.466121      2.342442      0.053124
  H      -3.046304      1.683500     -1.508704
  H      -3.082895      3.450805     -1.214655
  H       0.227197      3.074046     -4.033710
  H      -1.332261      3.932853     -3.840135
  H      -1.312072      2.162123     -4.129977
69
Coordinates from ORCA-job my_molecule E -2464.463925137008
  Pt     -0.298531     -1.320557      1.285087
  O      -0.064427     -0.157105      2.834743
  O      -2.430460     -2.551771      1.565955
  P       1.141209      0.961318      2.800163
  P      -2.062315     -3.209978      0.213053
  O      -1.873371     -4.832478      0.325939
  O      -0.658557     -2.553534     -0.253211
  O       0.357066      2.323220      2.277863
  O       2.331564      0.611834      1.930947
  C       1.496316      1.278078      4.586220
  C      -3.290759     -3.042343     -1.146469
  C      -2.766344     -3.776894     -2.395571
  C      -3.450668     -1.533168     -1.417424
  C      -4.621119     -3.650135     -0.655535
  C       0.199121      1.664274      5.320006
  C       2.098391     -0.018579      5.165012
  C       2.526069      2.424541      4.640130
  H      -1.423225     -5.058653      1.167687
  H       0.843745      2.649596      1.492254
  H      -1.779613     -3.386066     -2.717388
  H      -3.483796     -3.631018     -3.229973
  H      -2.663832     -4.864344     -2.215367
  H      -2.501516     -1.073662     -1.756808
  H      -3.788853     -0.993674     -0.511047
  H      -4.211133     -1.385264     -2.211372
  H      -4.519639     -4.732436     -0.443857
  H      -5.393715     -3.523039     -1.442503
  H      -4.979712     -3.145778      0.263977
  H      -0.549829      0.850175      5.270674
  H      -0.254674      2.577733      4.887172
  H       0.425684      1.864885      6.388385
  H       1.369936     -0.853058      5.131126
  H       2.384895      0.145891      6.224870
  H       3.003352     -0.324924      4.603381
  H       2.109051      3.361081      4.218434
  H       3.444748      2.167130      4.076103
  H       2.809192      2.620158      5.695491
  Si      2.632896     -0.559302     -2.065734
  C       4.286090     -0.113510     -2.893886
  C       2.992555     -1.573867     -0.508859
  C       1.570745     -1.595290     -3.255110
  H       4.906194      0.517766     -2.224045
  H       4.133792      0.447105     -3.839593
  H       4.873470     -1.024320     -3.131992
  H       2.060782     -1.998437     -0.074980
  H       3.459478     -0.950985      0.279537
  H       3.663857     -2.426487     -0.745505
  H       0.749780     -2.088838     -2.693330
  H       2.173093     -2.395580     -3.732931
  H       1.127780     -0.979994     -4.065551
  H      -0.292169      0.266196     -2.031503
  C       1.732294      1.088832     -1.691150
  C       0.212062      1.045753     -1.417447
  H       1.947691      1.735961     -2.573708
  H       2.256009      1.568389     -0.835089
  Si     -0.733268      2.675451     -1.736549
  H      -0.002031      0.776496     -0.355123
  C       0.133458      4.144323     -0.887904
  C      -2.492611      2.522613     -1.044764
  C      -0.789798      2.993808     -3.607966
  H      -0.015762      4.133010      0.212996
  H      -0.289102      5.103942     -1.251921
  H       1.222268      4.158999     -1.099004
  H      -2.463885      2.335566      0.048139
  H      -3.045065      1.684256     -1.516496
  H      -3.078354      3.450077     -1.215243
  H       0.230763      3.078944     -4.036140
  H      -1.330844      3.934073     -3.842452
  H      -1.306423      2.163589     -4.134845
69
Coordinates from ORCA-job my_molecule E -2464.463847353095
  Pt     -0.301827     -1.314506      1.289977
  O      -0.057617     -0.159761      2.840948
  O      -2.450623     -2.538241      1.558216
  P       1.147919      0.959734      2.802245
  P      -2.071027     -3.201262      0.211396
  O      -1.877269     -4.822903      0.332856
  O      -0.665932     -2.542934     -0.250217
  O       0.361090      2.318134      2.274524
  O       2.338741      0.609655      1.934301
  C       1.502398      1.281452      4.587541
  C      -3.289435     -3.044118     -1.158284
  C      -2.752400     -3.780799     -2.400865
  C      -3.453883     -1.536398     -1.435850
  C      -4.620376     -3.656450     -0.675237
  C       0.204640      1.667259      5.320545
  C       2.107111     -0.012621      5.169654
  C       2.530081      2.430068      4.638225
  H      -1.436624     -5.043715      1.180730
  H       0.853225      2.647276      1.493367
  H      -1.768013     -3.382343     -2.720536
  H      -3.467146     -3.645750     -3.239181
  H      -2.641028     -4.866542     -2.214342
  H      -2.504106     -1.074403     -1.769772
  H      -3.800923     -0.995243     -0.533804
  H      -4.208841     -1.394154     -2.235866
  H      -4.515499     -4.737791     -0.459173
  H      -5.387353     -3.535509     -1.468504
  H      -4.988441     -3.150702      0.239784
  H      -0.542906      0.851592      5.273686
  H      -0.251052      2.578738      4.885187
  H       0.431154      1.871355      6.388319
  H       1.379980     -0.848443      5.138770
  H       2.394245      0.155294      6.228866
  H       3.012108     -0.318975      4.608120
  H       2.110530      3.365356      4.215531
  H       3.448856      2.173629      4.073311
  H       2.814139      2.627746      5.693038
  Si      2.627211     -0.562541     -2.063540
  C       4.277081     -0.119605     -2.900357
  C       2.992559     -1.576338     -0.507552
  C       1.558346     -1.599542     -3.246288
  H       4.902191      0.510792     -2.233394
  H       4.120392      0.441633     -3.845150
  H       4.861811     -1.031750     -3.142117
  H       2.062816     -2.003318     -0.072250
  H       3.459511     -0.953070      0.280515
  H       3.665609     -2.427175     -0.746259
  H       0.741483     -2.093318     -2.678818
  H       2.158276     -2.399750     -3.727498
  H       1.109761     -0.985163     -4.054188
  H      -0.296133      0.265488     -2.018345
  C       1.730358      1.087111     -1.686664
  C       0.211069      1.046245     -1.408628
  H       1.944888      1.734663     -2.569430
  H       2.256246      1.565541     -0.830840
  Si     -0.734069      2.676123     -1.728620
  H       0.001220      0.779982     -0.344612
  C       0.133316      4.146295     -0.882483
  C      -2.493592      2.523707     -1.036625
  C      -0.790981      2.992516     -3.600472
  H      -0.012280      4.135183      0.218913
  H      -0.291647      5.105353     -1.245404
  H       1.221516      4.162396     -1.097228
  H      -2.465646      2.336655      0.056988
  H      -3.046538      1.685131     -1.508482
  H      -3.078303      3.451044     -1.207594
  H       0.229394      3.074482     -4.029314
  H      -1.329538      3.933983     -3.835517
  H      -1.310223      2.163525     -4.126256
69
Coordinates from ORCA-job my_molecule E -2464.463960534103
  Pt     -0.293376     -1.322562      1.282413
  O      -0.066349     -0.159999      2.830060
  O      -2.414840     -2.563454      1.571635
  P       1.135767      0.961398      2.797094
  P      -2.055591     -3.215605      0.212760
  O      -1.868484     -4.839057      0.316774
  O      -0.654314     -2.557663     -0.257868
  O       0.348258      2.323210      2.278381
  O       2.326246      0.615552      1.925915
  C       1.492306      1.276912      4.583184
  C      -3.292128     -3.038537     -1.138181
  C      -2.777089     -3.768597     -2.393778
  C      -3.449648     -1.527288     -1.400697
  C      -4.620856     -3.645317     -0.642414
  C       0.194502      1.657681      5.318692
  C       2.099253     -0.018349      5.160055
  C       2.518081      2.427102      4.637716
  H      -1.415041     -5.069586      1.154188
  H       0.833383      2.652976      1.493195
  H      -1.790743     -3.380195     -2.719555
  H      -3.498209     -3.615782     -3.223316
  H      -2.677884     -4.857623     -2.219220
  H      -2.501506     -1.068666     -1.743741
  H      -3.780800     -0.991300     -0.489547
  H      -4.214573     -1.373266     -2.189231
  H      -4.521145     -4.729260     -0.436842
  H      -5.397611     -3.511840     -1.424054
  H      -4.972319     -3.144542      0.281759
  H      -0.551642      0.840682      5.269573
  H      -0.263200      2.569939      4.886900
  H       0.421764      1.858381      6.387088
  H       1.373134     -0.854928      5.126501
  H       2.387110      0.145961      6.219763
  H       3.004181     -0.321461      4.596732
  H       2.095823      3.363728      4.220291
  H       3.436460      2.175250      4.069526
  H       2.803933      2.619972      5.693082
  Si      2.636144     -0.559396     -2.065763
  C       4.291108     -0.112890     -2.890352
  C       2.993594     -1.573571     -0.508700
  C       1.577240     -1.595049     -3.258402
  H       4.912330      0.515466     -2.216890
  H       4.139853      0.451800     -3.834066
  H       4.877559     -1.024620     -3.132116
  H       2.062163     -1.997584     -0.074966
  H       3.459794     -0.950119      0.279433
  H       3.664865     -2.426485     -0.744458
  H       0.753197     -2.086967     -2.699942
  H       2.180419     -2.396531     -3.733402
  H       1.138459     -0.979797     -4.070794
  H      -0.288045      0.265500     -2.041814
  C       1.733758      1.087672     -1.690770
  C       0.213050      1.042966     -1.422821
  H       1.952532      1.738352     -2.570725
  H       2.253524      1.564827     -0.829596
  Si     -0.731559      2.673561     -1.740615
  H      -0.005542      0.768855     -0.362403
  C       0.132433      4.142273     -0.886766
  C      -2.494232      2.518314     -1.054380
  C      -0.782443      2.994662     -3.612181
  H      -0.020393      4.129130      0.213784
  H      -0.289140      5.102815     -1.249993
  H       1.222335      4.157610     -1.094540
  H      -2.470328      2.323101      0.039080
  H      -3.047997      1.683687     -1.534758
  H      -3.076281      3.447613     -1.219998
  H       0.238876      3.077815     -4.037572
  H      -1.320381      3.936112     -3.847398
  H      -1.299747      2.167013     -4.140949
69
Coordinates from ORCA-job my_molecule E -2464.463994069553
  Pt     -0.303097     -1.312955      1.286884
  O      -0.073201     -0.155203      2.838130
  O      -2.430885     -2.552794      1.566465
  P       1.132263      0.962934      2.801203
  P      -2.062229     -3.208392      0.212006
  O      -1.869291     -4.830756      0.322544
  O      -0.660999     -2.547023     -0.254430
  O       0.347353      2.325404      2.280308
  O       2.320519      0.612044      1.929021
  C       1.492785      1.280862      4.585941
  C      -3.292167     -3.040773     -1.146392
  C      -2.767057     -3.771867     -2.397182
  C      -3.454551     -1.531062     -1.413827
  C      -4.620956     -3.651912     -0.656288
  C       0.197733      1.668619      5.322584
  C       2.095258     -0.015789      5.164467
  C       2.523581      2.426802      4.636196
  H      -1.421793     -5.056445      1.164033
  H       0.834669      2.653406      1.495877
  H      -1.781204     -3.378963     -2.719798
  H      -3.485393     -3.625930     -3.230455
  H      -2.662312     -4.859558     -2.218584
  H      -2.505896     -1.070047     -1.752088
  H      -3.793296     -0.994221     -0.505855
  H      -4.215357     -1.381767     -2.207452
  H      -4.517504     -4.734829     -0.447283
  H      -5.394023     -3.524064     -1.442681
  H      -4.979951     -3.150281      0.264624
  H      -0.552143      0.854951      5.275616
  H      -0.256441      2.582240      4.889990
  H       0.427250      1.869910      6.390364
  H       1.365410     -0.849240      5.134207
  H       2.386026      0.149569      6.223246
  H       2.997654     -0.323976      4.599875
  H       2.104395      3.364575      4.217967
  H       3.439822      2.170072      4.066417
  H       2.812495      2.620187      5.690675
  Si      2.636895     -0.561832     -2.070785
  C       4.290717     -0.119848     -2.899830
  C       2.994702     -1.572799     -0.511950
  C       1.573492     -1.598660     -3.258341
  H       4.914729      0.508297     -2.228784
  H       4.138466      0.443665     -3.844045
  H       4.874812     -1.033130     -3.141445
  H       2.063432     -1.996559     -0.078303
  H       3.460008     -0.947806      0.275432
  H       3.666941     -2.425320     -0.745985
  H       0.751464     -2.089398     -2.695685
  H       2.174601     -2.401284     -3.734022
  H       1.131893     -0.984794     -4.070222
  H      -0.287220      0.264493     -2.030898
  C       1.737652      1.087468     -1.697943
  C       0.219158      1.043663     -1.418756
  H       1.950314      1.734281     -2.582385
  H       2.262773      1.568668     -0.842409
  Si     -0.729907      2.672759     -1.731975
  H       0.010169      0.773462     -0.355274
  C       0.133656      4.143248     -0.880833
  C      -2.489530      2.512533     -1.039053
  C      -0.788796      2.994779     -3.603146
  H      -0.019323      4.133148      0.219592
  H      -0.288368      5.102667     -1.246582
  H       1.223652      4.158795     -1.088643
  H      -2.461214      2.315438      0.054189
  H      -3.043448      1.677354     -1.518777
  H      -3.073826      3.440847     -1.201015
  H       0.230666      3.080096     -4.032417
  H      -1.329340      3.935369     -3.835549
  H      -1.306684      2.166670     -4.130484
69
Coordinates from ORCA-job my_molecule E -2464.464025912302
  Pt     -0.298830     -1.316998      1.281395
  O      -0.075349     -0.157266      2.833978
  O      -2.412398     -2.563770      1.571835
  P       1.127192      0.963424      2.799464
  P      -2.054325     -3.214168      0.211467
  O      -1.863638     -4.837087      0.314078
  O      -0.656056     -2.552427     -0.260419
  O       0.340568      2.326909      2.282651
  O       2.315485      0.615552      1.925501
  C       1.488613      1.278682      4.584495
  C      -3.293681     -3.037741     -1.137095
  C      -2.778534     -3.764566     -2.394483
  C      -3.454181     -1.526853     -1.396694
  C      -4.620884     -3.647333     -0.640513
  C       0.193440      1.663691      5.322369
  C       2.092576     -0.018269      5.160505
  C       2.518096      2.425632      4.636456
  H      -1.409161     -5.066958      1.150618
  H       0.824808      2.655899      1.496655
  H      -1.791934     -3.375143     -2.721388
  H      -3.501125     -3.611304     -3.222904
  H      -2.677889     -4.853378     -2.221458
  H      -2.506884     -1.067054     -1.739524
  H      -3.785313     -0.993301     -0.483935
  H      -4.220377     -1.372074     -2.184328
  H      -4.518997     -4.731276     -0.436905
  H      -5.399219     -3.513833     -1.420908
  H      -4.971938     -3.148773      0.285165
  H      -0.555473      0.849279      5.274286
  H      -0.261851      2.577494      4.891583
  H       0.423146      1.863351      6.390394
  H       1.363612     -0.852374      5.128845
  H       2.383396      0.145503      6.219515
  H       2.995176     -0.324557      4.595199
  H       2.097716      3.363573      4.220043
  H       3.434345      2.170936      4.065849
  H       2.807200      2.617558      5.691141
  Si      2.640569     -0.561047     -2.071147
  C       4.296789     -0.116154     -2.893458
  C       2.994823     -1.572725     -0.512137
  C       1.582531     -1.597235     -3.264205
  H       4.917066      0.512320     -2.219738
  H       4.147620      0.447617     -3.837889
  H       4.883026     -1.028288     -3.133176
  H       2.062886     -1.995784     -0.079741
  H       3.459469     -0.947759      0.275722
  H       3.666575     -2.425774     -0.745039
  H       0.756455     -2.087250     -2.706486
  H       2.185619     -2.400431     -3.736284
  H       1.146360     -0.982879     -4.078707
  H      -0.284209      0.264260     -2.043162
  C       1.738211      1.086768     -1.699033
  C       0.218822      1.041521     -1.426029
  H       1.953558      1.734976     -2.581820
  H       2.259915      1.567089     -0.840733
  Si     -0.729249      2.671339     -1.738736
  H       0.004183      0.768769     -0.364164
  C       0.133578      4.140567     -0.884003
  C      -2.490014      2.511352     -1.048319
  C      -0.784904      2.995687     -3.609638
  H      -0.022895      4.129704      0.216139
  H      -0.286181      5.100854     -1.250040
  H       1.224261      4.154872     -1.088407
  H      -2.462966      2.313168      0.044594
  H      -3.043751      1.677031     -1.529652
  H      -3.073888      3.440231     -1.209824
  H       0.235308      3.081653     -4.037039
  H      -1.325140      3.936451     -3.841917
  H      -1.301757      2.168118     -4.138863
69
Coordinates from ORCA-job my_molecule E -2464.464060105489
  Pt     -0.306560     -1.310969      1.285609
  O      -0.080314     -0.151733      2.837934
  O      -2.427999     -2.557152      1.569214
  P       1.125932      0.965538      2.801744
  P      -2.060973     -3.209957      0.213017
  O      -1.865888     -4.832121      0.320386
  O      -0.661521     -2.546148     -0.254648
  O       0.342394      2.330266      2.283696
  O       2.312736      0.613516      1.927644
  C       1.489017      1.280646      4.586376
  C      -3.293824     -3.040908     -1.142452
  C      -2.771295     -3.770355     -2.395239
  C      -3.456642     -1.531144     -1.407292
  C      -4.621863     -3.652244     -0.650231
  C       0.195372      1.669429      5.325008
  C       2.089929     -0.017744      5.162370
  C       2.521695      2.424665      4.637185
  H      -1.415062     -5.058669      1.160129
  H       0.827372      2.656800      1.497003
  H      -1.784810     -3.378577     -2.720125
  H      -3.491583     -3.622750     -3.226779
  H      -2.667322     -4.858085     -2.217824
  H      -2.508815     -1.070044     -1.747006
  H      -3.793069     -0.995825     -0.497500
  H      -4.219651     -1.380409     -2.198755
  H      -4.518221     -4.735305     -0.442796
  H      -5.396787     -3.523235     -1.434775
  H      -4.978653     -3.151714      0.272227
  H      -0.555824      0.857158      5.277543
  H      -0.257673      2.584388      4.894396
  H       0.426256      1.868590      6.392821
  H       1.358710     -0.849857      5.131737
  H       2.382088      0.145662      6.221019
  H       2.991198     -0.326690      4.596341
  H       2.104111      3.363349      4.219991
  H       3.437078      2.166746      4.066930
  H       2.811298      2.616782      5.691609
  Si      2.640810     -0.561425     -2.074717
  C       4.295863     -0.119590     -2.901162
  C       2.995723     -1.570976     -0.514496
  C       1.579168     -1.598620     -3.263714
  H       4.917355      0.510173     -2.230410
  H       4.145523      0.441698     -3.846768
  H       4.881219     -1.032273     -3.139350
  H       2.063793     -1.993627     -0.081858
  H       3.460164     -0.945035      0.272812
  H       3.668150     -2.423794     -0.746461
  H       0.754957     -2.088000     -2.702711
  H       2.180698     -2.402420     -3.736768
  H       1.140348     -0.985194     -4.077554
  H      -0.283701      0.264435     -2.035104
  C       1.740864      1.087816     -1.703898
  C       0.222971      1.043188     -1.422802
  H       1.951603      1.733153     -2.589752
  H       2.266618      1.571085     -0.849837
  Si     -0.727541      2.671971     -1.733192
  H       0.015096      0.772636     -0.359090
  C       0.135620      4.142111     -0.881047
  C      -2.485857      2.510130     -1.038021
  C      -0.788712      2.996144     -3.603842
  H      -0.020370      4.133100      0.219150
  H      -0.284461      5.101701     -1.248494
  H       1.226098      4.156397     -1.086015
  H      -2.455119      2.313982      0.054643
  H      -3.038967      1.674140     -1.516205
  H      -3.072392      3.437788     -1.199571
  H       0.230346      3.084368     -4.033779
  H      -1.331696      3.935772     -3.834648
  H      -1.305012      2.167266     -4.131850
69
Coordinates from ORCA-job my_molecule E -2464.464125009357
  Pt     -0.313991     -1.305560      1.289715
  O      -0.087408     -0.145400      2.840828
  O      -2.439172     -2.554528      1.568578
  P       1.122336      0.967966      2.803354
  P      -2.065776     -3.207875      0.214728
  O      -1.866786     -4.829509      0.324099
  O      -0.665863     -2.541880     -0.249556
  O       0.342676      2.334613      2.285518
  O       2.307130      0.611923      1.928450
  C       1.487915      1.282579      4.587531
  C      -3.294180     -3.043548     -1.145496
  C      -2.766332     -3.773952     -2.395564
  C      -3.459127     -1.534430     -1.413476
  C      -4.622371     -3.656888     -0.656347
  C       0.196131      1.675684      5.327110
  C       2.085241     -0.017581      5.163416
  C       2.524295      2.423394      4.637026
  H      -1.418546     -5.054089      1.165571
  H       0.827066      2.658425      1.497446
  H      -1.779484     -3.381044     -2.716414
  H      -3.483279     -3.627893     -3.230225
  H      -2.661676     -4.861601     -2.216999
  H      -2.510878     -1.072285     -1.750815
  H      -3.799516     -0.998169     -0.505750
  H      -4.219661     -1.386374     -2.207709
  H      -4.516999     -4.739330     -0.446578
  H      -5.395030     -3.531108     -1.443610
  H      -4.983221     -3.155470      0.263987
  H      -0.557766      0.865787      5.280348
  H      -0.254358      2.592078      4.896696
  H       0.428558      1.874299      6.394733
  H       1.351293     -0.847397      5.133868
  H       2.379020      0.145316      6.221690
  H       2.984915     -0.329602      4.596594
  H       2.109259      3.363356      4.220002
  H       3.438338      2.162474      4.065930
  H       2.815574      2.614785      5.691150
  Si      2.642127     -0.561721     -2.078999
  C       4.296838     -0.123243     -2.907915
  C       2.996189     -1.568738     -0.516993
  C       1.578344     -1.600212     -3.265067
  H       4.920588      0.505968     -2.238297
  H       4.145849      0.437876     -3.853630
  H       4.880324     -1.037251     -3.146622
  H       2.063858     -1.990423     -0.084168
  H       3.460482     -0.941677      0.269447
  H       3.668670     -2.421967     -0.747296
  H       0.754847     -2.088493     -2.702111
  H       2.178837     -2.405015     -3.737753
  H       1.138467     -0.987951     -4.079208
  H      -0.282258      0.264652     -2.028799
  C       1.744311      1.089023     -1.710507
  C       0.228024      1.044764     -1.421087
  H       1.950077      1.731038     -2.599893
  H       2.274237      1.575880     -0.861321
  Si     -0.725269      2.672461     -1.728314
  H       0.026757      0.775853     -0.355716
  C       0.137856      4.143220     -0.877695
  C      -2.481430      2.507473     -1.028559
  C      -0.792082      2.997606     -3.598618
  H      -0.018619      4.135818      0.222293
  H      -0.281974      5.102368     -1.246587
  H       1.228390      4.157347     -1.082302
  H      -2.447676      2.309006      0.063824
  H      -3.035228      1.671945     -1.506917
  H      -3.068805      3.434852     -1.186671
  H       0.225647      3.088264     -4.031178
  H      -1.337710      3.936187     -3.827456
  H      -1.307995      2.167923     -4.125718
69
Coordinates from ORCA-job my_molecule E -2464.464163974402
  Pt     -0.325731     -1.296107      1.297353
  O      -0.090492     -0.139367      2.848488
  O      -2.466276     -2.543056      1.563528
  P       1.123137      0.970073      2.806792
  P      -2.078015     -3.199849      0.216611
  O      -1.871880     -4.820166      0.333985
  O      -0.676327     -2.530158     -0.240768
  O       0.345624      2.336559      2.286784
  O       2.305704      0.609778      1.931351
  C       1.491165      1.286069      4.590247
  C      -3.294611     -3.047699     -1.155646
  C      -2.753505     -3.781997     -2.397681
  C      -3.463912     -1.540489     -1.432790
  C      -4.624028     -3.664515     -0.674444
  C       0.201551      1.683740      5.331105
  C       2.085767     -0.014796      5.167152
  C       2.530800      2.423869      4.636927
  H      -1.432578     -5.039203      1.181331
  H       0.830883      2.658576      1.498507
  H      -1.767565     -3.384020     -2.715456
  H      -3.466625     -3.646437     -3.237429
  H      -2.642199     -4.867488     -2.211302
  H      -2.514731     -1.076402     -1.765225
  H      -3.813453     -1.000700     -0.530404
  H      -4.218850     -1.399689     -2.233853
  H      -4.515582     -4.745532     -0.458605
  H      -5.390693     -3.545965     -1.468748
  H      -4.994809     -3.160389      0.240560
  H      -0.554522      0.875777      5.286855
  H      -0.247229      2.600491      4.899800
  H       0.436093      1.883608      6.398085
  H       1.349449     -0.842502      5.140480
  H       2.382010      0.149056      6.224609
  H       2.983415     -0.330336      4.599102
  H       2.118272      3.364226      4.218850
  H       3.443441      2.159333      4.065566
  H       2.823467      2.616207      5.690467
  Si      2.641150     -0.563193     -2.082647
  C       4.293024     -0.128389     -2.919134
  C       2.997955     -1.566899     -0.519109
  C       1.571985     -1.603911     -3.262093
  H       4.919562      0.502328     -2.254047
  H       4.138896      0.429869     -3.865926
  H       4.874966     -1.043197     -3.157274
  H       2.066435     -1.989101     -0.085602
  H       3.461704     -0.938254      0.266389
  H       3.672060     -2.418971     -0.748628
  H       0.751088     -2.090797     -2.694162
  H       2.170272     -2.409879     -3.735591
  H       1.128422     -0.993510     -4.075680
  H      -0.282613      0.264448     -2.015189
  C       1.746707      1.089817     -1.715089
  C       0.232671      1.046857     -1.414431
  H       1.946547      1.728296     -2.608212
  H       2.282461      1.579744     -0.871326
  Si     -0.723568      2.673156     -1.719255
  H       0.040787      0.779659     -0.346801
  C       0.139271      4.145124     -0.870817
  C      -2.477994      2.504577     -1.015452
  C      -0.795743      2.998573     -3.589524
  H      -0.015772      4.138453      0.229280
  H      -0.281994      5.103688     -1.239774
  H       1.229624      4.160517     -1.077033
  H      -2.441130      2.308134      0.077066
  H      -3.030199      1.666546     -1.491429
  H      -3.069087      3.430181     -1.173828
  H       0.220589      3.090253     -4.024824
  H      -1.342902      3.936603     -3.816831
  H      -1.312338      2.168775     -4.115210
69
Coordinates from ORCA-job my_molecule E -2464.464009932576
  Pt     -0.328372     -1.290842      1.302904
  O      -0.069413     -0.151016      2.860592
  O      -2.495398     -2.527938      1.552909
  P       1.137826      0.966134      2.810971
  P      -2.092006     -3.187395      0.212729
  O      -1.876409     -4.806246      0.339298
  O      -0.690056     -2.511605     -0.239465
  O       0.347391      2.323098      2.285609
  O       2.321829      0.612576      1.935926
  C       1.504078      1.290677      4.593445
  C      -3.296649     -3.049326     -1.171411
  C      -2.740409     -3.784505     -2.406315
  C      -3.474276     -1.544211     -1.455729
  C      -4.625324     -3.674140     -0.698933
  C       0.212642      1.683247      5.333583
  C       2.107486     -0.003642      5.175512
  C       2.536328      2.435413      4.635190
  H      -1.453248     -5.018891      1.195275
  H       0.836793      2.654052      1.503644
  H      -1.758144     -3.377082     -2.719753
  H      -3.449577     -3.660721     -3.251214
  H      -2.618703     -4.868076     -2.213742
  H      -2.524830     -1.076166     -1.782621
  H      -3.834469     -1.003175     -0.558150
  H      -4.223498     -1.410937     -2.263720
  H      -4.510905     -4.753493     -0.478710
  H      -5.386422     -3.563294     -1.499842
  H      -5.007357     -3.170152      0.211526
  H      -0.537692      0.869310      5.295302
  H      -0.243444      2.594091      4.897064
  H       0.447351      1.891641      6.399151
  H       1.376407     -0.836115      5.153876
  H       2.404053      0.167220      6.231790
  H       3.006299     -0.316328      4.607944
  H       2.117696      3.371282      4.213531
  H       3.450361      2.174463      4.064837
  H       2.827856      2.634367      5.687816
  Si      2.633504     -0.567860     -2.076261
  C       4.279966     -0.130816     -2.922096
  C       3.000276     -1.572830     -0.515227
  C       1.559843     -1.610936     -3.249611
  H       4.911116      0.498934     -2.259356
  H       4.118837      0.429830     -3.866505
  H       4.860673     -1.045358     -3.166817
  H       2.073144     -2.002031     -0.079971
  H       3.463410     -0.943949      0.270594
  H       3.678243     -2.420254     -0.749595
  H       0.741664     -2.096905     -2.677013
  H       2.156623     -2.417337     -3.724219
  H       1.112449     -1.002241     -4.062413
  H      -0.290467      0.262324     -2.006650
  C       1.740165      1.085185     -1.704078
  C       0.225559      1.044789     -1.405493
  H       1.942570      1.726262     -2.594395
  H       2.275353      1.570786     -0.857785
  Si     -0.726231      2.673112     -1.713477
  H       0.031821      0.776619     -0.338122
  C       0.138345      4.143446     -0.863324
  C      -2.484138      2.508165     -1.015772
  C      -0.791603      2.998685     -3.584475
  H      -0.012851      4.132927      0.237331
  H      -0.284601      5.103189     -1.227503
  H       1.228190      4.160107     -1.073366
  H      -2.452451      2.311784      0.077628
  H      -3.036540      1.670710     -1.494063
  H      -3.072370      3.434765     -1.176780
  H       0.226065      3.084271     -4.017292
  H      -1.332378      3.939815     -3.813434
  H      -1.311977      2.172532     -4.111278
69
Coordinates from ORCA-job my_molecule E -2464.464006400558
  Pt     -0.324534     -1.289702      1.289307
  O      -0.064033     -0.171525      2.868167
  O      -2.460546     -2.538135      1.556226
  P       1.124401      0.962915      2.812383
  P      -2.079014     -3.185649      0.201659
  O      -1.857204     -4.804522      0.312719
  O      -0.690720     -2.497070     -0.265187
  O       0.310848      2.310101      2.294273
  O       2.308113      0.625968      1.928610
  C       1.500104      1.291649      4.592094
  C      -3.308485     -3.035788     -1.159123
  C      -2.769422     -3.753734     -2.410861
  C      -3.490858     -1.527925     -1.420270
  C      -4.628846     -3.668818     -0.674708
  C       0.208831      1.668954      5.340702
  C       2.122579      0.004687      5.170288
  C       2.519130      2.448407      4.627241
  H      -1.423828     -5.022777      1.163154
  H       0.797655      2.657106      1.517497
  H      -1.791512     -3.342895     -2.735113
  H      -3.491390     -3.620593     -3.243199
  H      -2.644127     -4.838846     -2.231614
  H      -2.544388     -1.057863     -1.752301
  H      -3.839414     -0.999709     -0.510736
  H      -4.249912     -1.382569     -2.216936
  H      -4.509973     -4.750903     -0.471356
  H      -5.402620     -3.547137     -1.461852
  H      -4.997204     -3.178364      0.248672
  H      -0.532188      0.846613      5.306504
  H      -0.260060      2.574551      4.907465
  H       0.447615      1.879185      6.404835
  H       1.401098     -0.836148      5.153472
  H       2.424306      0.179169      6.224543
  H       3.021433     -0.297736      4.596848
  H       2.087456      3.378615      4.206829
  H       3.432877      2.197449      4.052465
  H       2.813941      2.652535      5.677903
  Si      2.644825     -0.573884     -2.075518
  C       4.295645     -0.127509     -2.906846
  C       3.007364     -1.581080     -0.515243
  C       1.583319     -1.616245     -3.259611
  H       4.917134      0.503716     -2.238174
  H       4.140635      0.433645     -3.851457
  H       4.882693     -1.038035     -3.147571
  H       2.081579     -2.016386     -0.083932
  H       3.464151     -0.949712      0.272371
  H       3.690685     -2.424379     -0.747512
  H       0.754212     -2.096426     -2.697311
  H       2.183659     -2.426874     -3.722185
  H       1.150871     -1.008235     -4.080986
  H      -0.282278      0.253727     -2.037841
  C       1.743233      1.074849     -1.702051
  C       0.225554      1.030205     -1.421620
  H       1.953993      1.722618     -2.585551
  H       2.267767      1.554796     -0.846372
  Si     -0.725093      2.660979     -1.724795
  H       0.016418      0.753445     -0.358247
  C       0.135637      4.126818     -0.861164
  C      -2.486667      2.493803     -1.036425
  C      -0.779558      2.998734     -3.593940
  H      -0.027859      4.114172      0.238066
  H      -0.279739      5.089334     -1.226779
  H       1.227941      4.139310     -1.059246
  H      -2.459084      2.297167      0.055788
  H      -3.035112      1.656210     -1.518148
  H      -3.077032      3.420475     -1.198969
  H       0.240651      3.085044     -4.020455
  H      -1.316766      3.942647     -3.819555
  H      -1.298886      2.177577     -4.129320
69
Coordinates from ORCA-job my_molecule E -2464.464007763250
  Pt     -0.326311     -1.287898      1.289969
  O      -0.055692     -0.182999      2.874082
  O      -2.456048     -2.545380      1.558270
  P       1.121198      0.962332      2.813532
  P      -2.078981     -3.184211      0.198287
  O      -1.850702     -4.802967      0.300322
  O      -0.696495     -2.486499     -0.271718
  O       0.290732      2.300748      2.301170
  O       2.303885      0.638722      1.923847
  C       1.502418      1.292159      4.591984
  C      -3.315578     -3.032142     -1.155857
  C      -2.781538     -3.744754     -2.413594
  C      -3.501204     -1.522993     -1.410962
  C      -4.632134     -3.669411     -0.666939
  C       0.211010      1.657032      5.346870
  C       2.139315      0.010469      5.166541
  C       2.510691      2.458507      4.623545
  H      -1.415787     -5.023683      1.149740
  H       0.773890      2.658540      1.527036
  H      -1.806898     -3.329692     -2.742264
  H      -3.508608     -3.610246     -3.241463
  H      -2.652466     -4.830847     -2.238928
  H      -2.556207     -1.051166     -1.744418
  H      -3.847471     -0.998445     -0.498687
  H      -4.262633     -1.375627     -2.204240
  H      -4.510703     -4.752356     -0.468284
  H      -5.409917     -3.545968     -1.449403
  H      -4.996428     -3.183017      0.260145
  H      -0.522623      0.827868      5.315545
  H      -0.268071      2.558648      4.916202
  H       0.452722      1.868624      6.410087
  H       1.425477     -0.837066      5.152701
  H       2.444247      0.187138      6.219495
  H       3.038437     -0.283644      4.589045
  H       2.067782      3.385434      4.206634
  H       3.424064      2.217228      4.043546
  H       2.808834      2.663818      5.673129
  Si      2.647076     -0.575756     -2.071940
  C       4.298559     -0.124228     -2.900417
  C       3.010621     -1.582610     -0.511462
  C       1.592933     -1.622832     -3.258529
  H       4.918625      0.506542     -2.228920
  H       4.142764      0.439893     -3.843522
  H       4.887809     -1.033112     -3.144026
  H       2.086702     -2.023556     -0.080766
  H       3.463955     -0.949372      0.276536
  H       3.698989     -2.422274     -0.743524
  H       0.758934     -2.099356     -2.700713
  H       2.196079     -2.436121     -3.712751
  H       1.167453     -1.018299     -4.085905
  H      -0.281681      0.252106     -2.054921
  C       1.741798      1.070026     -1.698810
  C       0.222055      1.023761     -1.430237
  H       1.957992      1.722144     -2.577520
  H       2.259670      1.546623     -0.837714
  Si     -0.723838      2.657676     -1.731279
  H       0.001550      0.739285     -0.371145
  C       0.137741      4.117398     -0.859354
  C      -2.488060      2.494226     -1.050440
  C      -0.770024      3.002680     -3.599214
  H      -0.032225      4.102079      0.238736
  H      -0.271180      5.082646     -1.224390
  H       1.230799      4.125171     -1.050781
  H      -2.465743      2.290408      0.041019
  H      -3.039254      1.662819     -1.538580
  H      -3.071715      3.424447     -1.209726
  H       0.252484      3.089641     -4.020945
  H      -1.305500      3.948260     -3.823550
  H      -1.287576      2.183431     -4.140174
69
Coordinates from ORCA-job my_molecule E -2464.464070334566
  Pt     -0.329186     -1.285255      1.285737
  O      -0.060202     -0.185135      2.875052
  O      -2.442028     -2.556138      1.562358
  P       1.111509      0.964323      2.813561
  P      -2.073686     -3.186577      0.195492
  O      -1.841368     -4.805215      0.287546
  O      -0.697296     -2.481843     -0.279496
  O       0.275058      2.301869      2.308401
  O       2.292098      0.646221      1.918548
  C       1.498995      1.291573      4.591127
  C      -3.321304     -3.029429     -1.147869
  C      -2.796669     -3.736450     -2.412574
  C      -3.508455     -1.519223     -1.394876
  C      -4.634041     -3.669022     -0.651694
  C       0.209822      1.653132      5.351354
  C       2.139701      0.010060      5.161268
  C       2.505448      2.459257      4.621188
  H      -1.400418     -5.029168      1.132688
  H       0.752640      2.662711      1.532136
  H      -1.823400     -3.321654     -2.745217
  H      -3.528673     -3.596498     -3.235119
  H      -2.668586     -4.823493     -2.244219
  H      -2.565014     -1.047102     -1.732311
  H      -3.848362     -0.998652     -0.477850
  H      -4.275311     -1.367779     -2.182359
  H      -4.511138     -4.752798     -0.459063
  H      -5.418139     -3.541892     -1.427374
  H      -4.990892     -3.187032      0.280630
  H      -0.522409      0.822622      5.321725
  H      -0.272333      2.554326      4.923398
  H       0.455119      1.863855      6.414017
  H       1.427029     -0.838340      5.148817
  H       2.448313      0.185586      6.213354
  H       3.037011     -0.282123      4.580084
  H       2.059934      3.385935      4.207114
  H       3.417067      2.220193      4.037906
  H       2.806596      2.663608      5.670052
  Si      2.653543     -0.576240     -2.073020
  C       4.307760     -0.121456     -2.894277
  C       3.012675     -1.582030     -0.510880
  C       1.607130     -1.625225     -3.264681
  H       4.923717      0.509932     -2.219935
  H       4.155173      0.442873     -3.837737
  H       4.899603     -1.029009     -3.135745
  H       2.088153     -2.023738     -0.082579
  H       3.462990     -0.947139      0.277623
  H       3.703240     -2.420708     -0.739888
  H       0.767331     -2.098661     -2.712935
  H       2.213018     -2.440905     -3.710889
  H       1.189941     -1.022504     -4.097751
  H      -0.277457      0.251577     -2.070604
  C       1.744373      1.068066     -1.702739
  C       0.223792      1.020123     -1.439924
  H       1.962374      1.720543     -2.580565
  H       2.258955      1.545102     -0.839870
  Si     -0.721500      2.655100     -1.737060
  H      -0.002465      0.730360     -0.383036
  C       0.138678      4.111727     -0.858503
  C      -2.487203      2.489876     -1.059665
  C      -0.764309      3.006448     -3.603990
  H      -0.037979      4.095646      0.238405
  H      -0.265508      5.078661     -1.224506
  H       1.232941      4.116811     -1.043358
  H      -2.466339      2.283310      0.031237
  H      -3.037715      1.659728     -1.551085
  H      -3.071076      3.420756     -1.217278
  H       0.258914      3.094858     -4.023475
  H      -1.299477      3.952623     -3.826338
  H      -1.280703      2.189045     -4.148485
69
Coordinates from ORCA-job my_molecule E -2464.464110679330
  Pt     -0.332400     -1.283059      1.285459
  O      -0.060488     -0.187420      2.876814
  O      -2.439216     -2.559577      1.563776
  P       1.107389      0.965528      2.813591
  P      -2.073731     -3.185936      0.194397
  O      -1.838823     -4.804331      0.282048
  O      -0.700010     -2.477334     -0.282124
  O       0.265628      2.301356      2.312990
  O       2.286516      0.652176      1.914972
  C       1.498815      1.291411      4.590609
  C      -3.325296     -3.028362     -1.145141
  C      -2.803846     -3.734269     -2.412029
  C      -3.514041     -1.517927     -1.391253
  C      -4.636115     -3.669098     -0.645501
  C       0.210607      1.648565      5.354748
  C       2.144652      0.011007      5.157704
  C       2.501989      2.462037      4.619167
  H      -1.394653     -5.029456      1.125666
  H       0.739424      2.664844      1.535610
  H      -1.831989     -3.318299     -2.748123
  H      -3.538842     -3.594541     -3.231992
  H      -2.674244     -4.821377     -2.244641
  H      -2.571310     -1.045674     -1.730231
  H      -3.852684     -0.997483     -0.473707
  H      -4.282091     -1.366871     -2.177404
  H      -4.512175     -4.753112     -0.454107
  H      -5.422482     -3.541754     -1.418674
  H      -4.990370     -3.188009      0.288263
  H      -0.519540      0.816292      5.325794
  H      -0.274867      2.549115      4.929293
  H       0.457971      1.858269      6.417050
  H       1.434306     -0.839465      5.146457
  H       2.455655      0.186323      6.209128
  H       3.041283     -0.278233      4.573871
  H       2.052333      3.388104      4.207750
  H       3.412577      2.226598      4.032573
  H       2.805787      2.665660      5.667466
  Si      2.656385     -0.576748     -2.072584
  C       4.311565     -0.119822     -2.891301
  C       3.014172     -1.581367     -0.509378
  C       1.614281     -1.628112     -3.266159
  H       4.925562      0.512515     -2.216097
  H       4.159741      0.444201     -3.835113
  H       4.905124     -1.026472     -3.131738
  H       2.089591     -2.024242     -0.082181
  H       3.462414     -0.945268      0.279332
  H       3.706899     -2.418907     -0.736775
  H       0.771324     -2.099454     -2.717518
  H       2.221854     -2.445423     -3.707249
  H       1.201639     -1.027239     -4.102855
  H      -0.275837      0.251609     -2.079011
  C       1.745044      1.066577     -1.703902
  C       0.224052      1.017877     -1.444810
  H       1.964532      1.719851     -2.580832
  H       2.257338      1.543491     -0.839531
  Si     -0.720048      2.653987     -1.739424
  H      -0.005860      0.723972     -0.389771
  C       0.139745      4.107943     -0.856628
  C      -2.486589      2.488752     -1.064547
  C      -0.760248      3.009577     -3.605652
  H      -0.040633      4.090602      0.239606
  H      -0.261466      5.076148     -1.222425
  H       1.234542      4.111199     -1.037778
  H      -2.466996      2.279799      0.025870
  H      -3.037380      1.660368     -1.558082
  H      -3.069248      3.420516     -1.220834
  H       0.263739      3.099125     -4.023445
  H      -1.295345      3.956212     -3.826734
  H      -1.275613      2.193032     -4.152720
69
Coordinates from ORCA-job my_molecule E -2464.464204963115
  Pt     -0.338712     -1.277648      1.282722
  O      -0.068536     -0.186478      2.878100
  O      -2.429649     -2.568005      1.566759
  P       1.096116      0.968875      2.813456
  P      -2.070432     -3.187152      0.192030
  O      -1.830405     -4.804995      0.271756
  O      -0.702353     -2.471281     -0.288108
  O       0.251425      2.306125      2.320461
  O       2.272236      0.658887      1.909170
  C       1.494539      1.291500      4.589502
  C      -3.331056     -3.027536     -1.138553
  C      -2.817471     -3.729460     -2.410850
  C      -3.522354     -1.516722     -1.379152
  C      -4.638016     -3.670761     -0.631882
  C       0.209218      1.647171      5.359166
  C       2.142429      0.010181      5.151906
  C       2.497727      2.462081      4.616369
  H      -1.380387     -5.032016      1.111307
  H       0.718696      2.669918      1.539166
  H      -1.847195     -3.313525     -2.750382
  H      -3.556608     -3.585883     -3.226498
  H      -2.688222     -4.817342     -2.248348
  H      -2.581205     -1.043957     -1.721612
  H      -3.856278     -0.999118     -0.458272
  H      -4.294774     -1.363588     -2.160842
  H      -4.511948     -4.755041     -0.444458
  H      -5.429930     -3.541833     -1.399252
  H      -4.986147     -3.192738      0.305741
  H      -0.520840      0.814612      5.331726
  H      -0.278074      2.548208      4.936713
  H       0.460619      1.855417      6.420889
  H       1.432003     -0.840201      5.142024
  H       2.457499      0.183771      6.202384
  H       3.036754     -0.278335      4.564283
  H       2.046702      3.388643      4.207954
  H       3.406056      2.227556      4.026243
  H       2.805198      2.664201      5.663829
  Si      2.663429     -0.577085     -2.075311
  C       4.321385     -0.118557     -2.887415
  C       3.015853     -1.579204     -0.509524
  C       1.628202     -1.630693     -3.272930
  H       4.932652      0.513668     -2.209349
  H       4.172611      0.446188     -3.831358
  H       4.916399     -1.024831     -3.126417
  H       2.090177     -2.021607     -0.084951
  H       3.460991     -0.941037      0.279421
  H       3.710251     -2.416393     -0.732862
  H       0.779679     -2.098630     -2.729970
  H       2.238159     -2.450661     -3.705672
  H       1.223720     -1.032167     -4.115356
  H      -0.271337      0.251225     -2.090992
  C       1.748925      1.065295     -1.711372
  C       0.228172      1.015150     -1.453087
  H       1.967327      1.716513     -2.590038
  H       2.260342      1.545462     -0.848224
  Si     -0.716331      2.651948     -1.742222
  H      -0.003226      0.717432     -0.399114
  C       0.142147      4.102985     -0.853661
  C      -2.483100      2.483885     -1.068410
  C      -0.755704      3.014399     -3.607227
  H      -0.044798      4.085370      0.241499
  H      -0.254396      5.072648     -1.220672
  H       1.237958      4.103592     -1.028426
  H      -2.463669      2.269555      0.021159
  H      -3.034492      1.658245     -1.566074
  H      -3.064913      3.416617     -1.220082
  H       0.268460      3.106526     -4.023995
  H      -1.291582      3.961238     -3.825131
  H      -1.269916      2.199391     -4.157684
69
Coordinates from ORCA-job my_molecule E -2464.464352289413
  Pt     -0.353700     -1.266133      1.284753
  O      -0.085846     -0.182005      2.884529
  O      -2.429757     -2.564496      1.567670
  P       1.078109      0.973474      2.815608
  P      -2.072600     -3.181798      0.191617
  O      -1.827663     -4.798463      0.269490
  O      -0.708538     -2.460030     -0.289107
  O       0.233775      2.315114      2.330814
  O       2.249104      0.662747      1.903672
  C       1.488114      1.293235      4.589641
  C      -3.337320     -3.026774     -1.135889
  C      -2.824294     -3.729007     -2.408372
  C      -3.533181     -1.516641     -1.379874
  C      -4.641502     -3.672380     -0.625421
  C       0.207896      1.650811      5.367293
  C       2.136863      0.009787      5.147158
  C       2.493970      2.462017      4.611247
  H      -1.370487     -5.024547      1.106762
  H       0.694360      2.676384      1.543955
  H      -1.854706     -3.312658     -2.751023
  H      -3.565365     -3.587203     -3.222572
  H      -2.693432     -4.816727     -2.244880
  H      -2.592282     -1.044322     -1.721977
  H      -3.869926     -0.996401     -0.461549
  H      -4.303477     -1.367735     -2.163896
  H      -4.512589     -4.756421     -0.436795
  H      -5.434987     -3.546325     -1.391284
  H      -4.988839     -3.193879      0.312176
  H      -0.524938      0.820898      5.341057
  H      -0.278592      2.554650      4.950171
  H       0.465243      1.854733      6.428225
  H       1.424528     -0.839328      5.140928
  H       2.458737      0.181732      6.195896
  H       3.027268     -0.280119      4.553939
  H       2.041606      3.390356      4.207187
  H       3.398030      2.226906      4.014131
  H       2.809276      2.661572      5.657059
  Si      2.673596     -0.578847     -2.084476
  C       4.334201     -0.121951     -2.892288
  C       3.018983     -1.574214     -0.514062
  C       1.643098     -1.636151     -3.283287
  H       4.943161      0.511867     -2.213942
  H       4.188676      0.440398     -3.838175
  H       4.930037     -1.028558     -3.126949
  H       2.091131     -2.013901     -0.092444
  H       3.460049     -0.932419      0.274273
  H       3.715266     -2.411982     -0.730315
  H       0.789139     -2.098972     -2.744414
  H       2.254305     -2.460329     -3.706648
  H       1.246595     -1.041251     -4.132096
  H      -0.263995      0.248684     -2.092358
  C       1.757733      1.063832     -1.728192
  C       0.240100      1.012378     -1.458724
  H       1.968466      1.709168     -2.613504
  H       2.273629      1.552232     -0.871531
  Si     -0.710209      2.648056     -1.737445
  H       0.016451      0.716179     -0.402872
  C       0.145939      4.097762     -0.845525
  C      -2.473172      2.472196     -1.056504
  C      -0.758063      3.018707     -3.600695
  H      -0.049093      4.081685      0.248577
  H      -0.245948      5.068055     -1.215633
  H       1.242828      4.095789     -1.012661
  H      -2.447555      2.253509      0.031659
  H      -3.024383      1.647449     -1.554419
  H      -3.058394      3.404137     -1.201583
  H       0.264436      3.117903     -4.020752
  H      -1.299552      3.964095     -3.812245
  H      -1.270317      2.203467     -4.153110
69
Coordinates from ORCA-job my_molecule E -2464.464387709259
  Pt     -0.358967     -1.263967      1.290624
  O      -0.105823     -0.162582      2.881273
  O      -2.444058     -2.558849      1.567795
  P       1.073982      0.976682      2.816470
  P      -2.075786     -3.184727      0.198585
  O      -1.832605     -4.801310      0.285983
  O      -0.706096     -2.468869     -0.275794
  O       0.251866      2.328662      2.323442
  O       2.245148      0.646508      1.911422
  C       1.480152      1.295485      4.591218
  C      -3.329168     -3.032655     -1.140222
  C      -2.805744     -3.736423     -2.407512
  C      -3.522249     -1.523038     -1.385828
  C      -4.637925     -3.677191     -0.639835
  C       0.200416      1.667986      5.362596
  C       2.112320      0.005212      5.152649
  C       2.499156      2.452938      4.615844
  H      -1.380451     -5.023877      1.126672
  H       0.719623      2.677715      1.535469
  H      -1.830611     -3.324819     -2.737204
  H      -3.536146     -3.589977     -3.230614
  H      -2.681942     -4.825359     -2.243942
  H      -2.579550     -1.050184     -1.722337
  H      -3.863777     -1.003650     -0.469225
  H      -4.288313     -1.373356     -2.173761
  H      -4.510447     -4.760415     -0.447484
  H      -5.424726     -3.553175     -1.412978
  H      -4.993701     -3.196613      0.293380
  H      -0.541754      0.846208      5.333163
  H      -0.274287      2.577361      4.943162
  H       0.455341      1.869431      6.424586
  H       1.390684     -0.836070      5.143210
  H       2.431060      0.174206      6.202667
  H       3.002263     -0.294324      4.563609
  H       2.059796      3.385508      4.207298
  H       3.403747      2.206004      4.024626
  H       2.811125      2.651280      5.662721
  Si      2.672712     -0.576732     -2.096336
  C       4.333116     -0.131512     -2.910200
  C       3.016016     -1.569929     -0.524552
  C       1.630761     -1.630215     -3.288339
  H       4.949377      0.498452     -2.233789
  H       4.187317      0.431993     -3.855566
  H       4.921837     -1.042845     -3.147291
  H       2.086552     -2.003297     -0.100345
  H       3.461777     -0.928696      0.261587
  H       3.706613     -2.412417     -0.740004
  H       0.783508     -2.095883     -2.741443
  H       2.237241     -2.452501     -3.721588
  H       1.224304     -1.032597     -4.130279
  H      -0.261429      0.248166     -2.064943
  C       1.765436      1.070116     -1.741881
  C       0.251940      1.019799     -1.447879
  H       1.962443      1.707379     -2.636162
  H       2.294367      1.566646     -0.898469
  Si     -0.706958      2.650402     -1.725923
  H       0.048955      0.737114     -0.384347
  C       0.150498      4.107160     -0.847827
  C      -2.461903      2.469589     -1.028131
  C      -0.773630      3.013169     -3.589546
  H      -0.039138      4.098801      0.247140
  H      -0.245419      5.073560     -1.223571
  H       1.246262      4.106923     -1.020448
  H      -2.426125      2.249124      0.059684
  H      -3.016218      1.644556     -1.521756
  H      -3.048699      3.399940     -1.166470
  H       0.244483      3.118666     -4.018739
  H      -1.324151      3.953632     -3.799298
  H      -1.284399      2.191685     -4.135015
69
Coordinates from ORCA-job my_molecule E -2464.464674422144
  Pt     -0.394485     -1.242224      1.302468
  O      -0.143547     -0.131916      2.895116
  O      -2.468831     -2.552750      1.566744
  P       1.049925      0.987999      2.823387
  P      -2.086651     -3.179121      0.201176
  O      -1.833551     -4.793581      0.294028
  O      -0.718665     -2.454266     -0.264970
  O       0.247541      2.348243      2.338591
  O       2.210134      0.644084      1.911173
  C       1.472409      1.299950      4.595425
  C      -3.333928     -3.041223     -1.145537
  C      -2.803082     -3.751468     -2.405825
  C      -3.531672     -1.533924     -1.402458
  C      -4.642166     -3.687555     -0.645503
  C       0.205523      1.697990      5.374499
  C       2.081387     -0.002146      5.153243
  C       2.514761      2.435506      4.613474
  H      -1.383985     -5.010608      1.135452
  H       0.704944      2.680161      1.538949
  H      -1.826058     -3.341005     -2.730405
  H      -3.528469     -3.610282     -3.234616
  H      -2.679298     -4.838268     -2.236062
  H      -2.587794     -1.059626     -1.736541
  H      -3.880441     -1.009342     -0.490849
  H      -4.294540     -1.392685     -2.196186
  H      -4.510525     -4.768457     -0.444367
  H      -5.427005     -3.573425     -1.422786
  H      -5.003654     -3.201472      0.283002
  H      -0.553000      0.891197      5.349646
  H      -0.253375      2.616135      4.957347
  H       0.470775      1.894862      6.435200
  H       1.342639     -0.827785      5.149410
  H       2.411039      0.160883      6.200952
  H       2.960191     -0.320298      4.557943
  H       2.092757      3.376203      4.207358
  H       3.409990      2.169727      4.016745
  H       2.837123      2.627394      5.658395
  Si      2.686074     -0.573110     -2.115127
  C       4.349236     -0.137239     -2.927089
  C       3.015826     -1.555369     -0.533990
  C       1.645928     -1.631467     -3.304077
  H       4.964016      0.495452     -2.253923
  H       4.208266      0.419546     -3.876751
  H       4.936323     -1.050586     -3.155127
  H       2.078449     -1.980256     -0.113118
  H       3.459481     -0.908971      0.248156
  H       3.704874     -2.402183     -0.736505
  H       0.794930     -2.092079     -2.758688
  H       2.252631     -2.458311     -3.728184
  H       1.245010     -1.038630     -4.152354
  H      -0.250355      0.246053     -2.036047
  C       1.782474      1.079487     -1.775561
  C       0.276986      1.027759     -1.442900
  H       1.952710      1.693644     -2.689630
  H       2.333971      1.599222     -0.963951
  Si     -0.697881      2.648973     -1.711730
  H       0.102832      0.753538     -0.371819
  C       0.154360      4.108009     -0.835181
  C      -2.445538      2.447939     -0.998956
  C      -0.787569      3.017483     -3.573519
  H      -0.041699      4.104908      0.257263
  H      -0.239444      5.072550     -1.218053
  H       1.251772      4.108518     -1.001316
  H      -2.396963      2.228349      0.088200
  H      -2.994082      1.616128     -1.489220
  H      -3.046801      3.372140     -1.131486
  H       0.223976      3.134415     -4.013254
  H      -1.349729      3.952951     -3.773692
  H      -1.296480      2.194231     -4.115987
69
Coordinates from ORCA-job my_molecule E -2464.464924196145
  Pt     -0.410735     -1.225720      1.299451
  O      -0.170551     -0.121475      2.894839
  O      -2.459435     -2.547377      1.567551
  P       1.024138      0.995650      2.821098
  P      -2.083999     -3.172521      0.199053
  O      -1.825647     -4.785623      0.290591
  O      -0.721924     -2.441375     -0.271782
  O       0.229231      2.365837      2.346721
  O       2.177897      0.648192      1.900241
  C       1.458824      1.301031      4.591412
  C      -3.341171     -3.041330     -1.138449
  C      -2.815738     -3.753083     -2.400380
  C      -3.545632     -1.535576     -1.399310
  C      -4.644041     -3.690909     -0.628934
  C       0.197380      1.700049      5.379394
  C       2.068204     -0.004596      5.142100
  C       2.504199      2.434423      4.606185
  H      -1.362073     -5.001035      1.126197
  H       0.678343      2.690790      1.538442
  H      -1.840583     -3.342388     -2.733205
  H      -3.546163     -3.614490     -3.224671
  H      -2.689608     -4.839952     -2.229176
  H      -2.604088     -1.061463     -1.737990
  H      -3.893189     -1.008539     -0.488933
  H      -4.310609     -1.399920     -2.191658
  H      -4.508216     -4.771720     -0.427644
  H      -5.433793     -3.579446     -1.401192
  H      -5.000860     -3.204853      0.301324
  H      -0.564322      0.896145      5.354355
  H      -0.260480      2.622196      4.969303
  H       0.468684      1.890343      6.439497
  H       1.327360     -0.828858      5.140349
  H       2.404557      0.154514      6.188186
  H       2.943058     -0.323215      4.540851
  H       2.082135      3.377317      4.204233
  H       3.395494      2.167824      4.004080
  H       2.832925      2.623178      5.649564
  Si      2.698799     -0.574893     -2.128185
  C       4.367753     -0.143234     -2.931731
  C       3.016449     -1.546737     -0.539457
  C       1.666526     -1.638324     -3.320326
  H       4.980028      0.490588     -2.256393
  H       4.232987      0.411248     -3.883793
  H       4.955080     -1.058554     -3.154158
  H       2.076961     -1.965644     -0.123466
  H       3.454822     -0.894906      0.241650
  H       3.706682     -2.395399     -0.730914
  H       0.807790     -2.092069     -2.782267
  H       2.275860     -2.470290     -3.731191
  H       1.277485     -1.050730     -4.177504
  H      -0.240710      0.244071     -2.034956
  C       1.792580      1.078001     -1.802046
  C       0.293364      1.025084     -1.448641
  H       1.949437      1.681044     -2.727401
  H       2.352629      1.612420     -1.002582
  Si     -0.687077      2.645863     -1.701649
  H       0.135393      0.748652     -0.374621
  C       0.164678      4.103024     -0.823315
  C      -2.428901      2.436588     -0.978343
  C      -0.789328      3.024593     -3.560860
  H      -0.040538      4.102028      0.267466
  H      -0.222221      5.068908     -1.209816
  H       1.262776      4.099217     -0.980859
  H      -2.372859      2.206174      0.107133
  H      -2.981478      1.610097     -1.472238
  H      -3.029269      3.361442     -1.097979
  H       0.219508      3.150923     -4.005576
  H      -1.358615      3.957788     -3.751582
  H      -1.296161      2.201001     -4.106090
69
Coordinates from ORCA-job my_molecule E -2464.464780152384
  Pt     -0.446715     -1.213259      1.317146
  O      -0.206518     -0.052704      2.870188
  O      -2.533830     -2.506981      1.563047
  P       1.022055      1.007549      2.815140
  P      -2.112461     -3.170287      0.228229
  O      -1.869770     -4.783363      0.366661
  O      -0.722999     -2.468222     -0.220004
  O       0.284881      2.417881      2.317420
  O       2.164153      0.608073      1.913646
  C       1.453915      1.296462      4.589137
  C      -3.315376     -3.063882     -1.158299
  C      -2.743392     -3.804942     -2.383974
  C      -3.505684     -1.561133     -1.463750
  C      -4.637460     -3.702470     -0.687042
  C       0.198131      1.722521      5.373170
  C       2.030020     -0.026344      5.137838
  C       2.526137      2.404980      4.613868
  H      -1.415594     -4.982980      1.216301
  H       0.752006      2.705327      1.504684
  H      -1.757454     -3.396634     -2.693207
  H      -3.443405     -3.686790     -3.236245
  H      -2.620337     -4.887801     -2.181972
  H      -2.553562     -1.090736     -1.786026
  H      -3.881690     -1.008307     -0.580272
  H      -4.241714     -1.448391     -2.283797
  H      -4.511199     -4.780926     -0.457813
  H      -5.393495     -3.607159     -1.492663
  H      -5.031302     -3.195841      0.216736
  H      -0.584706      0.940711      5.336731
  H      -0.232644      2.660356      4.969950
  H       0.467409      1.895310      6.436270
  H       1.269976     -0.833371      5.128082
  H       2.364582      0.119340      6.186799
  H       2.900893     -0.361364      4.538558
  H       2.125795      3.362199      4.219131
  H       3.413601      2.122841      4.009178
  H       2.858578      2.575306      5.660077
  Si      2.680701     -0.566581     -2.145447
  C       4.346994     -0.168292     -2.974003
  C       2.994815     -1.520278     -0.545876
  C       1.617705     -1.628761     -3.313217
  H       4.970631      0.473359     -2.319135
  H       4.210988      0.365410     -3.937223
  H       4.923008     -1.092849     -3.180500
  H       2.047932     -1.922294     -0.123248
  H       3.442489     -0.867424      0.223923
  H       3.673987     -2.380548     -0.728279
  H       0.779334     -2.089010     -2.749075
  H       2.215427     -2.456951     -3.749884
  H       1.198128     -1.038251     -4.153535
  H      -0.234985      0.250995     -1.947511
  C       1.795410      1.099744     -1.830461
  C       0.316104      1.053702     -1.405589
  H       1.914331      1.680434     -2.777848
  H       2.389827      1.651596     -1.066468
  Si     -0.680559      2.663738     -1.664405
  H       0.210289      0.805844     -0.317234
  C       0.173915      4.143606     -0.821480
  C      -2.406668      2.444536     -0.909290
  C      -0.820218      3.016843     -3.526069
  H      -0.011648      4.162411      0.274586
  H      -0.227515      5.098887     -1.219962
  H       1.269266      4.147468     -0.998172
  H      -2.327403      2.248456      0.178692
  H      -2.946745      1.593821     -1.369864
  H      -3.034156      3.354621     -1.046521
  H       0.179339      3.156981     -3.989435
  H      -1.411639      3.937255     -3.717960
  H      -1.319912      2.176562     -4.052430
69
Coordinates from ORCA-job my_molecule E -2464.465225982457
  Pt     -0.420673     -1.246214      1.301100
  O      -0.242692     -0.066070      2.875060
  O      -2.441896     -2.567879      1.569660
  P       1.003596      0.992974      2.809303
  P      -2.064789     -3.210660      0.206438
  O      -1.829625     -4.825146      0.312396
  O      -0.690201     -2.504506     -0.252580
  O       0.292516      2.380338      2.327339
  O       2.149346      0.593477      1.894202
  C       1.438203      1.299414      4.579978
  C      -3.318376     -3.066683     -1.136818
  C      -2.804168     -3.786957     -2.398370
  C      -3.500499     -1.561708     -1.396800
  C      -4.633285     -3.694031     -0.625644
  C       0.192897      1.775137      5.348918
  C       1.967774     -0.029600      5.152094
  C       2.543839      2.373602      4.594351
  H      -1.363058     -5.038807      1.141266
  H       0.738927      2.663476      1.505876
  H      -1.820119     -3.392959     -2.715848
  H      -3.526844     -3.630254     -3.230242
  H      -2.698248     -4.874996     -2.232639
  H      -2.560502     -1.092013     -1.750441
  H      -3.826199     -1.035977     -0.477338
  H      -4.282507     -1.414623     -2.173507
  H      -4.511260     -4.771385     -0.417776
  H      -5.423754     -3.579050     -1.399327
  H      -4.984241     -3.197894      0.301382
  H      -0.610784      1.012083      5.326533
  H      -0.211555      2.714356      4.921502
  H       0.463964      1.966548      6.410210
  H       1.183613     -0.811881      5.146237
  H       2.296606      0.122555      6.201690
  H       2.831767     -0.400052      4.567115
  H       2.180342      3.330742      4.173632
  H       3.425466      2.049798      4.008440
  H       2.870175      2.559789      5.639272
  Si      2.699040     -0.558742     -2.141047
  C       4.370721     -0.145468     -2.940010
  C       2.998118     -1.532482     -0.544702
  C       1.654043     -1.604827     -3.334139
  H       4.994587      0.475700     -2.260434
  H       4.246510      0.414180     -3.891328
  H       4.942106     -1.072152     -3.164449
  H       2.048278     -1.934757     -0.129081
  H       3.443392     -0.875580      0.228827
  H       3.673457     -2.391277     -0.726113
  H       0.803487     -2.070896     -2.789244
  H       2.257295     -2.428525     -3.766453
  H       1.251149     -1.004946     -4.177105
  H      -0.229743      0.265837     -1.961231
  C       1.807989      1.115683     -1.820832
  C       0.317990      1.070136     -1.418786
  H       1.932918      1.682492     -2.768964
  H       2.408833      1.663547     -1.070268
  Si     -0.684142      2.668002     -1.686761
  H       0.208592      0.808954     -0.341932
  C       0.163386      4.135250     -0.823606
  C      -2.412034      2.426738     -0.941090
  C      -0.822382      3.032907     -3.545179
  H      -0.030865      4.141699      0.267764
  H      -0.233507      5.092819     -1.218879
  H       1.261434      4.140483     -0.991992
  H      -2.338903      2.193707      0.143584
  H      -2.955518      1.590523     -1.430938
  H      -3.027474      3.338554     -1.048688
  H       0.173458      3.181607     -4.006982
  H      -1.417951      3.949995     -3.728622
  H      -1.318017      2.195892     -4.077983
69
Coordinates from ORCA-job my_molecule E -2464.463405348373
  Pt     -0.390114     -1.239820      1.333980
  O      -0.176214     -0.058865      2.843336
  O      -2.581987     -2.537062      1.581360
  P       1.081583      0.995774      2.812321
  P      -2.125395     -3.188358      0.255278
  O      -1.865207     -4.805940      0.377707
  O      -0.719557     -2.491542     -0.170950
  O       0.368349      2.410437      2.272023
  O       2.241599      0.566085      1.936547
  C       1.461743      1.298045      4.595664
  C      -3.283649     -3.079148     -1.172210
  C      -2.662117     -3.820637     -2.370979
  C      -3.471250     -1.577405     -1.489522
  C      -4.617655     -3.724816     -0.750856
  C       0.180533      1.716633      5.342533
  C       2.034836     -0.017891      5.165465
  C       2.522386      2.417464      4.647819
  H      -1.439110     -5.016857      1.246005
  H       0.870273      2.706451      1.475921
  H      -1.670650     -3.398645     -2.653481
  H      -3.334197     -3.719763     -3.241533
  H      -2.533668     -4.902117     -2.157703
  H      -2.520620     -1.106688     -1.803205
  H      -3.858900     -1.020150     -0.615354
  H      -4.196446     -1.471738     -2.317122
  H      -4.495788     -4.808440     -0.523659
  H      -5.342075     -3.627286     -1.582264
  H      -5.044872     -3.223981      0.140325
  H      -0.592177      0.925714      5.291783
  H      -0.250115      2.648289      4.923961
  H       0.420314      1.898883      6.409822
  H       1.283207     -0.833029      5.138266
  H       2.337572      0.135981      6.222228
  H       2.926282     -0.347948      4.592832
  H       2.127246      3.369260      4.235181
  H       3.430913      2.138614      4.075670
  H       2.818115      2.599167      5.701654
  Si      2.630542     -0.572762     -2.134925
  C       4.276734     -0.189425     -3.016604
  C       2.989231     -1.544172     -0.548968
  C       1.520593     -1.628737     -3.270311
  H       4.919789      0.458640     -2.389531
  H       4.112699      0.333260     -3.980652
  H       4.845419     -1.116126     -3.231230
  H       2.068060     -1.956269     -0.109197
  H       3.453935     -0.903599      0.231061
  H       3.663943     -2.402889     -0.765398
  H       0.716159     -2.099255     -2.672629
  H       2.100701     -2.447395     -3.750196
  H       1.054073     -1.030742     -4.079996
  H      -0.271136      0.285303     -1.951869
  C       1.769049      1.097231     -1.788209
  C       0.277892      1.070063     -1.394040
  H       1.924201      1.714743     -2.711302
  H       2.347344      1.612708     -0.973526
  Si     -0.687103      2.700032     -1.660242
  H       0.146726      0.811750     -0.312779
  C       0.200338      4.177308     -0.851311
  C      -2.409474      2.531570     -0.892057
  C      -0.827026      3.025614     -3.526092
  H       0.057057      4.189525      0.251990
  H      -0.213225      5.136673     -1.228505
  H       1.283542      4.177935     -1.070428
  H      -2.327251      2.356752      0.200768
  H      -2.964359      1.680226     -1.329073
  H      -3.023733      3.447891     -1.048285
  H       0.175684      3.150141     -3.992299
  H      -1.411342      3.947834     -3.734203
  H      -1.332251      2.177502     -4.038803
69
Coordinates from ORCA-job my_molecule E -2464.464195989765
  Pt     -0.412303     -1.233071      1.334953
  O      -0.161922     -0.065328      2.872565
  O      -2.604176     -2.522561      1.558141
  P       1.081267      0.995846      2.821287
  P      -2.138848     -3.178987      0.239528
  O      -1.876199     -4.792008      0.376879
  O      -0.737891     -2.474535     -0.182859
  O       0.346375      2.398360      2.284256
  O       2.237049      0.578573      1.939250
  C       1.475817      1.310598      4.599344
  C      -3.292078     -3.081293     -1.191866
  C      -2.664497     -3.815134     -2.394061
  C      -3.490902     -1.580189     -1.503568
  C      -4.622230     -3.735523     -0.768859
  C       0.199359      1.725556      5.355157
  C       2.061050      0.001860      5.170998
  C       2.531079      2.435431      4.634441
  H      -1.469204     -4.990614      1.248681
  H       0.846057      2.702783      1.495311
  H      -1.678229     -3.386590     -2.669806
  H      -3.337133     -3.713778     -3.268670
  H      -2.528917     -4.895865     -2.185700
  H      -2.540034     -1.101949     -1.808815
  H      -3.887297     -1.030499     -0.626641
  H      -4.214827     -1.473873     -2.336413
  H      -4.491617     -4.813715     -0.538559
  H      -5.351249     -3.645739     -1.600139
  H      -5.052461     -3.236686      0.122975
  H      -0.568864      0.928723      5.317132
  H      -0.241086      2.650765      4.932524
  H       0.448405      1.918268      6.419580
  H       1.313203     -0.816555      5.156639
  H       2.374076      0.164027      6.223732
  H       2.947348     -0.327366      4.591539
  H       2.127048      3.381753      4.220414
  H       3.434564      2.158264      4.054596
  H       2.837062      2.624726      5.684453
  Si      2.633724     -0.580215     -2.130308
  C       4.277573     -0.191211     -3.009800
  C       2.995046     -1.550296     -0.546160
  C       1.525986     -1.634960     -3.268877
  H       4.923252      0.452298     -2.377522
  H       4.112049      0.339044     -3.970311
  H       4.844860     -1.118549     -3.231783
  H       2.070687     -1.970467     -0.108367
  H       3.454169     -0.906496      0.231140
  H       3.675280     -2.402384     -0.761408
  H       0.716302     -2.104114     -2.674242
  H       2.107261     -2.454513     -3.743677
  H       1.065308     -1.036334     -4.082736
  H      -0.272846      0.272225     -1.937663
  C       1.768364      1.090430     -1.781926
  C       0.279241      1.062276     -1.382754
  H       1.914300      1.698512     -2.709302
  H       2.352310      1.611080     -0.984653
  Si     -0.687245      2.690028     -1.651565
  H       0.146371      0.809293     -0.300732
  C       0.195071      4.164241     -0.828916
  C      -2.417052      2.511643     -0.896244
  C      -0.816308      3.024171     -3.518081
  H       0.045884      4.174166      0.272898
  H      -0.216277      5.124249     -1.206058
  H       1.282108      4.166432     -1.041410
  H      -2.343698      2.327333      0.196690
  H      -2.969376      1.662135     -1.346365
  H      -3.028426      3.427572     -1.047799
  H       0.187370      3.144864     -3.979589
  H      -1.393467      3.949984     -3.724095
  H      -1.325615      2.183890     -4.036803
69
Coordinates from ORCA-job my_molecule E -2464.464255261155
  Pt     -0.424710     -1.223699      1.340114
  O      -0.158711     -0.081429      2.889046
  O      -2.610214     -2.510489      1.551338
  P       1.077007      0.985719      2.823958
  P      -2.143174     -3.167968      0.232387
  O      -1.872476     -4.778927      0.375043
  O      -0.746451     -2.455597     -0.189066
  O       0.332109      2.379567      2.288778
  O       2.230808      0.576809      1.935712
  C       1.481534      1.312137      4.598276
  C      -3.297377     -3.081651     -1.200343
  C      -2.665904     -3.815827     -2.398347
  C      -3.504200     -1.585405     -1.519351
  C      -4.624958     -3.741394     -0.776437
  C       0.210878      1.736808      5.357531
  C       2.065333      0.006517      5.177117
  C       2.540243      2.433841      4.619606
  H      -1.467382     -4.974440      1.250012
  H       0.832291      2.689824      1.503350
  H      -1.683035     -3.381998     -2.677104
  H      -3.340751     -3.725332     -3.272501
  H      -2.521790     -4.892768     -2.184089
  H      -2.554463     -1.103832     -1.825128
  H      -3.905754     -1.034095     -0.647047
  H      -4.226120     -1.488678     -2.354489
  H      -4.488948     -4.817465     -0.543333
  H      -5.354103     -3.658077     -1.608020
  H      -5.058739     -3.243120      0.113258
  H      -0.559662      0.941908      5.330189
  H      -0.229020      2.659188      4.928731
  H       0.466084      1.938261      6.419289
  H       1.314858     -0.809426      5.173302
  H       2.384540      0.176243      6.226970
  H       2.947181     -0.330171      4.595832
  H       2.136566      3.377928      4.200659
  H       3.439489      2.150084      4.036674
  H       2.852739      2.630141      5.666678
  Si      2.634870     -0.581238     -2.125741
  C       4.277047     -0.188138     -3.003690
  C       2.996022     -1.550278     -0.541898
  C       1.530720     -1.636586     -3.265214
  H       4.921557      0.455032     -2.370589
  H       4.111450      0.342928     -3.963765
  H       4.845138     -1.114378     -3.225949
  H       2.071212     -1.974371     -0.106296
  H       3.451160     -0.903802      0.234724
  H       3.680193     -2.398931     -0.755693
  H       0.718012     -2.104357     -2.672396
  H       2.114167     -2.457030     -3.734295
  H       1.074598     -1.039984     -4.082801
  H      -0.273453      0.271763     -1.931627
  C       1.768203      1.090507     -1.779058
  C       0.280090      1.062743     -1.379362
  H       1.910693      1.691308     -2.710184
  H       2.358256      1.614927     -0.989485
  Si     -0.687569      2.688844     -1.648304
  H       0.143829      0.809883     -0.298430
  C       0.194484      4.158444     -0.819381
  C      -2.416962      2.505908     -0.894455
  C      -0.816113      3.028143     -3.513729
  H       0.041517      4.164319      0.281836
  H      -0.213827      5.120004     -1.195038
  H       1.282492      4.159170     -1.028604
  H      -2.343294      2.318766      0.197001
  H      -2.967492      1.656986     -1.346446
  H      -3.028965      3.421379     -1.043399
  H       0.187002      3.148657     -3.975056
  H      -1.391909      3.955536     -3.716465
  H      -1.326842      2.190660     -4.034801
69
Coordinates from ORCA-job my_molecule E -2464.464224613607
  Pt     -0.430455     -1.222391      1.342507
  O      -0.151858     -0.086986      2.898237
  O      -2.628611     -2.506635      1.542360
  P       1.082210      0.983889      2.826746
  P      -2.151414     -3.164503      0.228173
  O      -1.874613     -4.773706      0.376608
  O      -0.755369     -2.446590     -0.189238
  O       0.330827      2.371803      2.288942
  O       2.236199      0.577461      1.937736
  C       1.488247      1.316604      4.599459
  C      -3.298334     -3.084681     -1.210161
  C      -2.660503     -3.816715     -2.406902
  C      -3.509831     -1.589021     -1.527397
  C      -4.625255     -3.749031     -0.790699
  C       0.216893      1.737534      5.359639
  C       2.079106      0.014978      5.180399
  C       2.542117      2.442976      4.615703
  H      -1.481207     -4.964853      1.255607
  H       0.833978      2.685256      1.506808
  H      -1.680757     -3.376751     -2.684528
  H      -3.335104     -3.731327     -3.282824
  H      -2.509302     -4.892783     -2.191332
  H      -2.561317     -1.102818     -1.829083
  H      -3.915962     -1.041494     -0.654419
  H      -4.230409     -1.492867     -2.364651
  H      -4.485916     -4.823798     -0.556364
  H      -5.352373     -3.669057     -1.624966
  H      -5.064100     -3.252026      0.097557
  H      -0.550019      0.938876      5.336113
  H      -0.228240      2.656461      4.928495
  H       0.472967      1.943597      6.420246
  H       1.332523     -0.804593      5.179679
  H       2.398992      0.188572      6.229280
  H       2.961730     -0.318813      4.598662
  H       2.133752      3.383797      4.194129
  H       3.441787      2.161224      4.032787
  H       2.855120      2.644191      5.661575
  Si      2.631115     -0.583677     -2.121711
  C       4.270630     -0.191734     -3.004634
  C       2.996665     -1.553800     -0.539672
  C       1.522140     -1.637507     -3.257622
  H       4.918548      0.449895     -2.372659
  H       4.101811      0.341193     -3.963200
  H       4.836817     -1.118819     -3.230582
  H       2.073154     -1.981953     -0.103627
  H       3.451016     -0.906528      0.236757
  H       3.683514     -2.399650     -0.755727
  H       0.710965     -2.104976     -2.662115
  H       2.103572     -2.458158     -3.728711
  H       1.063831     -1.040275     -4.073467
  H      -0.275590      0.270559     -1.923848
  C       1.767029      1.088946     -1.772585
  C       0.278747      1.062455     -1.372087
  H       1.908204      1.688790     -2.704210
  H       2.359670      1.613429     -0.985892
  Si     -0.687365      2.688445     -1.644478
  H       0.142701      0.813407     -0.290456
  C       0.194868      4.157293     -0.813152
  C      -2.418990      2.506292     -0.895193
  C      -0.810814      3.027988     -3.510073
  H       0.043223      4.161680      0.288314
  H      -0.213948      5.119203     -1.187336
  H       1.283078      4.158569     -1.023481
  H      -2.349039      2.318375      0.196768
  H      -2.969357      1.657662     -1.349789
  H      -3.028769      3.421983     -1.045108
  H       0.193382      3.146821     -3.969117
  H      -1.384108      3.956521     -3.713215
  H      -1.322198      2.191793     -4.032978
69
Coordinates from ORCA-job my_molecule E -2464.464179569205
  Pt     -0.429051     -1.222184      1.343988
  O      -0.150715     -0.085146      2.896498
  O      -2.635138     -2.505201      1.541626
  P       1.084828      0.984495      2.826247
  P      -2.154177     -3.164157      0.229863
  O      -1.877451     -4.773325      0.379780
  O      -0.756022     -2.448869     -0.185060
  O       0.335430      2.372110      2.286643
  O       2.239214      0.576342      1.938967
  C       1.488265      1.318242      4.599375
  C      -3.295591     -3.085842     -1.213148
  C      -2.651697     -3.817765     -2.406034
  C      -3.507359     -1.591079     -1.533702
  C      -4.623065     -3.751615     -0.797991
  C       0.216448      1.741373      5.357245
  C       2.076040      0.016530      5.182324
  C       2.543547      2.443036      4.616759
  H      -1.486662     -4.964023      1.260412
  H       0.841313      2.686738      1.507351
  H      -1.670438     -3.377691     -2.676581
  H      -3.320580     -3.731808     -3.285940
  H      -2.502557     -4.893493     -2.190226
  H      -2.557869     -1.105029     -1.833463
  H      -3.916570     -1.042297     -0.663244
  H      -4.225333     -1.497026     -2.373304
  H      -4.483135     -4.825691     -0.562121
  H      -5.347249     -3.673440     -1.634876
  H      -5.065813     -3.254566      0.087993
  H      -0.551228      0.943366      5.333832
  H      -0.227108      2.660086      4.924202
  H       0.471546      1.948850      6.418102
  H       1.327990     -0.801446      5.181860
  H       2.395233      0.190917      6.231420
  H       2.958340     -0.319586      4.601838
  H       2.137129      3.384137      4.194550
  H       3.443470      2.159926      4.035006
  H       2.855458      2.644061      5.663109
  Si      2.627958     -0.585755     -2.122790
  C       4.265246     -0.194617     -3.009536
  C       2.996701     -1.555078     -0.541055
  C       1.516141     -1.639563     -3.256369
  H       4.914940      0.447145     -2.379420
  H       4.094380      0.337751     -3.968147
  H       4.830415     -1.122068     -3.236266
  H       2.074287     -1.983807     -0.103492
  H       3.452023     -0.907601      0.234380
  H       3.682950     -2.400525     -0.758339
  H       0.706943     -2.107698     -2.658576
  H       2.096309     -2.459366     -3.729948
  H       1.055032     -1.041970     -4.070563
  H      -0.278551      0.271646     -1.918029
  C       1.765108      1.088134     -1.772506
  C       0.277744      1.063665     -1.368982
  H       1.905145      1.686688     -2.704437
  H       2.359773      1.611969     -0.987843
  Si     -0.687287      2.690378     -1.640576
  H       0.144139      0.816328     -0.287307
  C       0.197525      4.158897     -0.811691
  C      -2.417567      2.509290     -0.887757
  C      -0.814049      3.028796     -3.506473
  H       0.048213      4.163899      0.290158
  H      -0.211587      5.120704     -1.185439
  H       1.285360      4.159712     -1.024276
  H      -2.345350      2.322186      0.204127
  H      -2.968785      1.660419     -1.340286
  H      -3.027648      3.424819     -1.037281
  H       0.189055      3.146171     -3.967539
  H      -1.386825      3.957533     -3.709840
  H      -1.327183      2.192991     -4.027201
69
Coordinates from ORCA-job my_molecule E -2464.464279281318
  Pt     -0.426322     -1.224235      1.340646
  O      -0.156047     -0.085835      2.894261
  O      -2.621351     -2.512711      1.545497
  P       1.079770      0.984495      2.825195
  P      -2.147070     -3.168394      0.229532
  O      -1.870908     -4.777804      0.374090
  O      -0.751494     -2.451664     -0.189194
  O       0.331459      2.373578      2.288629
  O       2.233552      0.576835      1.936001
  C       1.484042      1.316179      4.598440
  C      -3.296863     -3.085191     -1.205900
  C      -2.661576     -3.814584     -2.405088
  C      -3.508461     -1.589026     -1.519072
  C      -4.622482     -3.750562     -0.784156
  C       0.212771      1.739831      5.356872
  C       2.070098      0.013299      5.179991
  C       2.540474      2.439637      4.617019
  H      -1.474372     -4.970389      1.250827
  H       0.834576      2.687075      1.507139
  H      -1.680562     -3.376711     -2.677982
  H      -3.334031     -3.722634     -3.281701
  H      -2.515061     -4.891825     -2.194651
  H      -2.560306     -1.102885     -1.822545
  H      -3.911309     -1.043939     -0.643289
  H      -4.232215     -1.489884     -2.353418
  H      -4.482408     -4.825105     -0.551952
  H      -5.352004     -3.669293     -1.616218
  H      -5.058902     -3.255364      0.105972
  H      -0.555444      0.942070      5.333593
  H      -0.230508      2.658908      4.924094
  H       0.468557      1.947033      6.417783
  H       1.320935     -0.803460      5.178916
  H       2.389882      0.186289      6.229166
  H       2.951580     -0.323548      4.598965
  H       2.135181      3.381478      4.195818
  H       3.439943      2.156039      4.034960
  H       2.852609      2.639273      5.663528
  Si      2.631782     -0.584018     -2.123591
  C       4.271085     -0.191759     -3.006208
  C       2.997201     -1.553983     -0.541588
  C       1.523425     -1.637485     -3.260931
  H       4.920162      0.448548     -2.373190
  H       4.102043      0.342848     -3.964004
  H       4.836339     -1.119364     -3.234087
  H       2.073765     -1.981493     -0.105441
  H       3.451599     -0.906563      0.234556
  H       3.683011     -2.399783     -0.757744
  H       0.711773     -2.105229     -2.666302
  H       2.105004     -2.457598     -3.732146
  H       1.065588     -1.039845     -4.076967
  H      -0.276258      0.272548     -1.928559
  C       1.766674      1.088918     -1.774523
  C       0.278264      1.063158     -1.375103
  H       1.907581      1.686933     -2.706218
  H       2.359147      1.614120     -0.989577
  Si     -0.685990      2.690394     -1.645802
  H       0.142163      0.813366     -0.294416
  C       0.198079      4.158199     -0.813661
  C      -2.417472      2.509045     -0.895078
  C      -0.810049      3.030645     -3.511672
  H       0.045704      4.162489      0.288052
  H      -0.209304      5.120649     -1.187561
  H       1.286654      4.158450     -1.023354
  H      -2.346734      2.319225      0.196770
  H      -2.969403      1.661740     -1.350511
  H      -3.026155      3.425427     -1.042921
  H       0.193475      3.147860     -3.971261
  H      -1.381929      3.959687     -3.715006
  H      -1.322960      2.195892     -4.033724
69
Coordinates from ORCA-job my_molecule E -2464.464349882656
  Pt     -0.427053     -1.223637      1.339261
  O      -0.159774     -0.090009      2.897319
  O      -2.611355     -2.515849      1.547554
  P       1.074093      0.983853      2.825758
  P      -2.143384     -3.168616      0.227228
  O      -1.865993     -4.778162      0.367213
  O      -0.751031     -2.448966     -0.194674
  O       0.322554      2.371945      2.293157
  O       2.226658      0.579176      1.932636
  C       1.482464      1.315277      4.598081
  C      -3.300851     -3.083779     -1.202015
  C      -2.671248     -3.811787     -2.404940
  C      -3.514643     -1.587427     -1.513036
  C      -4.623938     -3.750176     -0.774143
  C       0.212324      1.736933      5.359696
  C       2.071723      0.012947      5.177789
  C       2.537328      2.440156      4.614183
  H      -1.463739     -4.972648      1.241516
  H       0.822312      2.685887      1.509590
  H      -1.691171     -3.373802     -2.681622
  H      -3.347410     -3.718506     -3.278380
  H      -2.524267     -4.889338     -2.196614
  H      -2.567657     -1.100981     -1.819511
  H      -3.914749     -1.043042     -0.635629
  H      -4.240941     -1.487987     -2.344774
  H      -4.482321     -4.825052     -0.543642
  H      -5.357406     -3.668365     -1.602447
  H      -5.056177     -3.255997      0.118494
  H      -0.554834      0.938303      5.337828
  H      -0.233083      2.655478      4.928253
  H       0.470112      1.943916      6.420072
  H       1.323830     -0.804970      5.177874
  H       2.393411      0.185826      6.226394
  H       2.952621     -0.322321      4.594755
  H       2.129651      3.381348      4.193731
  H       3.435943      2.157807      4.030030
  H       2.851549      2.640241      5.660019
  Si      2.635844     -0.583985     -2.122936
  C       4.276578     -0.189787     -3.002070
  C       2.998844     -1.553655     -0.540434
  C       1.531432     -1.637911     -3.263665
  H       4.923631      0.450751     -2.367580
  H       4.109120      0.344998     -3.960008
  H       4.843165     -1.116537     -3.228979
  H       2.074416     -1.981482     -0.106196
  H       3.450675     -0.905451      0.236410
  H       3.686114     -2.398807     -0.754772
  H       0.716149     -2.104119     -2.672680
  H       2.114751     -2.459253     -3.730635
  H       1.078474     -1.040956     -4.082864
  H      -0.273815      0.272886     -1.936673
  C       1.768409      1.088202     -1.775547
  C       0.279166      1.061787     -1.380182
  H       1.910927      1.685986     -2.707524
  H       2.358997      1.614470     -0.989543
  Si     -0.684801      2.689606     -1.649625
  H       0.140598      0.810988     -0.300468
  C       0.198444      4.155738     -0.813246
  C      -2.416944      2.507882     -0.900711
  C      -0.806525      3.032952     -3.514958
  H       0.041787      4.158499      0.287954
  H      -0.206332      5.119237     -1.187145
  H       1.287855      4.154507     -1.018776
  H      -2.347060      2.316232      0.190589
  H      -2.968938      1.661781     -1.357782
  H      -3.025106      3.425110     -1.047512
  H       0.197611      3.150972     -3.973118
  H      -1.378197      3.962536     -3.717305
  H      -1.318814      2.199144     -4.039019
69
Coordinates from ORCA-job my_molecule E -2464.464443393973
  Pt     -0.425270     -1.227267      1.337614
  O      -0.165828     -0.089677      2.895598
  O      -2.600256     -2.525669      1.552886
  P       1.068465      0.985761      2.825611
  P      -2.138122     -3.173549      0.228370
  O      -1.860556     -4.783337      0.361636
  O      -0.748056     -2.452118     -0.196875
  O       0.316464      2.374564      2.297163
  O       2.219912      0.582420      1.929999
  C       1.478027      1.313432      4.598192
  C      -3.302757     -3.084019     -1.194038
  C      -2.680702     -3.809026     -2.403575
  C      -3.516938     -1.586289     -1.498509
  C      -4.623811     -3.750508     -0.760253
  C       0.207802      1.731741      5.361595
  C       2.069245      0.010276      5.174273
  C       2.531545      2.439556      4.616018
  H      -1.452337     -4.980078      1.231767
  H       0.813279      2.688396      1.511623
  H      -1.700045     -3.373264     -2.681757
  H      -3.360112     -3.708478     -3.274417
  H      -2.536859     -4.888424     -2.201374
  H      -2.571190     -1.099405     -1.807699
  H      -3.912159     -1.045214     -0.616698
  H      -4.247790     -1.482575     -2.325930
  H      -4.481705     -4.825940     -0.533100
  H      -5.362212     -3.666141     -1.584148
  H      -5.050282     -3.258036      0.136242
  H      -0.558341      0.932193      5.338374
  H      -0.239032      2.650774      4.932649
  H       0.466082      1.936490      6.422220
  H       1.322362     -0.808653      5.172739
  H       2.391283      0.180907      6.223059
  H       2.950272     -0.322485      4.589984
  H       2.122356      3.381227      4.198055
  H       3.430050      2.159655      4.030548
  H       2.846355      2.637464      5.662059
  Si      2.639179     -0.582197     -2.124469
  C       4.281851     -0.187342     -3.000239
  C       2.999595     -1.551773     -0.541328
  C       1.538791     -1.637455     -3.268197
  H       4.927723      0.452822     -2.363846
  H       4.115575      0.348570     -3.957804
  H       4.849144     -1.113810     -3.227369
  H       2.074239     -1.979320     -0.108202
  H       3.450296     -0.903645      0.236380
  H       3.686994     -2.397173     -0.754532
  H       0.720421     -2.102550     -2.680588
  H       2.123669     -2.459634     -3.731668
  H       1.089865     -1.041287     -4.090083
  H      -0.272564      0.273607     -1.948898
  C       1.769871      1.088422     -1.779432
  C       0.279346      1.060581     -1.387791
  H       1.913606      1.686599     -2.710990
  H       2.357124      1.616505     -0.992412
  Si     -0.682410      2.690212     -1.655571
  H       0.139013      0.807723     -0.308718
  C       0.202030      4.154400     -0.816291
  C      -2.415565      2.511404     -0.908133
  C      -0.801515      3.035874     -3.520666
  H       0.041796      4.157070      0.284409
  H      -0.199329      5.119037     -1.190872
  H       1.292155      4.150558     -1.018036
  H      -2.347123      2.316707      0.182904
  H      -2.970231      1.668103     -1.367861
  H      -3.020324      3.430755     -1.052968
  H       0.203407      3.154348     -3.977179
  H      -1.372679      3.965741     -3.722849
  H      -1.313086      2.202445     -4.046603
69
Coordinates from ORCA-job my_molecule E -2464.464502255780
  Pt     -0.424943     -1.226319      1.336226
  O      -0.170886     -0.091931      2.896846
  O      -2.590036     -2.534505      1.557350
  P       1.061740      0.987030      2.826003
  P      -2.133603     -3.176228      0.227572
  O      -1.852170     -4.785977      0.353106
  O      -0.747674     -2.449883     -0.201024
  O       0.306550      2.375057      2.302137
  O       2.211658      0.586367      1.926613
  C       1.474329      1.312590      4.598091
  C      -3.306182     -3.084021     -1.188093
  C      -2.689512     -3.805297     -2.402137
  C      -3.523233     -1.585782     -1.487714
  C      -4.624063     -3.753086     -0.748876
  C       0.204898      1.727637      5.364475
  C       2.068492      0.009668      5.170995
  C       2.525907      2.440151      4.615553
  H      -1.438137     -4.985444      1.219900
  H       0.800633      2.690431      1.515481
  H      -1.709337     -3.369547     -2.681666
  H      -3.371384     -3.701180     -3.270173
  H      -2.546166     -4.885238     -2.204243
  H      -2.579143     -1.097490     -1.799522
  H      -3.914993     -1.047369     -0.602736
  H      -4.257882     -1.480402     -2.311540
  H      -4.479586     -4.828904     -0.525091
  H      -5.366962     -3.667617     -1.568481
  H      -5.046140     -3.263215      0.150981
  H      -0.559458      0.926359      5.342463
  H      -0.244817      2.645799      4.936843
  H       0.465066      1.932467      6.424693
  H       1.322877     -0.810132      5.169839
  H       2.392443      0.179249      6.219388
  H       2.948639     -0.321140      4.584388
  H       2.114376      3.381632      4.199975
  H       3.423640      2.162594      4.027778
  H       2.842429      2.636833      5.661261
  Si      2.642571     -0.582849     -2.125133
  C       4.285958     -0.186527     -2.998698
  C       3.002001     -1.551634     -0.541383
  C       1.545764     -1.638886     -3.271553
  H       4.930857      0.453628     -2.361233
  H       4.120293      0.349872     -3.956131
  H       4.853987     -1.112553     -3.225751
  H       2.076496     -1.980207     -0.110039
  H       3.450049     -0.902431      0.237034
  H       3.691067     -2.395915     -0.753072
  H       0.723583     -2.101829     -2.687634
  H       2.132127     -2.462498     -3.730493
  H       1.102005     -1.043562     -4.096884
  H      -0.271774      0.274977     -1.959050
  C       1.770898      1.087234     -1.782334
  C       0.279444      1.059572     -1.394448
  H       1.916265      1.684374     -2.714192
  H       2.355932      1.616626     -0.994632
  Si     -0.679621      2.691368     -1.660247
  H       0.137329      0.805284     -0.316203
  C       0.206522      4.152522     -0.816852
  C      -2.413876      2.515099     -0.914247
  C      -0.796140      3.040284     -3.524873
  H       0.041698      4.154378      0.283153
  H      -0.190349      5.118865     -1.191757
  H       1.297531      4.145164     -1.013936
  H      -2.346584      2.317895      0.176460
  H      -2.970543      1.674199     -1.376190
  H      -3.016307      3.436454     -1.057455
  H       0.209340      3.157711     -3.979936
  H      -1.365416      3.971393     -3.726490
  H      -1.308475      2.208835     -4.052462
69
Coordinates from ORCA-job my_molecule E -2464.464503468228
  Pt     -0.425816     -1.227873      1.337516
  O      -0.173094     -0.094953      2.899571
  O      -2.588953     -2.543552      1.560979
  P       1.057542      0.988792      2.827556
  P      -2.133467     -3.178766      0.228442
  O      -1.847277     -4.788108      0.347399
  O      -0.750321     -2.447368     -0.201161
  O       0.296148      2.374398      2.307613
  O       2.206088      0.592032      1.924711
  C       1.472799      1.312787      4.599202
  C      -3.308748     -3.085511     -1.184601
  C      -2.693450     -3.802767     -2.402522
  C      -3.529369     -1.586749     -1.480180
  C      -4.624166     -3.757983     -0.743718
  C       0.202927      1.720297      5.369024
  C       2.074732      0.011648      5.168386
  C       2.518833      2.445661      4.616135
  H      -1.430560     -4.989263      1.212324
  H       0.788980      2.693680      1.521636
  H      -1.713460     -3.365948     -2.681447
  H      -3.376484     -3.694963     -3.269746
  H      -2.549815     -4.883823     -2.209118
  H      -2.586594     -1.095942     -1.791556
  H      -3.921328     -1.051337     -0.593426
  H      -4.265042     -1.480421     -2.302869
  H      -4.477096     -4.833971     -0.522186
  H      -5.369165     -3.672538     -1.561443
  H      -5.044952     -3.270446      0.158039
  H      -0.557417      0.915289      5.347386
  H      -0.252208      2.636903      4.943828
  H       0.464399      1.924686      6.428930
  H       1.333190     -0.812006      5.167526
  H       2.400176      0.180929      6.216348
  H       2.955277     -0.313811      4.579304
  H       2.101337      3.385971      4.203529
  H       3.416552      2.173920      4.025507
  H       2.837108      2.641682      5.661476
  Si      2.643023     -0.584109     -2.125263
  C       4.285959     -0.187345     -2.999891
  C       3.004204     -1.551797     -0.541360
  C       1.547857     -1.642189     -3.271722
  H       4.931002      0.453371     -2.362962
  H       4.118832      0.349061     -3.957103
  H       4.854461     -1.113001     -3.227577
  H       2.079497     -1.983216     -0.110736
  H       3.450003     -0.901755      0.237621
  H       3.695750     -2.394152     -0.752919
  H       0.723016     -2.102750     -2.689705
  H       2.134795     -2.467432     -3.727086
  H       1.107544     -1.048194     -4.099765
  H      -0.273252      0.275881     -1.967608
  C       1.770516      1.085051     -1.784091
  C       0.277984      1.058044     -1.399687
  H       1.917835      1.682646     -2.715495
  H       2.352820      1.615194     -0.994932
  Si     -0.676451      2.693217     -1.664262
  H       0.133683      0.803656     -0.321938
  C       0.213285      4.150626     -0.817152
  C      -2.412226      2.523229     -0.920136
  C      -0.789016      3.044945     -3.528631
  H       0.044643      4.151933      0.282468
  H      -0.178500      5.118997     -1.192067
  H       1.305032      4.138711     -1.010204
  H      -2.346833      2.324487      0.170374
  H      -2.972362      1.685402     -1.383509
  H      -3.010248      3.447435     -1.062797
  H       0.217738      3.160683     -3.981618
  H      -1.355665      3.977673     -3.730325
  H      -1.302228      2.215122     -4.058314
69
Coordinates from ORCA-job my_molecule E -2464.464495147002
  Pt     -0.423221     -1.231014      1.337856
  O      -0.173577     -0.089575      2.894549
  O      -2.590957     -2.543838      1.562308
  P       1.061379      0.989504      2.826284
  P      -2.134144     -3.181414      0.231788
  O      -1.852278     -4.791432      0.352340
  O      -0.747515     -2.455093     -0.196347
  O       0.306279      2.378006      2.304235
  O       2.210926      0.588578      1.926582
  C       1.472443      1.312033      4.599220
  C      -3.305724     -3.086160     -1.184015
  C      -2.689318     -3.805865     -2.400339
  C      -3.522143     -1.586874     -1.481505
  C      -4.623775     -3.754915     -0.745433
  C       0.201479      1.722410      5.365720
  C       2.069527      0.009037      5.169497
  C       2.521316      2.442335      4.619456
  H      -1.436132     -4.992748      1.217455
  H       0.800398      2.694179      1.517852
  H      -1.707459     -3.371574     -2.677116
  H      -3.370227     -3.696291     -3.269268
  H      -2.549120     -4.887420     -2.206313
  H      -2.577960     -1.098328     -1.792144
  H      -3.914171     -1.049400     -0.595953
  H      -4.256319     -1.479810     -2.305326
  H      -4.479856     -4.830984     -0.522150
  H      -5.366645     -3.668789     -1.564997
  H      -5.045407     -3.265119      0.154729
  H      -0.561022      0.919536      5.341334
  H      -0.249989      2.640665      4.940143
  H       0.460585      1.925174      6.426524
  H       1.325902     -0.812831      5.166095
  H       2.392382      0.177035      6.218454
  H       2.950971     -0.318258      4.582758
  H       2.107219      3.383959      4.206237
  H       3.419880      2.168680      4.030983
  H       2.837425      2.636952      5.665782
  Si      2.641648     -0.582075     -2.126382
  C       4.284519     -0.186330     -3.001929
  C       3.002562     -1.550758     -0.542950
  C       1.544754     -1.639347     -3.272453
  H       4.930211      0.454198     -2.365413
  H       4.117161      0.350021     -3.959187
  H       4.852458     -1.112293     -3.229818
  H       2.077098     -1.979963     -0.110861
  H       3.451060     -0.902315      0.235746
  H       3.691586     -2.395031     -0.755581
  H       0.722220     -2.102067     -2.688854
  H       2.131050     -2.463040     -3.731425
  H       1.101145     -1.044182     -4.097973
  H      -0.273247      0.276706     -1.965257
  C       1.770286      1.087200     -1.783347
  C       0.277887      1.059532     -1.397987
  H       1.917235      1.686315     -2.713804
  H       2.352748      1.616383     -0.993629
  Si     -0.677718      2.693782     -1.663368
  H       0.134213      0.804555     -0.320400
  C       0.211452      4.153485     -0.819650
  C      -2.412793      2.523105     -0.917535
  C      -0.792262      3.042313     -3.528393
  H       0.046190      4.155229      0.280460
  H      -0.183612      5.120772     -1.194044
  H       1.302700      4.144136     -1.016118
  H      -2.346093      2.326828      0.173234
  H      -2.971925      1.683360     -1.378658
  H      -3.012615      3.446037     -1.061654
  H       0.214047      3.158501     -3.982435
  H      -1.360366      3.973897     -3.731505
  H      -1.304752      2.210695     -4.056103
69
Coordinates from ORCA-job my_molecule E -2464.464465237680
  Pt     -0.424688     -1.229407      1.338751
  O      -0.171533     -0.093743      2.899205
  O      -2.594057     -2.547182      1.561779
  P       1.060161      0.989718      2.828017
  P      -2.135560     -3.180569      0.229973
  O      -1.847661     -4.789922      0.347590
  O      -0.751741     -2.448422     -0.198273
  O       0.298218      2.374956      2.307204
  O       2.209013      0.592462      1.925895
  C       1.473736      1.313526      4.600042
  C      -3.307810     -3.087021     -1.185423
  C      -2.689732     -3.803607     -2.402686
  C      -3.528624     -1.587994     -1.481067
  C      -4.623740     -3.760038     -0.747057
  C       0.202631      1.718414      5.369208
  C       2.077517      0.013040      5.168792
  C       2.517772      2.448275      4.618233
  H      -1.433012     -4.991519      1.213127
  H       0.792516      2.695119      1.522584
  H      -1.709440     -3.365910     -2.679772
  H      -3.371516     -3.695653     -3.271119
  H      -2.545849     -4.884795     -2.209547
  H      -2.585734     -1.096610     -1.791002
  H      -3.922158     -1.052658     -0.594839
  H      -4.263057     -1.481900     -2.304831
  H      -4.476661     -4.835927     -0.525136
  H      -5.367291     -3.675015     -1.566152
  H      -5.046312     -3.272543      0.153945
  H      -0.556210      0.912026      5.346812
  H      -0.253900      2.634370      4.944126
  H       0.463147      1.922872      6.429347
  H       1.337376     -0.811925      5.167072
  H       2.402034      0.182315      6.217024
  H       2.958965     -0.310613      4.580075
  H       2.098671      3.388224      4.206306
  H       3.416205      2.178692      4.027664
  H       2.835380      2.643930      5.663906
  Si      2.640623     -0.584620     -2.124975
  C       4.282518     -0.188789     -3.002316
  C       3.003964     -1.552750     -0.541662
  C       1.543267     -1.642727     -3.269866
  H       4.928684      0.452173     -2.366698
  H       4.113820      0.347321     -3.959490
  H       4.850542     -1.114594     -3.230607
  H       2.079643     -1.985123     -0.110056
  H       3.450515     -0.903285      0.237357
  H       3.695528     -2.394932     -0.754557
  H       0.719479     -2.103506     -2.686441
  H       2.129289     -2.467724     -3.726856
  H       1.101259     -1.048321     -4.096838
  H      -0.275045      0.276887     -1.967190
  C       1.769361      1.084755     -1.782454
  C       0.276445      1.058483     -1.398769
  H       1.917431      1.683419     -2.712925
  H       2.351041      1.614056     -0.992432
  Si     -0.676009      2.694829     -1.664048
  H       0.131320      0.803877     -0.321254
  C       0.215270      4.152081     -0.817689
  C      -2.412583      2.527785     -0.920468
  C      -0.787141      3.045318     -3.528899
  H       0.047857      4.153417      0.282034
  H      -0.176624      5.120718     -1.191950
  H       1.306966      4.139889     -1.011888
  H      -2.347829      2.330757      0.170325
  H      -2.973388      1.689682     -1.382899
  H      -3.009844      3.452394     -1.064797
  H       0.220082      3.159137     -3.981376
  H      -1.352297      3.978679     -3.731983
  H      -1.301204      2.215748     -4.058109
69
Coordinates from ORCA-job my_molecule E -2464.464499146284
  Pt     -0.422611     -1.230625      1.337719
  O      -0.173632     -0.087938      2.894384
  O      -2.592147     -2.545747      1.562394
  P       1.062573      0.990101      2.826483
  P      -2.134442     -3.182318      0.231767
  O      -1.851063     -4.792255      0.351611
  O      -0.748072     -2.454944     -0.195991
  O       0.308819      2.378916      2.303848
  O       2.212083      0.587832      1.927205
  C       1.472535      1.312570      4.599609
  C      -3.305584     -3.087377     -1.184303
  C      -2.688256     -3.806427     -2.400411
  C      -3.522669     -1.588138     -1.481561
  C      -4.623447     -3.756870     -0.746130
  C       0.201222      1.723199      5.365271
  C       2.068788      0.009439      5.170099
  C       2.521629      2.442492      4.620567
  H      -1.436144     -4.993743      1.216711
  H       0.803610      2.694410      1.517729
  H      -1.706341     -3.371624     -2.676043
  H      -3.368648     -3.696627     -3.269652
  H      -2.547944     -4.887886     -2.206942
  H      -2.578526     -1.099329     -1.792033
  H      -3.914951     -1.050805     -0.595863
  H      -4.256908     -1.481191     -2.305549
  H      -4.478967     -4.832764     -0.522892
  H      -5.366349     -3.671107     -1.565817
  H      -5.045494     -3.267400      0.154096
  H      -0.561185      0.920183      5.340915
  H      -0.250134      2.641172      4.938982
  H       0.459868      1.926589      6.426125
  H       1.324939     -0.812097      5.166212
  H       2.391068      0.177296      6.219241
  H       2.950368     -0.318150      4.583836
  H       2.108076      3.384164      4.207212
  H       3.420425      2.168606      4.032632
  H       2.837118      2.636955      5.667079
  Si      2.640994     -0.582302     -2.126401
  C       4.283535     -0.186806     -3.002536
  C       3.002375     -1.551558     -0.543173
  C       1.543405     -1.639070     -3.272319
  H       4.929710      0.453499     -2.366264
  H       4.115768      0.349743     -3.959649
  H       4.851127     -1.112889     -3.230808
  H       2.076807     -1.980881     -0.110843
  H       3.451285     -0.903459      0.235722
  H       3.691047     -2.396097     -0.756214
  H       0.720892     -2.101902     -2.688632
  H       2.129427     -2.462650     -3.731789
  H       1.099632     -1.043434     -4.097527
  H      -0.274141      0.277643     -1.965349
  C       1.769860      1.087272     -1.783118
  C       0.277274      1.060073     -1.397737
  H       1.916729      1.685892     -2.713627
  H       2.352416      1.616633     -0.994002
  Si     -0.677521      2.694890     -1.663043
  H       0.133760      0.804490     -0.320158
  C       0.212660      4.154421     -0.819828
  C      -2.412920      2.525091     -0.917048
  C      -0.791949      3.042918     -3.528232
  H       0.048493      4.155854      0.280166
  H      -0.182653      5.121945     -1.193512
  H       1.303806      4.145031     -1.017331
  H      -2.346446      2.328535      0.173862
  H      -2.972693      1.685553     -1.378532
  H      -3.012179      3.448409     -1.060986
  H       0.214319      3.157940     -3.982379
  H      -1.359156      3.974904     -3.731787
  H      -1.305268      2.211751     -4.055467
69
Coordinates from ORCA-job my_molecule E -2464.464562737645
  Pt     -0.421180     -1.232809      1.337019
  O      -0.177512     -0.082817      2.890116
  O      -2.587275     -2.543946      1.563514
  P       1.062800      0.989959      2.824835
  P      -2.132147     -3.184295      0.233729
  O      -1.855056     -4.794869      0.355859
  O      -0.743357     -2.462429     -0.194075
  O       0.317041      2.381892      2.300991
  O       2.212625      0.583244      1.927715
  C       1.470415      1.311116      4.598803
  C      -3.303368     -3.087077     -1.182021
  C      -2.688388     -3.808309     -2.398265
  C      -3.516340     -1.587423     -1.479949
  C      -4.623126     -3.752430     -0.743238
  C       0.199421      1.727746      5.361679
  C       2.059441      0.005312      5.170845
  C       2.524726      2.436177      4.621664
  H      -1.438049     -4.996357      1.219981
  H       0.811874      2.692709      1.513179
  H      -1.705004     -3.376714     -2.674064
  H      -3.368774     -3.696229     -3.267466
  H      -2.551398     -4.890231     -2.204761
  H      -2.571100     -1.101185     -1.791246
  H      -3.906753     -1.048595     -0.594316
  H      -4.250734     -1.478911     -2.303633
  H      -4.481675     -4.828504     -0.519126
  H      -5.365924     -3.665271     -1.562922
  H      -5.043665     -3.260985      0.156626
  H      -0.566782      0.928437      5.335544
  H      -0.246656      2.647935      4.934623
  H       0.456708      1.929704      6.423131
  H       1.311862     -0.812866      5.165173
  H       2.380023      0.171747      6.220738
  H       2.940902     -0.326186      4.586614
  H       2.116424      3.379623      4.207036
  H       3.423499      2.157919      4.035708
  H       2.838940      2.629469      5.668815
  Si      2.642221     -0.579619     -2.128098
  C       4.285751     -0.184348     -3.002309
  C       3.001194     -1.549532     -0.544765
  C       1.545301     -1.635418     -3.275362
  H       4.931803      0.455003     -2.364874
  H       4.119247      0.353036     -3.959173
  H       4.852915     -1.110707     -3.230743
  H       2.074397     -1.976013     -0.112000
  H       3.451747     -0.902486      0.233979
  H       3.687427     -2.396019     -0.757421
  H       0.723624     -2.100167     -2.691884
  H       2.131666     -2.457709     -3.736619
  H       1.100442     -1.038863     -4.099235
  H      -0.272466      0.278156     -1.964622
  C       1.771022      1.089949     -1.784767
  C       0.278861      1.061352     -1.397677
  H       1.916486      1.688419     -2.715617
  H       2.354331      1.619862     -0.996755
  Si     -0.678857      2.694343     -1.662689
  H       0.137291      0.804100     -0.320131
  C       0.209667      4.155898     -0.821792
  C      -2.412969      2.521287     -0.914424
  C      -0.796538      3.040691     -3.528018
  H       0.047796      4.157210      0.278403
  H      -0.188705      5.122332     -1.195081
  H       1.300480      4.149153     -1.021682
  H      -2.344635      2.325154      0.176360
  H      -2.971468      1.680415     -1.374967
  H      -3.014437      3.443247     -1.057805
  H       0.208856      3.157662     -3.983662
  H      -1.366184      3.971182     -3.731516
  H      -1.308708      2.207880     -4.053909
69
Coordinates from ORCA-job my_molecule E -2464.464626820665
  Pt     -0.419556     -1.234219      1.336001
  O      -0.182483     -0.076351      2.884915
  O      -2.581836     -2.544491      1.565829
  P       1.062550      0.990523      2.822874
  P      -2.129408     -3.187126      0.235992
  O      -1.857041     -4.798376      0.358776
  O      -0.738779     -2.469560     -0.192033
  O       0.325675      2.386103      2.297919
  O       2.212506      0.578573      1.928000
  C       1.467489      1.309667      4.597828
  C      -3.301375     -3.087291     -1.178906
  C      -2.688596     -3.810138     -2.395055
  C      -3.510603     -1.587218     -1.477148
  C      -4.622681     -3.749163     -0.739430
  C       0.196656      1.731643      5.357953
  C       2.049422      0.001120      5.170813
  C       2.526734      2.429951      4.623356
  H      -1.437907     -5.000566      1.221525
  H       0.820683      2.691885      1.508326
  H      -1.703772     -3.381599     -2.670145
  H      -3.368337     -3.695618     -3.264232
  H      -2.555155     -4.892406     -2.201850
  H      -2.564387     -1.103410     -1.789485
  H      -3.898861     -1.047056     -0.591341
  H      -4.245510     -1.477156     -2.300241
  H      -4.483848     -4.825456     -0.514902
  H      -5.365617     -3.660537     -1.558840
  H      -5.041617     -3.256251      0.160373
  H      -0.572977      0.935689      5.329930
  H      -0.244534      2.653894      4.930249
  H       0.452524      1.932179      6.420036
  H       1.298324     -0.813752      5.162846
  H       2.368100      0.165696      6.221569
  H       2.930852     -0.333872      4.588555
  H       2.123754      3.375139      4.207699
  H       3.425645      2.147620      4.039658
  H       2.839226      2.621813      5.671257
  Si      2.643415     -0.577152     -2.130110
  C       4.287866     -0.182262     -3.002603
  C       3.000058     -1.547937     -0.546619
  C       1.546962     -1.631790     -3.278705
  H       4.933654      0.456477     -2.364412
  H       4.122588      0.355458     -3.959480
  H       4.854708     -1.108835     -3.230716
  H       2.071947     -1.971621     -0.113444
  H       3.452284     -0.902000      0.232120
  H       3.683839     -2.396538     -0.758888
  H       0.725816     -2.098202     -2.695697
  H       2.133635     -2.452939     -3.741531
  H       1.101392     -1.034174     -4.101435
  H      -0.270972      0.279520     -1.964933
  C       1.772188      1.092614     -1.786778
  C       0.280320      1.062995     -1.398194
  H       1.916473      1.690747     -2.717937
  H       2.356091      1.622997     -0.999717
  Si     -0.679563      2.694702     -1.662479
  H       0.140668      0.803394     -0.320903
  C       0.208152      4.157842     -0.824032
  C      -2.412444      2.519268     -0.911763
  C      -0.800517      3.039392     -3.527895
  H       0.048747      4.158953      0.276305
  H      -0.192825      5.123451     -1.196720
  H       1.298514      4.153145     -1.026417
  H      -2.342346      2.323004      0.178946
  H      -2.970395      1.677614     -1.371710
  H      -3.015381      3.440341     -1.054152
  H       0.203957      3.157677     -3.985082
  H      -1.372078      3.968686     -3.731416
  H      -1.312010      2.205285     -4.052275
69
Coordinates from ORCA-job my_molecule E -2464.464695045564
  Pt     -0.418591     -1.236213      1.335850
  O      -0.187658     -0.070035      2.880363
  O      -2.577106     -2.543671      1.567568
  P       1.062061      0.990672      2.821059
  P      -2.126994     -3.189734      0.238561
  O      -1.860764     -4.801571      0.363353
  O      -0.733945     -2.477378     -0.189145
  O       0.334133      2.389639      2.294811
  O       2.211957      0.573522      1.928326
  C       1.464869      1.308209      4.596848
  C      -3.298766     -3.087491     -1.176296
  C      -2.688020     -3.812251     -2.392588
  C      -3.504086     -1.586948     -1.474927
  C      -4.621970     -3.745444     -0.736679
  C       0.194558      1.736272      5.354363
  C       2.039350     -0.003074      5.171135
  C       2.529424      2.423395      4.624462
  H      -1.439528     -5.003937      1.225026
  H       0.829286      2.690084      1.503356
  H      -1.701920     -3.386634     -2.667887
  H      -3.367796     -3.695743     -3.261744
  H      -2.557506     -4.894947     -2.199275
  H      -2.556912     -1.105362     -1.787920
  H      -3.890685     -1.045590     -0.589103
  H      -4.239111     -1.475289     -2.297756
  H      -4.486116     -4.821923     -0.511399
  H      -5.364581     -3.655375     -1.556272
  H      -5.039688     -3.250750      0.162719
  H      -0.578837      0.944034      5.324793
  H      -0.241421      2.660639      4.925880
  H       0.449261      1.935545      6.416981
  H       1.284406     -0.814370      5.161429
  H       2.356525      0.159925      6.222613
  H       2.920421     -0.342105      4.590710
  H       2.131789      3.370492      4.207941
  H       3.428141      2.136737      4.042485
  H       2.840826      2.613699      5.673002
  Si      2.644341     -0.574508     -2.132007
  C       4.289478     -0.180167     -3.003319
  C       2.999041     -1.545732     -0.548360
  C       1.548242     -1.628418     -3.281357
  H       4.935596      0.457569     -2.364304
  H       4.125056      0.358378     -3.959895
  H       4.855637     -1.107154     -3.231866
  H       2.069994     -1.966973     -0.114702
  H       3.452644     -0.900710      0.230277
  H       3.680734     -2.395962     -0.760271
  H       0.728050     -2.096642     -2.698367
  H       2.135201     -2.448344     -3.745919
  H       1.101449     -1.030026     -4.102773
  H      -0.269469      0.280823     -1.964849
  C       1.773286      1.095423     -1.788889
  C       0.281903      1.064645     -1.398401
  H       1.916070      1.693107     -2.720549
  H       2.358025      1.626489     -1.003117
  Si     -0.680466      2.694801     -1.661982
  H       0.144334      0.802392     -0.321408
  C       0.205993      4.159597     -0.825597
  C      -2.412198      2.516566     -0.909118
  C      -0.804483      3.038119     -3.527496
  H       0.049095      4.160234      0.274974
  H      -0.197907      5.124309     -1.197477
  H       1.295963      4.157314     -1.030545
  H      -2.340356      2.320964      0.181549
  H      -2.968967      1.673594     -1.368062
  H      -3.017252      3.436360     -1.051166
  H       0.199173      3.157954     -3.986112
  H      -1.378013      3.966214     -3.730849
  H      -1.315199      2.202755     -4.050685
69
Coordinates from ORCA-job my_molecule E -2464.464762720709
  Pt     -0.417543     -1.237432      1.335265
  O      -0.193716     -0.062713      2.875048
  O      -2.571842     -2.544312      1.570148
  P       1.061171      0.991359      2.818968
  P      -2.124248     -3.192717      0.241220
  O      -1.862850     -4.805168      0.366818
  O      -0.729283     -2.484678     -0.186399
  O       0.343066      2.394270      2.291509
  O       2.210813      0.568255      1.928414
  C       1.461611      1.306798      4.595680
  C      -3.296456     -3.088038     -1.173097
  C      -2.687359     -3.814275     -2.389054
  C      -3.498424     -1.587173     -1.472151
  C      -4.621144     -3.742870     -0.733172
  C       0.191710      1.740599      5.350556
  C       2.028641     -0.007306      5.170857
  C       2.531356      2.416880      4.625891
  H      -1.439410     -5.008245      1.227105
  H       0.838369      2.689014      1.498046
  H      -1.700010     -3.391301     -2.663610
  H      -3.366336     -3.695936     -3.258361
  H      -2.559861     -4.897180     -2.195676
  H      -2.550372     -1.107725     -1.785999
  H      -3.883297     -1.044571     -0.586303
  H      -4.233740     -1.474244     -2.294604
  H      -4.487699     -4.819541     -0.507486
  H      -5.363675     -3.651453     -1.552704
  H      -5.037656     -3.246890      0.166085
  H      -0.585279      0.951980      5.319168
  H      -0.239137      2.667091      4.921501
  H       0.445094      1.938412      6.413757
  H       1.270026     -0.815098      5.158853
  H       2.343906      0.153780      6.223176
  H       2.909565     -0.350063      4.592423
  H       2.139288      3.365811      4.208455
  H       3.430011      2.125918      4.046062
  H       2.841205      2.605645      5.675147
  Si      2.645289     -0.572145     -2.134205
  C       4.291134     -0.178366     -3.004276
  C       2.997981     -1.544078     -0.550320
  C       1.549451     -1.625142     -3.284451
  H       4.937146      0.458873     -2.364841
  H       4.127702      0.360315     -3.960928
  H       4.856900     -1.105586     -3.232462
  H       2.067807     -1.962918     -0.116256
  H       3.452999     -0.900069      0.228378
  H       3.677530     -2.396168     -0.761852
  H       0.729865     -2.094936     -2.701770
  H       2.136728     -2.443993     -3.750469
  H       1.101856     -1.025841     -4.104799
  H      -0.268149      0.282793     -1.965790
  C       1.774377      1.098122     -1.791339
  C       0.283337      1.066517     -1.399173
  H       1.915933      1.695271     -2.723478
  H       2.359829      1.629756     -1.006622
  Si     -0.680895      2.695631     -1.661470
  H       0.147731      0.801205     -0.322641
  C       0.205125      4.161665     -0.827292
  C      -2.411344      2.515258     -0.906027
  C      -0.808293      3.037766     -3.526965
  H       0.050941      4.161781      0.273472
  H      -0.201289      5.125718     -1.198170
  H       1.294576      4.161250     -1.034960
  H      -2.337665      2.319471      0.184541
  H      -2.967730      1.671635     -1.364344
  H      -3.017702      3.434264     -1.046975
  H       0.194439      3.158754     -3.987197
  H      -1.383473      3.964907     -3.730008
  H      -1.318631      2.201406     -4.048847
69
Coordinates from ORCA-job my_molecule E -2464.464859113084
  Pt     -0.416704     -1.240170      1.335879
  O      -0.202880     -0.051886      2.867843
  O      -2.565425     -2.543718      1.573398
  P       1.059752      0.991873      2.816041
  P      -2.120668     -3.197106      0.245921
  O      -1.868441     -4.810397      0.374429
  O      -0.721836     -2.497023     -0.180455
  O       0.356395      2.400325      2.286295
  O       2.208761      0.559769      1.928710
  C       1.457199      1.304812      4.593953
  C      -3.291697     -3.088876     -1.169044
  C      -2.684703     -3.817436     -2.385058
  C      -3.488150     -1.587307     -1.468508
  C      -4.619172     -3.738503     -0.729896
  C       0.188378      1.748289      5.344910
  C       2.012368     -0.013482      5.171067
  C       2.535289      2.406677      4.627389
  H      -1.442038     -5.013933      1.233166
  H       0.852075      2.686223      1.489907
  H      -1.695691     -3.398092     -2.659401
  H      -3.363469     -3.696254     -3.254485
  H      -2.561158     -4.901006     -2.192001
  H      -2.538733     -1.110722     -1.782772
  H      -3.871190     -1.043204     -0.582772
  H      -4.223218     -1.472121     -2.290931
  H      -4.489919     -4.815465     -0.503325
  H      -5.360697     -3.644955     -1.550132
  H      -5.034609     -3.240301      0.168614
  H      -0.594439      0.965541      5.311352
  H      -0.234332      2.677956      4.914616
  H       0.440114      1.944334      6.408866
  H       1.247682     -0.815465      5.156501
  H       2.325418      0.145179      6.224454
  H       2.892484     -0.362779      4.595398
  H       2.151694      3.358617      4.208874
  H       3.433398      2.108900      4.050037
  H       2.843628      2.592839      5.677600
  Si      2.646035     -0.568511     -2.137262
  C       4.292355     -0.175880     -3.006749
  C       2.996693     -1.540855     -0.553184
  C       1.550024     -1.620625     -3.287815
  H       4.939413      0.459947     -2.366698
  H       4.129566      0.363836     -3.962956
  H       4.856840     -1.103836     -3.235830
  H       2.065551     -1.956650     -0.118292
  H       3.453516     -0.898088      0.225406
  H       3.673529     -2.394952     -0.764435
  H       0.732250     -2.093168     -2.704742
  H       2.137524     -2.437614     -3.756716
  H       1.100081     -1.020323     -4.106021
  H      -0.266355      0.285533     -1.966512
  C       1.775670      1.102201     -1.794670
  C       0.285379      1.069215     -1.399677
  H       1.915119      1.698640     -2.727561
  H       2.362415      1.634673     -1.011774
  Si     -0.681895      2.696509     -1.660260
  H       0.152586      0.799174     -0.323945
  C       0.202909      4.164561     -0.828886
  C      -2.410664      2.512572     -0.901544
  C      -0.813816      3.037080     -3.525830
  H       0.052961      4.163595      0.272344
  H      -0.207769      5.127498     -1.197965
  H       1.291645      4.167490     -1.040821
  H      -2.334359      2.318170      0.189032
  H      -2.965389      1.666919     -1.358081
  H      -3.020110      3.429710     -1.042273
  H       0.187718      3.159813     -3.988244
  H      -1.391286      3.962862     -3.728374
  H      -1.323599      2.199372     -4.046101
69
Coordinates from ORCA-job my_molecule E -2464.464941148523
  Pt     -0.417663     -1.239778      1.331948
  O      -0.204338     -0.059912      2.873862
  O      -2.550891     -2.548583      1.572853
  P       1.050870      0.991305      2.817493
  P      -2.114349     -3.196793      0.239240
  O      -1.858127     -4.809656      0.361714
  O      -0.721918     -2.489583     -0.192765
  O       0.338229      2.395979      2.292627
  O       2.198272      0.567355      1.924874
  C       1.455601      1.304946      4.593656
  C      -3.297365     -3.086766     -1.165864
  C      -2.699075     -3.810818     -2.389301
  C      -3.498617     -1.584802     -1.459170
  C      -4.620695     -3.739220     -0.718103
  C       0.188679      1.744634      5.350040
  C       2.017314     -0.011707      5.168383
  C       2.530539      2.410203      4.622287
  H      -1.426024     -5.014607      1.216912
  H       0.830714      2.687707      1.495968
  H      -1.711471     -3.391591     -2.669563
  H      -3.384403     -3.685995     -3.253766
  H      -2.574350     -4.895343     -2.201175
  H      -2.551723     -1.106258     -1.777894
  H      -3.876987     -1.044235     -0.569139
  H      -4.239123     -1.467997     -2.276700
  H      -4.488327     -4.816642     -0.496083
  H      -5.369115     -3.643863     -1.532085
  H      -5.029476     -3.244385      0.185462
  H      -0.592079      0.959733      5.319244
  H      -0.238195      2.673226      4.921603
  H       0.444086      1.940942      6.413060
  H       1.255086     -0.816210      5.156749
  H       2.334155      0.147804      6.220516
  H       2.896316     -0.358191      4.589237
  H       2.142150      3.360938      4.205190
  H       3.427099      2.115199      4.041072
  H       2.842931      2.597542      5.671163
  Si      2.650616     -0.569603     -2.136217
  C       4.299958     -0.174962     -2.998752
  C       2.997487     -1.540613     -0.550495
  C       1.560817     -1.623496     -3.290572
  H       4.943789      0.460753     -2.355343
  H       4.140673      0.365612     -3.955011
  H       4.866138     -1.102300     -3.226265
  H       2.065738     -1.958304     -0.118404
  H       3.450393     -0.895690      0.228532
  H       3.676885     -2.393352     -0.758508
  H       0.737550     -2.092738     -2.712139
  H       2.150489     -2.443094     -3.752187
  H       1.118310     -1.025018     -4.114026
  H      -0.264451      0.282835     -1.972269
  C       1.777102      1.100302     -1.797876
  C       0.287152      1.066190     -1.404788
  H       1.916800      1.694643     -2.732191
  H       2.362274      1.635736     -1.015351
  Si     -0.679522      2.694045     -1.664041
  H       0.154224      0.795741     -0.329164
  C       0.205122      4.159351     -0.828328
  C      -2.409325      2.509632     -0.907486
  C      -0.809574      3.039437     -3.528742
  H       0.047893      4.159786      0.271315
  H      -0.199651      5.123512     -1.200778
  H       1.295361      4.158180     -1.032982
  H      -2.334464      2.310645      0.182389
  H      -2.965608      1.666961     -1.368073
  H      -3.016576      3.428709     -1.044924
  H       0.192528      3.163370     -3.989867
  H      -1.386775      3.965920     -3.728935
  H      -1.319078      2.203237     -4.052065
69
Coordinates from ORCA-job my_molecule E -2464.464984821076
  Pt     -0.417663     -1.238722      1.329108
  O      -0.206835     -0.064042      2.874880
  O      -2.540875     -2.555282      1.574898
  P       1.044459      0.992000      2.816995
  P      -2.109767     -3.197777      0.236302
  O      -1.848804     -4.810394      0.352186
  O      -0.722121     -2.484512     -0.200130
  O       0.325565      2.394770      2.296187
  O       2.191058      0.573064      1.920768
  C       1.453092      1.303904      4.592466
  C      -3.301340     -3.085465     -1.161196
  C      -2.709490     -3.805710     -2.389570
  C      -3.505288     -1.582931     -1.448765
  C      -4.621452     -3.740427     -0.707566
  C       0.186637      1.737955      5.352931
  C       2.020698     -0.011795      5.163365
  C       2.524313      2.412637      4.620207
  H      -1.411489     -5.017190      1.204412
  H       0.815997      2.690529      1.499798
  H      -1.723323     -3.385866     -2.673911
  H      -3.399066     -3.678853     -3.250005
  H      -2.583697     -4.890443     -2.204722
  H      -2.560429     -1.102594     -1.770745
  H      -3.879265     -1.045611     -0.555009
  H      -4.250329     -1.464172     -2.261846
  H      -4.486890     -4.818317     -0.489408
  H      -5.374739     -3.643403     -1.516811
  H      -5.025267     -3.248499      0.199763
  H      -0.591387      0.950333      5.322982
  H      -0.244604      2.665613      4.926914
  H       0.444119      1.933543      6.415560
  H       1.261178     -0.818749      5.152270
  H       2.339771      0.146871      6.214936
  H       2.899308     -0.354373      4.581324
  H       2.131644      3.362714      4.205790
  H       3.420354      2.121646      4.036184
  H       2.838755      2.599234      5.668554
  Si      2.653901     -0.570056     -2.135488
  C       4.305052     -0.174651     -2.994349
  C       2.998578     -1.540345     -0.548813
  C       1.567315     -1.624629     -3.292039
  H       4.946868      0.461426     -2.349404
  H       4.147758      0.365886     -3.950940
  H       4.872377     -1.101561     -3.220441
  H       2.066326     -1.959209     -0.118531
  H       3.448817     -0.894039      0.230583
  H       3.679993     -2.392040     -0.754831
  H       0.740461     -2.091319     -2.716599
  H       2.157987     -2.446024     -3.749077
  H       1.129739     -1.027030     -4.118769
  H      -0.262898      0.281772     -1.977866
  C       1.778683      1.099262     -1.799586
  C       0.288114      1.064571     -1.408817
  H       1.919185      1.692544     -2.734309
  H       2.362038      1.636222     -1.016884
  Si     -0.677038      2.693364     -1.668012
  H       0.154557      0.793708     -0.333267
  C       0.207849      4.156955     -0.829083
  C      -2.408268      2.510728     -0.914105
  C      -0.803796      3.041088     -3.532381
  H       0.045335      4.158551      0.269846
  H      -0.192528      5.122051     -1.203865
  H       1.299106      4.152626     -1.028472
  H      -2.335221      2.309923      0.175472
  H      -2.965816      1.670058     -1.376878
  H      -3.013385      3.431317     -1.050698
  H       0.199068      3.164161     -3.991706
  H      -1.379344      3.968589     -3.732232
  H      -1.313643      2.206415     -4.057557
69
Coordinates from ORCA-job my_molecule E -2464.465034726171
  Pt     -0.418514     -1.238121      1.326711
  O      -0.209138     -0.067631      2.877103
  O      -2.532501     -2.561182      1.575545
  P       1.038226      0.992605      2.817062
  P      -2.105836     -3.198606      0.232723
  O      -1.840716     -4.810911      0.343036
  O      -0.722473     -2.479767     -0.207071
  O       0.313583      2.393379      2.300080
  O       2.183561      0.578358      1.916917
  C       1.451449      1.303825      4.591609
  C      -3.304787     -3.085103     -1.158525
  C      -2.718428     -3.802115     -2.391750
  C      -3.512209     -1.582182     -1.441919
  C      -4.621844     -3.742568     -0.699614
  C       0.185974      1.733917      5.356025
  C       2.024084     -0.010863      5.159805
  C       2.519753      2.415454      4.617338
  H      -1.399304     -5.019033      1.192692
  H       0.802041      2.692894      1.503876
  H      -1.733686     -3.381471     -2.679956
  H      -3.412275     -3.673236     -3.248735
  H      -2.591302     -4.887478     -2.210272
  H      -2.569356     -1.100103     -1.767202
  H      -3.882882     -1.047283     -0.545266
  H      -4.261146     -1.462590     -2.251366
  H      -4.484934     -4.820815     -0.484542
  H      -5.379373     -3.644615     -1.504807
  H      -5.021588     -3.253090      0.210869
  H      -0.590012      0.944183      5.327657
  H      -0.248909      2.660702      4.931763
  H       0.445885      1.929438      6.418103
  H       1.266675     -0.819854      5.150072
  H       2.345608      0.147730      6.210660
  H       2.902050     -0.350652      4.575134
  H       2.123345      3.364817      4.204781
  H       3.414996      2.127437      4.030633
  H       2.836566      2.602083      5.664983
  Si      2.656324     -0.571016     -2.134623
  C       4.308979     -0.175191     -2.990429
  C       2.999004     -1.539651     -0.546510
  C       1.573006     -1.627264     -3.292504
  H       4.949414      0.461005     -2.344083
  H       4.153325      0.365513     -3.947200
  H       4.877005     -1.101976     -3.215621
  H       2.066746     -1.960057     -0.117952
  H       3.446354     -0.891613      0.233084
  H       3.682589     -2.390053     -0.750326
  H       0.742974     -2.091339     -2.719499
  H       2.164638     -2.450614     -3.744785
  H       1.139881     -1.031210     -4.122609
  H      -0.262040      0.281349     -1.981515
  C       1.779773      1.098131     -1.801959
  C       0.289095      1.063467     -1.411970
  H       1.920546      1.689804     -2.737751
  H       2.362233      1.636906     -1.019857
  Si     -0.674647      2.693215     -1.670239
  H       0.155517      0.791633     -0.336642
  C       0.211066      4.154721     -0.828599
  C      -2.406807      2.512033     -0.917922
  C      -0.799438      3.043722     -3.534232
  H       0.043753      4.157489      0.269549
  H      -0.184794      5.120823     -1.205513
  H       1.303130      4.146956     -1.023213
  H      -2.334935      2.308821      0.171380
  H      -2.965872      1.673574     -1.382826
  H      -3.009871      3.434201     -1.052994
  H       0.204057      3.166626     -3.992448
  H      -1.374009      3.972101     -3.733074
  H      -1.309579      2.210340     -4.061270
69
Coordinates from ORCA-job my_molecule E -2464.464559026783
  Pt     -0.443672     -1.254689      1.365346
  O      -0.243562     -0.074488      2.909470
  O      -2.525074     -2.628613      1.600954
  P       1.008428      0.985763      2.832893
  P      -2.097548     -3.230189      0.245212
  O      -1.807657     -4.839838      0.317003
  O      -0.728602     -2.482042     -0.185157
  O       0.279305      2.375281      2.323470
  O       2.144355      0.565877      1.920808
  C       1.452953      1.305976      4.600748
  C      -3.301178     -3.096537     -1.138944
  C      -2.721022     -3.776251     -2.395935
  C      -3.516021     -1.587053     -1.380804
  C      -4.609052     -3.777050     -0.684242
  C       0.214372      1.783664      5.381887
  C       1.995708     -0.017925      5.174180
  C       2.559661      2.382018      4.595987
  H      -1.359647     -5.059836      1.156658
  H       0.751447      2.677764      1.520349
  H      -1.743283     -3.336796     -2.679642
  H      -3.421978     -3.629594     -3.245945
  H      -2.582052     -4.867664     -2.246783
  H      -2.579360     -1.085138     -1.703485
  H      -3.876292     -1.079562     -0.461670
  H      -4.279576     -1.448811     -2.176482
  H      -4.462130     -4.855816     -0.493548
  H      -5.370361     -3.673540     -1.476892
  H      -5.004903     -3.313660      0.234000
  H      -0.586091      1.020811      5.373052
  H      -0.197171      2.719003      4.957340
  H       0.496131      1.981257      6.437657
  H       1.211699     -0.803651      5.187514
  H       2.341182      0.143144      6.218679
  H       2.851611     -0.392126      4.576196
  H       2.187991      3.339101      4.177717
  H       3.435492      2.056637      3.996092
  H       2.902247      2.571399      5.637135
  Si      2.647157     -0.558311     -2.138388
  C       4.303595     -0.176805     -2.994485
  C       2.981979     -1.533349     -0.548459
  C       1.559577     -1.611166     -3.294601
  H       4.950916      0.452555     -2.348321
  H       4.148557      0.368518     -3.948348
  H       4.863404     -1.109041     -3.225616
  H       2.052377     -1.957861     -0.116939
  H       3.430126     -0.884727      0.231386
  H       3.667453     -2.384098     -0.753084
  H       0.732675     -2.071858     -2.718666
  H       2.146855     -2.437284     -3.749851
  H       1.122495     -1.015958     -4.122785
  H      -0.260485      0.286362     -2.022392
  C       1.782614      1.113625     -1.805247
  C       0.282566      1.066518     -1.433032
  H       1.939842      1.727836     -2.742383
  H       2.359424      1.646293     -0.994206
  Si     -0.675535      2.695914     -1.695438
  H       0.133546      0.770920     -0.361761
  C       0.181099      4.154322     -0.801238
  C      -2.435951      2.503286     -1.008767
  C      -0.725086      3.075781     -3.564446
  H      -0.004293      4.144824      0.293504
  H      -0.214868      5.122613     -1.172476
  H       1.274415      4.161310     -0.976920
  H      -2.400106      2.295302      0.076993
  H      -2.978390      1.672550     -1.497485
  H      -3.036523      3.421419     -1.158934
  H       0.298455      3.210481     -3.982765
  H      -1.292366      4.007153     -3.766404
  H      -1.211874      2.246050     -4.129268
69
Coordinates from ORCA-job my_molecule E -2464.465023217881
  Pt     -0.439414     -1.261086      1.370310
  O      -0.266669     -0.063004      2.905846
  O      -2.495766     -2.663676      1.628873
  P       0.989778      0.989793      2.833382
  P      -2.082750     -3.245081      0.257066
  O      -1.797265     -4.855762      0.302070
  O      -0.716912     -2.494153     -0.173349
  O       0.267247      2.382019      2.329879
  O       2.120644      0.567769      1.917862
  C       1.443186      1.290358      4.602299
  C      -3.305688     -3.092513     -1.112485
  C      -2.743784     -3.758521     -2.386622
  C      -3.521442     -1.581373     -1.333729
  C      -4.609309     -3.774662     -0.647696
  C       0.219788      1.797917      5.388283
  C       1.949522     -0.050887      5.168138
  C       2.577281      2.336205      4.601519
  H      -1.327500     -5.090003      1.132412
  H       0.727070      2.674751      1.514816
  H      -1.770636     -3.315768     -2.682267
  H      -3.457551     -3.602692     -3.223946
  H      -2.600321     -4.850116     -2.251051
  H      -2.591553     -1.081962     -1.671643
  H      -3.857693     -1.082182     -0.401961
  H      -4.303660     -1.431767     -2.108569
  H      -4.459746     -4.856648     -0.470464
  H      -5.383227     -3.662164     -1.430521
  H      -4.992104     -3.320573      0.284335
  H      -0.600893      1.054351      5.379068
  H      -0.169641      2.745931      4.969239
  H       0.509148      1.984141      6.445002
  H       1.144779     -0.814505      5.180013
  H       2.301735      0.095926      6.212040
  H       2.793002     -0.446503      4.565927
  H       2.229433      3.305670      4.191332
  H       3.442451      1.991787      3.996381
  H       2.926669      2.508996      5.642553
  Si      2.663811     -0.545979     -2.136273
  C       4.310945     -0.153970     -3.001873
  C       3.009974     -1.512238     -0.548788
  C       1.580370     -1.603581     -3.290607
  H       4.961802      0.477131     -2.358422
  H       4.147684      0.392183     -3.953973
  H       4.872823     -1.082970     -3.238423
  H       2.083475     -1.943000     -0.123589
  H       3.445890     -0.857549      0.231809
  H       3.707094     -2.351090     -0.750524
  H       0.750324     -2.065542     -2.717431
  H       2.172093     -2.427456     -3.742552
  H       1.145942     -1.010683     -4.122285
  H      -0.255023      0.293591     -2.011488
  C       1.783864      1.124034     -1.804327
  C       0.286242      1.077756     -1.434742
  H       1.939492      1.725344     -2.739354
  H       2.358875      1.660202     -1.005066
  Si     -0.677204      2.697441     -1.720796
  H       0.146461      0.785706     -0.367381
  C       0.162454      4.157879     -0.815552
  C      -2.450326      2.504825     -1.066239
  C      -0.699701      3.066222     -3.590635
  H      -0.031090      4.140056      0.279051
  H      -0.238615      5.125362     -1.183303
  H       1.256912      4.172099     -0.984811
  H      -2.430902      2.311804      0.022309
  H      -2.979584      1.665258     -1.555194
  H      -3.055977      3.416227     -1.237772
  H       0.328967      3.198518     -3.994221
  H      -1.266235      3.996517     -3.805028
  H      -1.179048      2.235890     -4.156868
69
Coordinates from ORCA-job my_molecule E -2464.465342105219
  Pt     -0.439902     -1.273366      1.380444
  O      -0.293136     -0.060347      2.905082
  O      -2.460996     -2.700564      1.643420
  P       0.969862      0.983573      2.830807
  P      -2.064909     -3.264821      0.256820
  O      -1.784140     -4.878249      0.275642
  O      -0.703942     -2.507369     -0.175132
  O       0.261342      2.381907      2.329220
  O       2.094884      0.550239      1.910641
  C       1.432429      1.287142      4.597394
  C      -3.304228     -3.086251     -1.094727
  C      -2.762622     -3.740068     -2.381722
  C      -3.511315     -1.570748     -1.294384
  C      -4.607427     -3.763071     -0.624983
  C       0.214915      1.807703      5.381789
  C       1.930465     -0.054594      5.170695
  C       2.572623      2.327350      4.588664
  H      -1.307562     -5.125176      1.092814
  H       0.712499      2.664553      1.506311
  H      -1.790976     -3.299085     -2.685173
  H      -3.485985     -3.571664     -3.206606
  H      -2.623582     -4.832164     -2.259610
  H      -2.582266     -1.074625     -1.638352
  H      -3.831694     -1.079273     -0.354434
  H      -4.300605     -1.407054     -2.057462
  H      -4.465591     -4.849865     -0.465083
  H      -5.390246     -3.631887     -1.398428
  H      -4.974190     -3.317399      0.319155
  H      -0.610791      1.071803      5.375247
  H      -0.166557      2.756638      4.960126
  H       0.505878      1.994433      6.436710
  H       1.121172     -0.813050      5.187577
  H       2.285423      0.095621      6.213131
  H       2.770561     -0.458011      4.570700
  H       2.229898      3.296485      4.172900
  H       3.433796      1.975318      3.985001
  H       2.924706      2.504461      5.627902
  Si      2.673461     -0.538839     -2.142869
  C       4.329876     -0.154910     -2.997304
  C       3.005348     -1.508930     -0.552242
  C       1.589445     -1.592227     -3.302766
  H       4.979568      0.470186     -2.348203
  H       4.176036      0.395993     -3.948621
  H       4.888176     -1.086358     -3.231887
  H       2.071655     -1.933806     -0.129646
  H       3.443165     -0.856237      0.228939
  H       3.697163     -2.355435     -0.748646
  H       0.755463     -2.052628     -2.733338
  H       2.179803     -2.418486     -3.754645
  H       1.158862     -0.995831     -4.134564
  H      -0.235995      0.291760     -2.020035
  C       1.797822      1.132204     -1.813807
  C       0.300398      1.078482     -1.441704
  H       1.951683      1.735935     -2.748397
  H       2.370493      1.669557     -1.015202
  Si     -0.674925      2.692872     -1.725583
  H       0.167243      0.778356     -0.375121
  C       0.150269      4.157399     -0.812597
  C      -2.452033      2.486359     -1.080973
  C      -0.692579      3.066206     -3.594117
  H      -0.046887      4.132088      0.280305
  H      -0.257013      5.124330     -1.174751
  H       1.245096      4.180939     -0.979314
  H      -2.438345      2.290663      0.008709
  H      -2.973068      1.642813     -1.575855
  H      -3.064099      3.394832     -1.252947
  H       0.335130      3.201428     -3.994092
  H      -1.260557      3.995131     -3.808516
  H      -1.168444      2.237628     -4.162309
69
Coordinates from ORCA-job my_molecule E -2464.465675879053
  Pt     -0.438937     -1.286699      1.389880
  O      -0.314170     -0.057749      2.910770
  O      -2.429407     -2.722014      1.653912
  P       0.950520      0.980400      2.832173
  P      -2.051133     -3.274794      0.257181
  O      -1.793014     -4.889573      0.254628
  O      -0.691419     -2.524404     -0.170905
  O       0.251493      2.384359      2.333007
  O       2.069698      0.538793      1.906342
  C       1.421305      1.285602      4.596042
  C      -3.303558     -3.071824     -1.079271
  C      -2.777206     -3.707797     -2.383874
  C      -3.506560     -1.551961     -1.253758
  C      -4.604420     -3.751330     -0.608011
  C       0.207112      1.812860      5.380847
  C       1.914343     -0.056707      5.171795
  C       2.565092      2.321124      4.583746
  H      -1.294528     -5.153558      1.063067
  H       0.692419      2.658195      1.501812
  H      -1.807806     -3.264662     -2.693025
  H      -3.509883     -3.523388     -3.198330
  H      -2.638976     -4.802990     -2.281142
  H      -2.578159     -1.056235     -1.597453
  H      -3.817285     -1.073010     -0.303804
  H      -4.300222     -1.373178     -2.008472
  H      -4.465506     -4.841837     -0.465479
  H      -5.392807     -3.605406     -1.373091
  H      -4.961433     -3.317547      0.345688
  H      -0.621829      1.080403      5.375975
  H      -0.170594      2.763219      4.958342
  H       0.499966      1.999526      6.435034
  H       1.102640     -0.811710      5.190434
  H       2.270125      0.094550      6.213052
  H       2.752732     -0.464779      4.573027
  H       2.226934      3.290215      4.165421
  H       3.424242      1.963519      3.981601
  H       2.917459      2.500411      5.621798
  Si      2.686049     -0.536853     -2.151144
  C       4.344022     -0.154042     -3.003154
  C       3.012490     -1.499741     -0.555856
  C       1.608474     -1.595369     -3.311235
  H       4.991593      0.472930     -2.354167
  H       4.192499      0.394193     -3.955925
  H       4.902981     -1.085342     -3.234985
  H       2.078918     -1.923931     -0.136229
  H       3.445667     -0.844478      0.225883
  H       3.705905     -2.345444     -0.745596
  H       0.771645     -2.053397     -2.745386
  H       2.200828     -2.421709     -3.757454
  H       1.182952     -1.003068     -4.147225
  H      -0.222319      0.283204     -2.025141
  C       1.806559      1.132585     -1.828674
  C       0.311754      1.072444     -1.448877
  H       1.954039      1.733144     -2.765496
  H       2.379052      1.675411     -1.034528
  Si     -0.674352      2.681458     -1.730116
  H       0.188312      0.769276     -0.382064
  C       0.140910      4.148375     -0.814504
  C      -2.451013      2.465468     -1.087559
  C      -0.693286      3.058728     -3.597504
  H      -0.060673      4.120489      0.276480
  H      -0.269093      5.114772     -1.175601
  H       1.235858      4.176301     -0.976934
  H      -2.437343      2.265682      0.001906
  H      -2.968265      1.621981     -1.585416
  H      -3.066168      3.372544     -1.256408
  H       0.336468      3.200633     -3.996777
  H      -1.266462      3.986008     -3.809824
  H      -1.165228      2.227728     -4.169446
69
Coordinates from ORCA-job my_molecule E -2464.466078364938
  Pt     -0.435340     -1.299991      1.390506
  O      -0.336868     -0.068770      2.911650
  O      -2.383082     -2.758791      1.664789
  P       0.926898      0.965231      2.828444
  P      -2.028376     -3.291021      0.247763
  O      -1.792263     -4.910603      0.215202
  O      -0.674111     -2.538610     -0.182102
  O       0.238062      2.371576      2.327134
  O       2.042709      0.513415      1.899984
  C       1.408551      1.285381      4.587667
  C      -3.301536     -3.047318     -1.061747
  C      -2.805965     -3.662300     -2.387955
  C      -3.483930     -1.521520     -1.200006
  C      -4.604421     -3.716700     -0.586166
  C       0.196632      1.815978      5.374316
  C       1.909377     -0.049472      5.174138
  C       2.548572      2.325574      4.561443
  H      -1.283909     -5.194970      1.008480
  H       0.672167      2.639513      1.490450
  H      -1.835784     -3.225343     -2.704835
  H      -3.549087     -3.451192     -3.185693
  H      -2.681502     -4.761098     -2.310214
  H      -2.551937     -1.034819     -1.542601
  H      -3.775794     -1.058309     -0.238631
  H      -4.280808     -1.314742     -1.941682
  H      -4.481581     -4.813059     -0.467723
  H      -5.400999     -3.542068     -1.338143
  H      -4.940349     -3.294684      0.381487
  H      -0.630618      1.081827      5.380148
  H      -0.185085      2.761309      4.945374
  H       0.494817      2.012194      6.425572
  H       1.100305     -0.807533      5.203462
  H       2.270454      0.112553      6.212896
  H       2.747118     -0.458874      4.574911
  H       2.204828      3.289730      4.135982
  H       3.406960      1.966782      3.958488
  H       2.905155      2.515196      5.596813
  Si      2.704088     -0.534342     -2.153669
  C       4.371360     -0.150256     -2.986757
  C       3.015126     -1.505171     -0.560148
  C       1.629179     -1.580259     -3.329801
  H       5.014321      0.469442     -2.326286
  H       4.232817      0.405422     -3.937548
  H       4.929199     -1.081942     -3.218287
  H       2.075260     -1.924714     -0.148927
  H       3.445094     -0.852508      0.225217
  H       3.705991     -2.353910     -0.744792
  H       0.783165     -2.034943     -2.773589
  H       2.219867     -2.409130     -3.776287
  H       1.213818     -0.978772     -4.166100
  H      -0.197826      0.267588     -2.027815
  C       1.820865      1.134134     -1.826128
  C       0.326228      1.060804     -1.450050
  H       1.967836      1.738968     -2.758929
  H       2.388235      1.674956     -1.028223
  Si     -0.678362      2.657925     -1.734208
  H       0.207758      0.755272     -0.384881
  C       0.121945      4.130582     -0.819478
  C      -2.454394      2.423645     -1.093282
  C      -0.702207      3.033196     -3.599704
  H      -0.083215      4.099589      0.269504
  H      -0.293785      5.094503     -1.181075
  H       1.216764      4.165047     -0.977956
  H      -2.439415      2.222548     -0.005227
  H      -2.962408      1.575526     -1.591805
  H      -3.080136      3.324941     -1.260974
  H       0.327018      3.179977     -3.999707
  H      -1.281963      3.957104     -3.812203
  H      -1.171480      2.200305     -4.170488
69
Coordinates from ORCA-job my_molecule E -2464.466241199173
  Pt     -0.423665     -1.326186      1.404085
  O      -0.333384     -0.101687      2.934371
  O      -2.343888     -2.788056      1.663354
  P       0.917940      0.942799      2.836032
  P      -2.012233     -3.298043      0.229222
  O      -1.811773     -4.919845      0.164852
  O      -0.660648     -2.551655     -0.193777
  O       0.216505      2.340442      2.330189
  O       2.033380      0.492318      1.902506
  C       1.411777      1.289521      4.587283
  C      -3.300229     -3.008149     -1.056286
  C      -2.830196     -3.593902     -2.404449
  C      -3.465996     -1.478146     -1.152399
  C      -4.604201     -3.674188     -0.582365
  C       0.195787      1.807339      5.374861
  C       1.942168     -0.028084      5.187170
  C       2.530837      2.351930      4.541517
  H      -1.292091     -5.231918      0.948778
  H       0.642828      2.612895      1.491075
  H      -1.860251     -3.158387     -2.725152
  H      -3.581844     -3.355866     -3.185490
  H      -2.715899     -4.694134     -2.355862
  H      -2.530016     -0.997065     -1.488244
  H      -3.745087     -1.035881     -0.179194
  H      -4.263214     -1.242854     -1.883665
  H      -4.493731     -4.775330     -0.493138
  H      -5.407564     -3.470012     -1.320817
  H      -4.922644     -3.271324      0.400268
  H      -0.617298      1.059148      5.392959
  H      -0.204529      2.740430      4.937308
  H       0.495750      2.020059      6.421290
  H       1.148928     -0.801716      5.230251
  H       2.305914      0.153727      6.221460
  H       2.784954     -0.427236      4.589115
  H       2.165480      3.304195      4.106945
  H       3.392590      2.003769      3.937912
  H       2.889733      2.560819      5.571955
  Si      2.715962     -0.537148     -2.150161
  C       4.392264     -0.152643     -2.967241
  C       3.014608     -1.513466     -0.556484
  C       1.650175     -1.579737     -3.335339
  H       5.028461      0.464895     -2.298265
  H       4.264408      0.406006     -3.917670
  H       4.951871     -1.084307     -3.195631
  H       2.071497     -1.932165     -0.150463
  H       3.442531     -0.864342      0.232887
  H       3.703914     -2.364993     -0.737418
  H       0.798920     -2.031563     -2.785731
  H       2.241331     -2.408432     -3.778885
  H       1.243194     -0.976985     -4.173590
  H      -0.176438      0.240993     -2.039630
  C       1.830122      1.125959     -1.822828
  C       0.333532      1.037177     -1.456344
  H       1.978728      1.739024     -2.749170
  H       2.386445      1.664433     -1.019000
  Si     -0.690547      2.624112     -1.742475
  H       0.212985      0.728280     -0.391736
  C       0.088311      4.104648     -0.819487
  C      -2.470604      2.368181     -1.112437
  C      -0.709364      3.005167     -3.606949
  H      -0.120839      4.068103      0.267998
  H      -0.336686      5.065711     -1.178178
  H       1.183057      4.152367     -0.973964
  H      -2.461458      2.161144     -0.024868
  H      -2.967738      1.517446     -1.618597
  H      -3.105037      3.264848     -1.278968
  H       0.320040      3.156358     -4.004023
  H      -1.292571      3.927757     -3.818379
  H      -1.175261      2.173446     -4.180896
69
Coordinates from ORCA-job my_molecule E -2464.465923845284
  Pt     -0.414472     -1.326698      1.390724
  O      -0.322300     -0.123786      2.937869
  O      -2.328876     -2.797314      1.654379
  P       0.919120      0.930861      2.836150
  P      -2.006861     -3.296567      0.212539
  O      -1.807078     -4.919990      0.132877
  O      -0.662463     -2.541930     -0.214278
  O       0.209970      2.320123      2.323153
  O       2.038900      0.483963      1.905034
  C       1.405467      1.299451      4.585041
  C      -3.304914     -2.991310     -1.058954
  C      -2.843497     -3.551666     -2.422616
  C      -3.469905     -1.457985     -1.122864
  C      -4.604605     -3.668109     -0.589206
  C       0.179211      1.803244      5.363351
  C       1.957254     -0.002141      5.200173
  C       2.503086      2.383644      4.535198
  H      -1.287202     -5.240313      0.913276
  H       0.643420      2.603228      1.491795
  H      -1.875660     -3.109559     -2.743118
  H      -3.598806     -3.299717     -3.194345
  H      -2.727733     -4.652562     -2.393995
  H      -2.536145     -0.974476     -1.459871
  H      -3.735313     -1.036832     -0.133582
  H      -4.276917     -1.202446     -1.838719
  H      -4.493593     -4.777433     -0.529411
  H      -5.413976     -3.441282     -1.318908
  H      -4.914733     -3.287805      0.410982
  H      -0.619687      1.040697      5.386117
  H      -0.235726      2.724576      4.914989
  H       0.472233      2.032330      6.407917
  H       1.178924     -0.790035      5.248394
  H       2.313833      0.197254      6.233213
  H       2.808676     -0.391070      4.610513
  H       2.122557      3.324662      4.090035
  H       3.373632      2.047015      3.941677
  H       2.851330      2.610086      5.564549
  Si      2.724242     -0.547593     -2.152726
  C       4.399450     -0.158144     -2.966355
  C       3.024508     -1.532205     -0.565009
  C       1.650778     -1.577075     -3.347036
  H       5.031708      0.456436     -2.294125
  H       4.273826      0.403659     -3.914595
  H       4.959891     -1.086455     -3.197092
  H       2.084466     -1.956621     -0.160671
  H       3.451367     -0.883922      0.226282
  H       3.715185     -2.380312     -0.750851
  H       0.796164     -2.025936     -2.800889
  H       2.236488     -2.407462     -3.797177
  H       1.245555     -0.965589     -4.180797
  H      -0.164952      0.223784     -2.026993
  C       1.836608      1.116408     -1.812417
  C       0.341993      1.022442     -1.445559
  H       1.984611      1.734677     -2.736102
  H       2.393416      1.649754     -1.004234
  Si     -0.687208      2.604003     -1.732779
  H       0.226304      0.716418     -0.380136
  C       0.098629      4.083155     -0.823705
  C      -2.460178      2.348748     -1.089110
  C      -0.723125      2.975451     -3.596260
  H      -0.110408      4.052371      0.261514
  H      -0.321056      5.044677     -1.188070
  H       1.192483      4.123477     -0.978398
  H      -2.441169      2.139970     -0.001986
  H      -2.961093      1.498157     -1.592969
  H      -3.097015      3.245178     -1.248753
  H       0.306301      3.131552     -4.000731
  H      -1.315398      3.893799     -3.806591
  H      -1.189517      2.137091     -4.165759
69
Coordinates from ORCA-job my_molecule E -2464.465694553411
  Pt     -0.419021     -1.309254      1.388913
  O      -0.301238     -0.102823      2.925711
  O      -2.372468     -2.762780      1.651900
  P       0.945951      0.949542      2.835094
  P      -2.030186     -3.283751      0.225783
  O      -1.813176     -4.906532      0.175080
  O      -0.678525     -2.530739     -0.202793
  O       0.233583      2.343030      2.327230
  O       2.070006      0.509434      1.909414
  C       1.419893      1.293290      4.590966
  C      -3.311217     -3.014932     -1.070351
  C      -2.829600     -3.611884     -2.409812
  C      -3.486194     -1.486413     -1.181651
  C      -4.613712     -3.683904     -0.597219
  C       0.189859      1.788627      5.369460
  C       1.964457     -0.019663      5.188682
  C       2.521108      2.373421      4.561668
  H      -1.304121     -5.209052      0.969310
  H       0.667469      2.623477      1.494907
  H      -1.859073     -3.175911     -2.727491
  H      -3.575864     -3.383890     -3.198776
  H      -2.712232     -4.711405     -2.349093
  H      -2.553021     -1.004385     -1.522477
  H      -3.768450     -1.037016     -0.212218
  H      -4.284444     -1.261655     -1.914592
  H      -4.497806     -4.785704     -0.499106
  H      -5.414839     -3.487719     -1.342404
  H      -4.939144     -3.274451      0.382575
  H      -0.610427      1.026044      5.379142
  H      -0.222602      2.716449      4.930407
  H       0.478270      2.004043      6.418536
  H       1.183208     -0.804937      5.222338
  H       2.317199      0.162977      6.225932
  H       2.817225     -0.403759      4.596328
  H       2.144792      3.322502      4.130121
  H       3.393104      2.042607      3.965268
  H       2.866166      2.581959      5.595643
  Si      2.714600     -0.542150     -2.146038
  C       4.384074     -0.148618     -2.970064
  C       3.025882     -1.522422     -0.557439
  C       1.642626     -1.581682     -3.330586
  H       5.018847      0.471393     -2.303593
  H       4.249110      0.409852     -3.919669
  H       4.947481     -1.075833     -3.200931
  H       2.085423     -1.946861     -0.149165
  H       3.456174     -0.874283      0.231628
  H       3.717447     -2.370528     -0.745885
  H       0.792626     -2.034738     -2.779332
  H       2.232089     -2.409290     -3.778587
  H       1.232025     -0.975399     -4.165483
  H      -0.180992      0.239684     -2.031474
  C       1.827213      1.119716     -1.811832
  C       0.330604      1.034959     -1.447515
  H       1.976338      1.730883     -2.735650
  H       2.383534      1.655594     -1.009980
  Si     -0.686753      2.626181     -1.734469
  H       0.207747      0.728287     -0.381562
  C       0.108564      4.103491     -0.828168
  C      -2.461809      2.383940     -1.090266
  C      -0.720222      2.995326     -3.598719
  H      -0.093950      4.074928      0.259612
  H      -0.310699      5.065382     -1.191961
  H       1.202693      4.140360     -0.988470
  H      -2.446390      2.180679     -0.001079
  H      -2.966770      1.532164     -1.590169
  H      -3.092657      3.284048     -1.255995
  H       0.307235      3.146407     -4.003883
  H      -1.308520      3.915613     -3.811799
  H      -1.188504      2.158075     -4.163903
69
Coordinates from ORCA-job my_molecule E -2464.465714105973
  Pt     -0.425726     -1.294369      1.384243
  O      -0.304674     -0.067659      2.905215
  O      -2.404587     -2.745892      1.653543
  P       0.957705      0.970454      2.829127
  P      -2.042218     -3.280439      0.241064
  O      -1.803392     -4.900705      0.211819
  O      -0.685752     -2.527125     -0.187585
  O       0.262896      2.376103      2.329083
  O       2.080137      0.526312      1.905623
  C       1.419701      1.287835      4.591890
  C      -3.310187     -3.041853     -1.073696
  C      -2.809298     -3.660722     -2.395587
  C      -3.498141     -1.515409     -1.213812
  C      -4.612002     -3.715308     -0.600010
  C       0.191885      1.796720      5.364600
  C       1.932946     -0.042590      5.178157
  C       2.540661      2.346879      4.584223
  H      -1.299752     -5.184421      1.011698
  H       0.693552      2.642500      1.490978
  H      -1.839532     -3.223049     -2.712044
  H      -3.549330     -3.457645     -3.195118
  H      -2.681974     -4.755708     -2.309899
  H      -2.567642     -1.026211     -1.556885
  H      -3.793283     -1.053383     -0.249901
  H      -4.296426     -1.309407     -1.956469
  H      -4.483453     -4.816270     -0.482748
  H      -5.409503     -3.539641     -1.355857
  H      -4.951238     -3.294922      0.373952
  H      -0.621719      1.047864      5.359562
  H      -0.200817      2.736589      4.931882
  H       0.474881      1.996459      6.418356
  H       1.136376     -0.812256      5.195664
  H       2.278964      0.121261      6.219928
  H       2.782611     -0.437259      4.589480
  H       2.185236      3.308543      4.162904
  H       3.409751      2.007009      3.989414
  H       2.881975      2.535141      5.622837
  Si      2.704591     -0.538416     -2.149011
  C       4.366020     -0.145161     -2.987818
  C       3.025880     -1.508139     -0.555957
  C       1.631479     -1.589844     -3.320521
  H       5.004646      0.479005     -2.330396
  H       4.220642      0.408443     -3.938321
  H       4.929481     -1.071243     -3.219920
  H       2.088413     -1.932160     -0.141972
  H       3.458368     -0.856272      0.229522
  H       3.717695     -2.355354     -0.745068
  H       0.787270     -2.045553     -2.762683
  H       2.223813     -2.416605     -3.766380
  H       1.214171     -0.990865     -4.156786
  H      -0.200088      0.260227     -2.031086
  C       1.818008      1.125018     -1.822692
  C       0.322830      1.051445     -1.449347
  H       1.965602      1.729454     -2.752838
  H       2.381067      1.666034     -1.026263
  Si     -0.679579      2.652320     -1.730894
  H       0.203931      0.743806     -0.382980
  C       0.128667      4.125169     -0.829469
  C      -2.452004      2.424078     -1.079636
  C      -0.715981      3.021414     -3.595712
  H      -0.067439      4.097836      0.259654
  H      -0.288697      5.088682     -1.190677
  H       1.222503      4.156964     -0.996221
  H      -2.433960      2.227512      0.011194
  H      -2.962587      1.570875     -1.572694
  H      -3.077351      3.326540     -1.248961
  H       0.310344      3.164646     -4.003259
  H      -1.295530      3.945231     -3.808873
  H      -1.190833      2.187491     -4.159565
69
Coordinates from ORCA-job my_molecule E -2464.465754674019
  Pt     -0.432798     -1.275583      1.375066
  O      -0.296246     -0.041897      2.884520
  O      -2.449500     -2.712136      1.646062
  P       0.973780      0.991260      2.823341
  P      -2.063190     -3.270568      0.255143
  O      -1.803948     -4.887185      0.258838
  O      -0.698940     -2.522457     -0.174216
  O       0.285776      2.406456      2.329184
  O       2.099591      0.549285      1.907538
  C       1.418665      1.287320      4.593529
  C      -3.310124     -3.073084     -1.085337
  C      -2.782070     -3.722672     -2.381524
  C      -3.510726     -1.553630     -1.272267
  C      -4.614372     -3.743565     -0.613112
  C       0.183447      1.784596      5.363673
  C       1.928623     -0.050917      5.166635
  C       2.540103      2.346351      4.606643
  H      -1.313001     -5.147443      1.069753
  H       0.723138      2.671357      1.493869
  H      -1.811744     -3.284829     -2.694402
  H      -3.512326     -3.546730     -3.197953
  H      -2.646543     -4.814567     -2.264198
  H      -2.580782     -1.062728     -1.617972
  H      -3.825497     -1.067091     -0.327888
  H      -4.300304     -1.379324     -2.031500
  H      -4.480206     -4.834471     -0.458931
  H      -5.400171     -3.599638     -1.384750
  H      -4.973401     -3.297308      0.336841
  H      -0.629799      1.035111      5.343661
  H      -0.207177      2.729518      4.939722
  H       0.459096      1.971211      6.422204
  H       1.131399     -0.820880      5.169694
  H       2.268362      0.099455      6.213178
  H       2.782376     -0.438516      4.577742
  H       2.188173      3.312825      4.193577
  H       3.413685      2.013013      4.014188
  H       2.874204      2.522223      5.650597
  Si      2.691792     -0.541136     -2.154642
  C       4.345960     -0.150712     -3.009192
  C       3.024656     -1.503654     -0.559637
  C       1.610990     -1.599663     -3.313994
  H       4.989940      0.479068     -2.361415
  H       4.190914      0.396390     -3.962220
  H       4.908855     -1.078259     -3.240471
  H       2.088994     -1.926371     -0.138980
  H       3.462331     -0.850650      0.221572
  H       3.714983     -2.351815     -0.751705
  H       0.773370     -2.057157     -2.748288
  H       2.202145     -2.426327     -3.761509
  H       1.185153     -1.004514     -4.148480
  H      -0.217103      0.281931     -2.021007
  C       1.810665      1.126608     -1.831778
  C       0.319076      1.068684     -1.444573
  H       1.950949      1.720493     -2.767333
  H       2.383696      1.671179     -1.047894
  Si     -0.666840      2.681573     -1.716666
  H       0.205956      0.763073     -0.376667
  C       0.165370      4.147881     -0.828148
  C      -2.431042      2.473175     -1.042681
  C      -0.721483      3.046708     -3.581753
  H      -0.026013      4.128158      0.264313
  H      -0.242502      5.113470     -1.193960
  H       1.260639      4.165719     -0.999092
  H      -2.402725      2.276751      0.049200
  H      -2.956438      1.624454     -1.528411
  H      -3.046296      3.382990     -1.206092
  H       0.299076      3.184532     -3.999830
  H      -1.299031      3.971452     -3.793177
  H      -1.203589      2.213211     -4.136636
69
Coordinates from ORCA-job my_molecule E -2464.465790746809
  Pt     -0.441686     -1.265660      1.377357
  O      -0.310703     -0.018720      2.875980
  O      -2.454315     -2.714049      1.656067
  P       0.972173      0.997127      2.820358
  P      -2.063517     -3.274233      0.265887
  O      -1.805958     -4.891993      0.273622
  O      -0.697338     -2.526240     -0.162598
  O       0.305419      2.423211      2.330842
  O       2.092833      0.543015      1.902756
  C       1.420233      1.278893      4.591704
  C      -3.308792     -3.077187     -1.075677
  C      -2.785972     -3.736921     -2.369831
  C      -3.500547     -1.558306     -1.270912
  C      -4.617343     -3.736982     -0.600381
  C       0.194230      1.796775      5.363516
  C       1.902865     -0.071766      5.158382
  C       2.562254      2.314593      4.610532
  H      -1.311487     -5.152209      1.083080
  H       0.727885      2.667703      1.481537
  H      -1.812277     -3.307682     -2.684129
  H      -3.516294     -3.557280     -3.188222
  H      -2.659599     -4.832581     -2.250131
  H      -2.567383     -1.073682     -1.615407
  H      -3.816719     -1.065142     -0.331844
  H      -4.285313     -1.385227     -2.033795
  H      -4.489266     -4.826336     -0.435607
  H      -5.400310     -3.597440     -1.374475
  H      -4.976146     -3.280542      0.343139
  H      -0.633241      1.062496      5.341116
  H      -0.178828      2.750625      4.943170
  H       0.473186      1.974311      6.423030
  H       1.090788     -0.825512      5.156280
  H       2.243554      0.066736      6.205891
  H       2.749766     -0.473520      4.568647
  H       2.229755      3.290224      4.203768
  H       3.428659      1.966905      4.015513
  H       2.899672      2.477444      5.655108
  Si      2.697851     -0.530953     -2.151649
  C       4.351453     -0.135419     -3.003891
  C       3.028667     -1.492719     -0.556389
  C       1.620404     -1.589082     -3.314070
  H       4.995957      0.492126     -2.353923
  H       4.196620      0.414823     -3.955521
  H       4.914568     -1.062101     -3.237585
  H       2.089123     -1.910932     -0.139628
  H       3.464095     -0.839320      0.225616
  H       3.719268     -2.341367     -0.745051
  H       0.780307     -2.047308     -2.751364
  H       2.214168     -2.415629     -3.759754
  H       1.197330     -0.992665     -4.150196
  H      -0.215718      0.287730     -2.031706
  C       1.810516      1.135699     -1.830363
  C       0.316904      1.074505     -1.449841
  H       1.954137      1.727854     -2.765544
  H       2.381139      1.681492     -1.045004
  Si     -0.673181      2.684077     -1.725328
  H       0.199973      0.764161     -0.383724
  C       0.148551      4.153402     -0.833638
  C      -2.440515      2.467375     -1.061114
  C      -0.719757      3.049510     -3.589732
  H      -0.038581      4.128457      0.258493
  H      -0.268304      5.117040     -1.194684
  H       1.242212      4.179588     -1.007970
  H      -2.417746      2.277522      0.031661
  H      -2.956083      1.611511     -1.544474
  H      -3.061741      3.371645     -1.233679
  H       0.304475      3.190938     -4.003059
  H      -1.299693      3.973974     -3.802995
  H      -1.196637      2.213216     -4.148167
69
Coordinates from ORCA-job my_molecule E -2464.465810257597
  Pt     -0.451433     -1.257775      1.385840
  O      -0.319763      0.006267      2.868899
  O      -2.479752     -2.706935      1.660770
  P       0.975999      1.006931      2.820216
  P      -2.072838     -3.274916      0.280424
  O      -1.810649     -4.891785      0.299581
  O      -0.700711     -2.532097     -0.140389
  O       0.329915      2.444631      2.337308
  O       2.091260      0.543313      1.901307
  C       1.420546      1.275040      4.594106
  C      -3.302370     -3.090979     -1.077002
  C      -2.763410     -3.762397     -2.356563
  C      -3.496905     -1.574564     -1.289694
  C      -4.613457     -3.751005     -0.608486
  C       0.200080      1.812054      5.360550
  C       1.875946     -0.085851      5.159484
  C       2.579975      2.291245      4.621200
  H      -1.319356     -5.145164      1.113148
  H       0.739003      2.671741      1.476789
  H      -1.789973     -3.330335     -2.667452
  H      -3.485609     -3.600706     -3.181979
  H      -2.630377     -4.851906     -2.219605
  H      -2.562517     -1.090022     -1.631457
  H      -3.823291     -1.072399     -0.357313
  H      -4.276636     -1.411502     -2.061861
  H      -4.481625     -4.839125     -0.431576
  H      -5.389422     -3.622116     -1.392326
  H      -4.983662     -3.287472      0.328884
  H      -0.639506      1.092145      5.331709
  H      -0.154191      2.773231      4.940789
  H       0.476367      1.982163      6.421688
  H       1.049642     -0.824359      5.153323
  H       2.215901      0.044402      6.208632
  H       2.716997     -0.502220      4.571881
  H       2.264689      3.274836      4.218809
  H       3.441650      1.932377      4.025840
  H       2.917879      2.442511      5.667481
  Si      2.691165     -0.527144     -2.157910
  C       4.340307     -0.137999     -3.022311
  C       3.026226     -1.481239     -0.558585
  C       1.608862     -1.592159     -3.309567
  H       4.990656      0.490356     -2.379401
  H       4.179295      0.409466     -3.974139
  H       4.899798     -1.066707     -3.257821
  H       2.087426     -1.896327     -0.137384
  H       3.464975     -0.825876      0.220076
  H       3.713984     -2.332652     -0.746278
  H       0.774201     -2.050983     -2.740523
  H       2.201795     -2.418097     -3.756691
  H       1.178867     -1.000335     -4.144422
  H      -0.221471      0.302921     -2.037101
  C       1.807735      1.142039     -1.843268
  C       0.316135      1.085689     -1.454500
  H       1.946813      1.727939     -2.783200
  H       2.383814      1.692348     -1.065824
  Si     -0.670456      2.698781     -1.722277
  H       0.203298      0.770239     -0.388708
  C       0.150031      4.166769     -0.825259
  C      -2.438072      2.479570     -1.059424
  C      -0.715525      3.070497     -3.586613
  H      -0.033638      4.136533      0.268066
  H      -0.271294      5.130620     -1.180207
  H       1.243654      4.198259     -1.003256
  H      -2.415745      2.297281      0.033851
  H      -2.949193      1.618363     -1.537502
  H      -3.063473      3.379917     -1.238495
  H       0.307678      3.211386     -3.999502
  H      -1.293037      3.996086     -3.797887
  H      -1.193209      2.237203     -4.146889
69
Coordinates from ORCA-job my_molecule E -2464.465804337131
  Pt     -0.458490     -1.233624      1.375914
  O      -0.317854      0.035725      2.854156
  O      -2.506587     -2.683027      1.658317
  P       0.987320      1.024465      2.816323
  P      -2.083818     -3.261818      0.287206
  O      -1.804097     -4.876759      0.325834
  O      -0.710516     -2.515402     -0.137757
  O       0.359748      2.472974      2.337144
  O       2.102573      0.553209      1.902552
  C       1.416828      1.277489      4.594399
  C      -3.303007     -3.105114     -1.082402
  C      -2.746331     -3.787325     -2.350177
  C      -3.510507     -1.593962     -1.318398
  C      -4.612446     -3.771772     -0.616596
  C       0.191221      1.814193      5.352972
  C       1.859107     -0.090554      5.151610
  C       2.580846      2.285727      4.641304
  H      -1.314758     -5.116526      1.144505
  H       0.763041      2.688424      1.470756
  H      -1.773114     -3.351557     -2.655041
  H      -3.461989     -3.637534     -3.186541
  H      -2.607802     -4.877685     -2.201557
  H      -2.577676     -1.106025     -1.661296
  H      -3.850010     -1.081295     -0.396969
  H      -4.284584     -1.450606     -2.099258
  H      -4.471968     -4.856846     -0.425447
  H      -5.382631     -3.658547     -1.408654
  H      -4.995717     -3.300819      0.312511
  H      -0.650797      1.097244      5.311388
  H      -0.155653      2.779950      4.936033
  H       0.458499      1.976528      6.417517
  H       1.029683     -0.823662      5.130115
  H       2.187675      0.028711      6.204130
  H       2.703815     -0.507212      4.569840
  H       2.275484      3.274383      4.245104
  H       3.445936      1.926169      4.051264
  H       2.909037      2.425848      5.691169
  Si      2.687713     -0.529752     -2.166470
  C       4.333750     -0.145611     -3.039014
  C       3.025794     -1.476256     -0.562873
  C       1.602199     -1.602160     -3.307926
  H       4.986924      0.486030     -2.401992
  H       4.168330      0.397174     -3.992722
  H       4.891879     -1.075737     -3.273042
  H       2.087292     -1.889010     -0.137236
  H       3.468588     -0.819377      0.212283
  H       3.710563     -2.330561     -0.749429
  H       0.767670     -2.057967     -2.734049
  H       2.194781     -2.431488     -3.750332
  H       1.171345     -1.015102     -4.145804
  H      -0.227893      0.311923     -2.034791
  C       1.807416      1.141784     -1.860521
  C       0.319439      1.091190     -1.455244
  H       1.937175      1.717865     -2.808909
  H       2.392828      1.700154     -1.093921
  Si     -0.662687      2.710089     -1.707836
  H       0.216634      0.773380     -0.388593
  C       0.173081      4.174680     -0.821930
  C      -2.421360      2.495096     -1.022348
  C      -0.730340      3.083376     -3.570908
  H      -0.003313      4.150057      0.271515
  H      -0.243959      5.139805     -1.178544
  H       1.264693      4.198854     -1.006769
  H      -2.387100      2.311934      0.071320
  H      -2.940138      1.634464     -1.495024
  H      -3.045458      3.397648     -1.193577
  H       0.288195      3.225710     -3.995728
  H      -1.310948      4.008784     -3.774838
  H      -1.213555      2.249653     -4.126722
69
Coordinates from ORCA-job my_molecule E -2464.465755672909
  Pt     -0.470628     -1.220483      1.377427
  O      -0.321578      0.052616      2.846777
  O      -2.539990     -2.674140      1.651100
  P       0.992062      1.032086      2.816194
  P      -2.098054     -3.261853      0.294215
  O      -1.808165     -4.873434      0.347914
  O      -0.722119     -2.514506     -0.123682
  O       0.379321      2.488123      2.341322
  O       2.106204      0.553685      1.905585
  C       1.415098      1.280462      4.597213
  C      -3.301085     -3.124898     -1.091037
  C      -2.727932     -3.816990     -2.344850
  C      -3.514915     -1.616510     -1.342319
  C      -4.611609     -3.793404     -0.632151
  C       0.189003      1.822382      5.352331
  C       1.850094     -0.089481      5.157271
  C       2.583987      2.284742      4.648350
  H      -1.324789     -5.102816      1.172554
  H       0.774473      2.695924      1.469231
  H      -1.754956     -3.377202     -2.644886
  H      -3.435965     -3.683387     -3.188907
  H      -2.582709     -4.902243     -2.181113
  H      -2.583386     -1.126024     -1.683206
  H      -3.863538     -1.097519     -0.426560
  H      -4.285126     -1.483472     -2.130061
  H      -4.467973     -4.874483     -0.427508
  H      -5.373824     -3.693191     -1.433036
  H      -5.006555     -3.314375      0.286459
  H      -0.656373      1.109511      5.308397
  H      -0.151784      2.789296      4.933937
  H       0.454206      1.983875      6.418040
  H       1.016027     -0.819293      5.136596
  H       2.179295      0.029650      6.211303
  H       2.693717     -0.510731      4.576347
  H       2.283066      3.275363      4.252271
  H       3.449428      1.923302      4.059294
  H       2.911338      2.421969      5.700084
  Si      2.679735     -0.532055     -2.174240
  C       4.321622     -0.153865     -3.056461
  C       3.023674     -1.474621     -0.569635
  C       1.585358     -1.604210     -3.308779
  H       4.980192      0.477297     -2.424666
  H       4.151577      0.387766     -4.010380
  H       4.875895     -1.085683     -3.291822
  H       2.087826     -1.886549     -0.139748
  H       3.469778     -0.816270      0.202084
  H       3.707731     -2.328849     -0.757504
  H       0.755839     -2.059691     -2.729748
  H       2.174020     -2.432785     -3.755537
  H       1.147721     -1.017109     -4.143355
  H      -0.231820      0.327143     -2.033715
  C       1.806447      1.144682     -1.870954
  C       0.322545      1.101325     -1.454398
  H       1.927303      1.710276     -2.824463
  H       2.400847      1.707376     -1.116966
  Si     -0.652907      2.724953     -1.696764
  H       0.225317      0.779704     -0.388135
  C       0.191599      4.184123     -0.810477
  C      -2.408090      2.512872     -1.003099
  C      -0.728384      3.102712     -3.558872
  H       0.016219      4.159423      0.284136
  H      -0.221393      5.151014     -1.166890
  H       1.284117      4.204431     -0.996180
  H      -2.368941      2.332102      0.090032
  H      -2.929286      1.652166     -1.470888
  H      -3.032785      3.415335     -1.173511
  H       0.287888      3.248673     -3.987607
  H      -1.312404      4.027062     -3.758279
  H      -1.211507      2.268702     -4.114075
69
Coordinates from ORCA-job my_molecule E -2464.465703053096
  Pt     -0.461317     -1.234086      1.376576
  O      -0.312030      0.029095      2.853253
  O      -2.522217     -2.684215      1.648968
  P       0.990038      1.024586      2.817093
  P      -2.092376     -3.264443      0.285368
  O      -1.807761     -4.876791      0.326915
  O      -0.718546     -2.516298     -0.135398
  O       0.353302      2.470602      2.341658
  O       2.108225      0.560688      1.904008
  C       1.418107      1.279450      4.596561
  C      -3.305551     -3.114041     -1.089412
  C      -2.745492     -3.801726     -2.350520
  C      -3.514049     -1.602608     -1.328719
  C      -4.615390     -3.779043     -0.624376
  C       0.188609      1.805310      5.358313
  C       1.874599     -0.084296      5.155277
  C       2.574144      2.299416      4.640775
  H      -1.322637     -5.112978      1.148547
  H       0.759688      2.694754      1.478898
  H      -1.771733     -3.366348     -2.654028
  H      -3.458068     -3.659269     -3.188571
  H      -2.606379     -4.887842     -2.193826
  H      -2.582893     -1.113188     -1.671452
  H      -3.854115     -1.088964     -0.406084
  H      -4.289532     -1.459730     -2.110227
  H      -4.475430     -4.862154     -0.428333
  H      -5.384027     -3.669647     -1.418260
  H      -5.000055     -3.304022      0.300792
  H      -0.647788      1.081109      5.319864
  H      -0.167471      2.767208      4.940823
  H       0.457730      1.971220      6.422859
  H       1.050233     -0.825824      5.138830
  H       2.207397      0.039586      6.208266
  H       2.721352     -0.493931      4.569984
  H       2.257831      3.285617      4.244869
  H       3.441922      1.948990      4.047605
  H       2.905003      2.442184      5.691307
  Si      2.682696     -0.532641     -2.165826
  C       4.325813     -0.145934     -3.041694
  C       3.027082     -1.479680     -0.563920
  C       1.595202     -1.603678     -3.307100
  H       4.979511      0.486451     -2.405899
  H       4.157057      0.397113     -3.995218
  H       4.884826     -1.074863     -3.276832
  H       2.091972     -1.895612     -0.136634
  H       3.469805     -0.822280      0.210444
  H       3.714656     -2.330642     -0.753649
  H       0.763661     -2.060330     -2.732591
  H       2.186353     -2.430696     -3.751981
  H       1.161329     -1.015562     -4.143022
  H      -0.231695      0.316192     -2.035667
  C       1.804422      1.139738     -1.857826
  C       0.316981      1.092949     -1.453877
  H       1.932920      1.712589     -2.805161
  H       2.390693      1.697347     -1.094682
  Si     -0.656996      2.715884     -1.706015
  H       0.211544      0.774186     -0.387283
  C       0.185945      4.176001     -0.819858
  C      -2.415163      2.509825     -1.019074
  C      -0.723712      3.089086     -3.569308
  H       0.006072      4.154241      0.274530
  H      -0.224238      5.142476     -1.180613
  H       1.279688      4.193494     -1.000723
  H      -2.380433      2.326185      0.073576
  H      -2.939082      1.653331     -1.490316
  H      -3.034352      3.415996     -1.189768
  H       0.294713      3.230708     -3.993879
  H      -1.303759      4.014596     -3.773987
  H      -1.206829      2.255162     -4.124354
69
Coordinates from ORCA-job my_molecule E -2464.465680886361
  Pt     -0.461058     -1.221905      1.364236
  O      -0.298180      0.024048      2.856716
  O      -2.528669     -2.671375      1.642960
  P       0.994897      1.031321      2.819346
  P      -2.096722     -3.251632      0.277780
  O      -1.798612     -4.863157      0.322772
  O      -0.727537     -2.496181     -0.149891
  O       0.342753      2.472447      2.344089
  O       2.117888      0.577005      1.908340
  C       1.415746      1.287640      4.599308
  C      -3.310931     -3.115261     -1.098117
  C      -2.740901     -3.800389     -2.356139
  C      -3.534180     -1.607072     -1.343575
  C      -4.614449     -3.792973     -0.632672
  C       0.175407      1.789727      5.358903
  C       1.893729     -0.070104      5.153557
  C       2.553637      2.325981      4.650410
  H      -1.317136     -5.094147      1.148141
  H       0.758584      2.711043      1.489852
  H      -1.772460     -3.354625     -2.661967
  H      -3.453637     -3.670874     -3.194317
  H      -2.587840     -4.882633     -2.193464
  H      -2.606686     -1.111432     -1.688572
  H      -3.879730     -1.092487     -0.424252
  H      -4.309651     -1.475460     -2.126297
  H      -4.463807     -4.875045     -0.436068
  H      -5.383620     -3.690687     -1.426744
  H      -5.004623     -3.321503      0.292839
  H      -0.647654      1.051178      5.314842
  H      -0.196187      2.746925      4.943329
  H       0.437973      1.956687      6.424154
  H       1.082816     -0.824899      5.131841
  H       2.220689      0.055288      6.207017
  H       2.748641     -0.463569      4.569596
  H       2.223245      3.307331      4.254888
  H       3.429748      1.990235      4.061598
  H       2.876409      2.472626      5.701767
  Si      2.679868     -0.543310     -2.171773
  C       4.321774     -0.161678     -3.052947
  C       3.026082     -1.486152     -0.567845
  C       1.588922     -1.617664     -3.306575
  H       4.975367      0.475775     -2.422167
  H       4.151258      0.374744     -4.009430
  H       4.881218     -1.091758     -3.283867
  H       2.092522     -1.905057     -0.137981
  H       3.469760     -0.827560      0.205204
  H       3.714756     -2.336706     -0.757848
  H       0.754176     -2.067474     -2.729766
  H       2.177503     -2.450723     -3.745552
  H       1.158850     -1.033167     -4.146361
  H      -0.234522      0.313353     -2.031752
  C       1.805710      1.130916     -1.866911
  C       0.320623      1.088224     -1.452939
  H       1.929368      1.700336     -2.818481
  H       2.397194      1.691341     -1.108259
  Si     -0.647673      2.716916     -1.694268
  H       0.221106      0.770624     -0.384404
  C       0.211263      4.172113     -0.815226
  C      -2.399876      2.519669     -0.989660
  C      -0.730273      3.092773     -3.556807
  H       0.028674      4.159884      0.278361
  H      -0.186350      5.141149     -1.183113
  H       1.305106      4.176320     -0.993597
  H      -2.355030      2.329853      0.101262
  H      -2.935413      1.669838     -1.460368
  H      -3.013901      3.431910     -1.148931
  H       0.284594      3.234452     -3.990174
  H      -1.311645      4.018929     -3.755110
  H      -1.218900      2.260060     -4.108921
69
Coordinates from ORCA-job my_molecule E -2464.465468606602
  Pt     -0.463736     -1.218970      1.370784
  O      -0.288225      0.031462      2.852743
  O      -2.555953     -2.671094      1.644725
  P       1.008247      1.036200      2.817900
  P      -2.108625     -3.250363      0.284828
  O      -1.803993     -4.861045      0.334168
  O      -0.738027     -2.490336     -0.136249
  O       0.357628      2.477459      2.345976
  O       2.132727      0.582875      1.909433
  C       1.426891      1.287400      4.599323
  C      -3.311799     -3.120009     -1.101660
  C      -2.734060     -3.801459     -2.360077
  C      -3.540792     -1.613885     -1.348409
  C      -4.615436     -3.803541     -0.644383
  C       0.190545      1.802834      5.357568
  C       1.889555     -0.075365      5.154111
  C       2.576150      2.313129      4.652661
  H      -1.330565     -5.089608      1.165301
  H       0.761391      2.710551      1.484091
  H      -1.768165     -3.348596     -2.662069
  H      -3.446594     -3.672468     -3.203064
  H      -2.575630     -4.887907     -2.201150
  H      -2.614442     -1.114931     -1.692543
  H      -3.890822     -1.100108     -0.433565
  H      -4.312574     -1.487858     -2.132079
  H      -4.461629     -4.885173     -0.445259
  H      -5.379026     -3.705721     -1.444400
  H      -5.014186     -3.332626      0.277399
  H      -0.640982      1.074187      5.311246
  H      -0.169390      2.764643      4.943103
  H       0.452825      1.964947      6.423662
  H       1.070765     -0.820913      5.131586
  H       2.216473      0.046403      6.207696
  H       2.741356     -0.477830      4.571260
  H       2.255661      3.298888      4.260225
  H       3.448654      1.970218      4.061946
  H       2.900987      2.452953      5.704455
  Si      2.676326     -0.540045     -2.165882
  C       4.314502     -0.161100     -3.055464
  C       3.030952     -1.480965     -0.563192
  C       1.578062     -1.615046     -3.292222
  H       4.973262      0.474116     -2.427275
  H       4.139121      0.377801     -4.009710
  H       4.871086     -1.091920     -3.291308
  H       2.100906     -1.903075     -0.129203
  H       3.475274     -0.819710      0.206646
  H       3.722039     -2.328432     -0.756166
  H       0.747383     -2.066051     -2.708946
  H       2.164522     -2.447259     -3.736516
  H       1.141313     -1.030250     -4.128545
  H      -0.233496      0.317973     -2.020426
  C       1.805384      1.135435     -1.859634
  C       0.320760      1.092957     -1.445318
  H       1.931055      1.707691     -2.811184
  H       2.397703      1.693637     -1.097850
  Si     -0.651927      2.718050     -1.694994
  H       0.224898      0.777674     -0.378417
  C       0.192612      4.177504     -0.806581
  C      -2.413806      2.511503     -1.012976
  C      -0.714625      3.095182     -3.557784
  H       0.012507      4.160864      0.287404
  H      -0.215592      5.143916     -1.170644
  H       1.286604      4.193019     -0.987132
  H      -2.384352      2.328444      0.081080
  H      -2.936136      1.653324     -1.486541
  H      -3.033156      3.417422     -1.186214
  H       0.302680      3.233211     -3.980623
  H      -1.289790      4.022429     -3.760997
  H      -1.201275      2.267356     -4.114668
69
Coordinates from ORCA-job my_molecule E -2464.465583687270
  Pt     -0.460295     -1.220912      1.358803
  O      -0.294249      0.020163      2.851389
  O      -2.530385     -2.671772      1.638937
  P       0.994610      1.032894      2.813882
  P      -2.096238     -3.250475      0.274705
  O      -1.790634     -4.860046      0.321485
  O      -0.730408     -2.488247     -0.155585
  O       0.334850      2.470407      2.340597
  O       2.120585      0.585089      1.904444
  C       1.416850      1.289102      4.593634
  C      -3.314038     -3.119026     -1.098263
  C      -2.749550     -3.799980     -2.364860
  C      -3.544596     -1.612766     -1.342200
  C      -4.614193     -3.801717     -0.628891
  C       0.175971      1.786535      5.356452
  C       1.901087     -0.067580      5.145596
  C       2.552164      2.330829      4.642938
  H      -1.307177     -5.088082      1.146631
  H       0.754255      2.716724      1.489978
  H      -1.783285     -3.352229     -2.672011
  H      -3.469709     -3.660958     -3.203784
  H      -2.596753     -4.891871     -2.213616
  H      -2.620717     -1.112338     -1.693460
  H      -3.888365     -1.100424     -0.424442
  H      -4.322460     -1.486685     -2.119516
  H      -4.459794     -4.884679     -0.435581
  H      -5.386509     -3.699342     -1.420255
  H      -5.002603     -3.333422      0.298969
  H      -0.645482      1.046430      5.312415
  H      -0.198798      2.743374      4.943449
  H       0.439763      1.951858      6.421808
  H       1.092164     -0.824511      5.126003
  H       2.231656      0.057353      6.198312
  H       2.755625     -0.457413      4.557731
  H       2.216723      3.311926      4.250545
  H       3.427971      1.999699      4.049631
  H       2.878831      2.475517      5.693962
  Si      2.678419     -0.544610     -2.166130
  C       4.322229     -0.164973     -3.044960
  C       3.024960     -1.487673     -0.562862
  C       1.585987     -1.618161     -3.299367
  H       4.975335      0.472051     -2.412978
  H       4.153552      0.371984     -4.001540
  H       4.881585     -1.095620     -3.274652
  H       2.093015     -1.908850     -0.132592
  H       3.467514     -0.827400      0.208454
  H       3.715304     -2.335962     -0.753651
  H       0.750447     -2.067187     -2.721565
  H       2.174272     -2.452182     -3.737853
  H       1.156572     -1.033465     -4.139470
  H      -0.233042      0.317001     -2.019588
  C       1.807245      1.131380     -1.861957
  C       0.323445      1.091212     -1.446284
  H       1.932395      1.702469     -2.814841
  H       2.400544      1.690581     -1.101093
  Si     -0.643907      2.719583     -1.691340
  H       0.228214      0.777909     -0.378742
  C       0.213503      4.175778     -0.810038
  C      -2.400501      2.520425     -0.993459
  C      -0.720916      3.094331     -3.553736
  H       0.028080      4.165889      0.283645
  H      -0.182765      5.144430     -1.181176
  H       1.309178      4.178902     -0.985386
  H      -2.361817      2.330217      0.099433
  H      -2.933650      1.668075     -1.468305
  H      -3.014903      3.432063     -1.154863
  H       0.291231      3.228061     -3.984392
  H      -1.294423      4.021840     -3.754432
  H      -1.213967      2.268477     -4.104111
69
Coordinates from ORCA-job my_molecule E -2464.465756704020
  Pt     -0.455792     -1.229600      1.356730
  O      -0.300499      0.007573      2.857393
  O      -2.498668     -2.682815      1.645220
  P       0.980627      1.028038      2.815014
  P      -2.082604     -3.251876      0.268156
  O      -1.782286     -4.863671      0.298851
  O      -0.720881     -2.488938     -0.168689
  O       0.309057      2.460602      2.340740
  O       2.105246      0.586254      1.900303
  C       1.409367      1.287650      4.592726
  C      -3.315990     -3.106164     -1.089764
  C      -2.764785     -3.781420     -2.364273
  C      -3.543162     -1.597712     -1.322896
  C      -4.613336     -3.787611     -0.611827
  C       0.166713      1.771893      5.360854
  C       1.908700     -0.064907      5.140713
  C       2.534318      2.339839      4.639536
  H      -1.290495     -5.099733      1.116242
  H       0.739174      2.717726      1.498592
  H      -1.799394     -3.335845     -2.678475
  H      -3.489848     -3.637800     -3.194165
  H      -2.613750     -4.870725     -2.217534
  H      -2.619653     -1.098634     -1.675008
  H      -3.880553     -1.089644     -0.400909
  H      -4.323901     -1.464935     -2.095440
  H      -4.461061     -4.871224     -0.426103
  H      -5.392530     -3.678647     -1.394288
  H      -4.991123     -3.323572      0.321171
  H      -0.647040      1.023308      5.319101
  H      -0.219645      2.725269      4.950292
  H       0.432746      1.939047      6.425132
  H       1.108420     -0.829985      5.120271
  H       2.238666      0.061321      6.192369
  H       2.766068     -0.444693      4.551441
  H       2.189201      3.317546      4.248114
  H       3.411728      2.016480      4.045116
  H       2.861262      2.488009      5.689287
  Si      2.684871     -0.545420     -2.167656
  C       4.333071     -0.162343     -3.036956
  C       3.023489     -1.488823     -0.562681
  C       1.602459     -1.621590     -3.307539
  H       4.980335      0.477437     -2.401574
  H       4.168600      0.372869     -3.995049
  H       4.896433     -1.091637     -3.262537
  H       2.089091     -1.909531     -0.136519
  H       3.463532     -0.829555      0.211294
  H       3.713547     -2.338176     -0.750379
  H       0.761633     -2.068571     -2.735820
  H       2.194278     -2.457099     -3.738646
  H       1.180849     -1.038989     -4.152933
  H      -0.230562      0.307823     -2.027312
  C       1.808943      1.126653     -1.867339
  C       0.324201      1.082666     -1.453592
  H       1.933405      1.697852     -2.819831
  H       2.398135      1.688682     -1.106323
  Si     -0.643611      2.711379     -1.697022
  H       0.227930      0.769594     -0.386165
  C       0.219486      4.166376     -0.820136
  C      -2.397119      2.517924     -0.991015
  C      -0.727152      3.085006     -3.559700
  H       0.029105      4.162573      0.272266
  H      -0.168725      5.135806     -1.197719
  H       1.315163      4.161160     -0.989953
  H      -2.353064      2.320809      0.100567
  H      -2.938399      1.672897     -1.467926
  H      -3.005931      3.434367     -1.143732
  H       0.286150      3.223357     -3.993855
  H      -1.305858      4.011483     -3.758408
  H      -1.218580      2.254615     -4.109804
69
Coordinates from ORCA-job my_molecule E -2464.465817736899
  Pt     -0.455974     -1.233338      1.351168
  O      -0.305863     -0.003559      2.857852
  O      -2.481948     -2.691383      1.639742
  P       0.967874      1.025462      2.813136
  P      -2.075458     -3.256665      0.259738
  O      -1.776371     -4.867537      0.283907
  O      -0.717468     -2.490782     -0.180481
  O       0.283879      2.452538      2.339202
  O       2.093484      0.591406      1.895924
  C       1.401305      1.289931      4.589663
  C      -3.318646     -3.105904     -1.087913
  C      -2.780350     -3.781230     -2.368188
  C      -3.542707     -1.595641     -1.315468
  C      -4.614201     -3.783924     -0.601086
  C       0.154948      1.754929      5.364535
  C       1.924156     -0.055223      5.134634
  C       2.511101      2.359125      4.631483
  H      -1.275547     -5.106044      1.096121
  H       0.727707      2.724557      1.509057
  H      -1.814331     -3.340669     -2.687479
  H      -3.511508     -3.629989     -3.193302
  H      -2.635087     -4.873269     -2.226436
  H      -2.620383     -1.096999     -1.671516
  H      -3.872873     -1.089772     -0.388285
  H      -4.329639     -1.457473     -2.082705
  H      -4.463940     -4.869574     -0.421628
  H      -5.401120     -3.668104     -1.376343
  H      -4.981120     -3.321963      0.338757
  H      -0.647740      0.993722      5.327699
  H      -0.248346      2.701826      4.955051
  H       0.424437      1.927134      6.427743
  H       1.135535     -0.833130      5.116619
  H       2.256688      0.074902      6.185793
  H       2.785212     -0.420590      4.540860
  H       2.150121      3.331161      4.239666
  H       3.391705      2.048297      4.034500
  H       2.839828      2.513498      5.680552
  Si      2.687856     -0.549287     -2.167901
  C       4.339456     -0.163729     -3.029468
  C       3.021355     -1.494446     -0.563032
  C       1.610462     -1.623914     -3.314238
  H       4.982291      0.478137     -2.391434
  H       4.178828      0.370022     -3.989345
  H       4.905780     -1.092182     -3.250849
  H       2.085659     -1.914936     -0.140011
  H       3.459289     -0.835593      0.212123
  H       3.712279     -2.343521     -0.749207
  H       0.765295     -2.068880     -2.747678
  H       2.203185     -2.460766     -3.740782
  H       1.195230     -1.040773     -4.162672
  H      -0.230205      0.305809     -2.035283
  C       1.810530      1.122562     -1.868320
  C       0.324961      1.078770     -1.457083
  H       1.935429      1.692892     -2.820796
  H       2.398712      1.685292     -1.106932
  Si     -0.636473      2.711520     -1.695477
  H       0.225103      0.763004     -0.389800
  C       0.239320      4.162141     -0.824378
  C      -2.385506      2.527895     -0.976667
  C      -0.731193      3.083438     -3.557692
  H       0.042288      4.166812      0.267344
  H      -0.135495      5.133322     -1.210614
  H       1.336335      4.143213     -0.987063
  H      -2.333918      2.323941      0.113059
  H      -2.937762      1.690524     -1.454103
  H      -2.987817      3.450438     -1.119317
  H       0.278071      3.219796     -3.997895
  H      -1.310275      4.009297     -3.754806
  H      -1.226433      2.253480     -4.102252
69
Coordinates from ORCA-job my_molecule E -2464.465773381788
  Pt     -0.445564     -1.245275      1.343156
  O      -0.297630     -0.024346      2.859419
  O      -2.455297     -2.708353      1.641201
  P       0.961467      1.021153      2.811744
  P      -2.065612     -3.259061      0.246691
  O      -1.770742     -4.872755      0.249846
  O      -0.712631     -2.489178     -0.199459
  O       0.252244      2.434887      2.332939
  O       2.091785      0.602138      1.893945
  C       1.393117      1.296727      4.587374
  C      -3.322440     -3.090232     -1.086809
  C      -2.796970     -3.754589     -2.377682
  C      -3.543176     -1.576977     -1.298014
  C      -4.614917     -3.769659     -0.595002
  C       0.135625      1.725351      5.364277
  C       1.955666     -0.032614      5.130610
  C       2.470688      2.397567      4.629106
  H      -1.264378     -5.121825      1.055348
  H       0.718578      2.732859      1.524321
  H      -1.832107     -3.314070     -2.701341
  H      -3.532791     -3.595053     -3.193922
  H      -2.653558     -4.845724     -2.245571
  H      -2.620873     -1.077990     -1.651949
  H      -3.868142     -1.079073     -0.366011
  H      -4.330856     -1.429798     -2.060595
  H      -4.467183     -4.856793     -0.427150
  H      -5.407434     -3.644564     -1.361222
  H      -4.971902     -3.315323      0.350681
  H      -0.643928      0.941655      5.327673
  H      -0.295497      2.660058      4.955977
  H       0.401026      1.904968      6.426430
  H       1.189840     -0.832960      5.114340
  H       2.286824      0.106770      6.181067
  H       2.825110     -0.372537      4.534469
  H       2.082381      3.358037      4.235485
  H       3.360920      2.111398      4.034960
  H       2.792601      2.563159      5.677797
  Si      2.691849     -0.559590     -2.169455
  C       4.347007     -0.170554     -3.022555
  C       3.020457     -1.506065     -0.564169
  C       1.621745     -1.634465     -3.321903
  H       4.981890      0.477242     -2.383287
  H       4.189749      0.358134     -3.985521
  H       4.919164     -1.096646     -3.236922
  H       2.084401     -1.927671     -0.142480
  H       3.458524     -0.848041      0.211993
  H       3.710614     -2.355896     -0.749901
  H       0.771874     -2.076727     -2.760323
  H       2.215752     -2.472508     -3.743732
  H       1.213160     -1.051641     -4.173585
  H      -0.228900      0.293368     -2.040023
  C       1.811636      1.109091     -1.871673
  C       0.326265      1.063018     -1.460013
  H       1.933820      1.679237     -2.823987
  H       2.396974      1.673701     -1.111186
  Si     -0.631971      2.699621     -1.690544
  H       0.226888      0.745745     -0.393988
  C       0.261720      4.146878     -0.832360
  C      -2.373912      2.528327     -0.950724
  C      -0.744740      3.069118     -3.552831
  H       0.059742      4.166938      0.257341
  H      -0.096397      5.119021     -1.231630
  H       1.358034      4.109679     -0.989005
  H      -2.309963      2.315135      0.136107
  H      -2.941556      1.701601     -1.427693
  H      -2.968101      3.458486     -1.078630
  H       0.262702      3.212455     -4.002793
  H      -1.332734      3.992022     -3.745211
  H      -1.239939      2.233011     -4.093446
69
Coordinates from ORCA-job my_molecule E -2464.465723810546
  Pt     -0.457395     -1.226760      1.347311
  O      -0.295464     -0.004496      2.858195
  O      -2.494208     -2.687147      1.636508
  P       0.976080      1.027856      2.816790
  P      -2.082322     -3.249578      0.255489
  O      -1.773012     -4.860152      0.278697
  O      -0.727460     -2.476847     -0.185938
  O       0.288680      2.451968      2.338086
  O       2.106445      0.594621      1.905804
  C       1.397667      1.299005      4.595408
  C      -3.321731     -3.106499     -1.097063
  C      -2.771522     -3.777462     -2.372483
  C      -3.555889     -1.597569     -1.324682
  C      -4.613545     -3.794608     -0.616372
  C       0.140932      1.746271      5.363320
  C       1.937438     -0.037411      5.144672
  C       2.490867      2.384510      4.643779
  H      -1.277529     -5.096537      1.094019
  H       0.738284      2.730798      1.513176
  H      -1.807104     -3.328878     -2.685564
  H      -3.496194     -3.635725     -3.200283
  H      -2.618197     -4.863719     -2.226152
  H      -2.636273     -1.093938     -1.676766
  H      -3.892156     -1.093740     -0.398638
  H      -4.339919     -1.464386     -2.094958
  H      -4.457197     -4.878386     -0.436830
  H      -5.397055     -3.683891     -1.394268
  H      -4.987605     -3.335560      0.320411
  H      -0.649637      0.973431      5.322284
  H      -0.273950      2.686649      4.951089
  H       0.402000      1.923449      6.427340
  H       1.159447     -0.826555      5.126980
  H       2.265986      0.099978      6.196704
  H       2.804680     -0.391933      4.553577
  H       2.119103      3.350261      4.247160
  H       3.380448      2.085199      4.055208
  H       2.808727      2.546178      5.694590
  Si      2.683822     -0.557721     -2.178237
  C       4.334845     -0.176736     -3.042546
  C       3.018493     -1.500615     -0.571488
  C       1.604286     -1.633918     -3.320553
  H       4.977350      0.468100     -2.407712
  H       4.172542      0.353157     -4.004234
  H       4.901217     -1.105333     -3.261096
  H       2.085004     -1.922639     -0.145003
  H       3.460469     -0.842275      0.202598
  H       3.708062     -2.350586     -0.758949
  H       0.759374     -2.075275     -2.751903
  H       2.194636     -2.471808     -3.745582
  H       1.188768     -1.052449     -4.170046
  H      -0.231703      0.303498     -2.032818
  C       1.811375      1.114105     -1.883783
  C       0.329930      1.072226     -1.457947
  H       1.923245      1.674747     -2.841218
  H       2.405182      1.684348     -1.136755
  Si     -0.628812      2.709145     -1.682679
  H       0.238869      0.754463     -0.391104
  C       0.264751      4.153643     -0.821668
  C      -2.368655      2.534350     -0.942263
  C      -0.743945      3.084497     -3.543633
  H       0.069747      4.166727      0.269063
  H      -0.099203      5.126698     -1.213332
  H       1.359542      4.122100     -0.985755
  H      -2.304023      2.326213      0.145170
  H      -2.932467      1.704122     -1.415027
  H      -2.966201      3.461011     -1.074374
  H       0.264413      3.232905     -3.994297
  H      -1.334944      4.007373     -3.731275
  H      -1.237391      2.247529     -4.088152
69
Coordinates from ORCA-job my_molecule E -2464.465641846196
  Pt     -0.455308     -1.226216      1.350763
  O      -0.289712      0.005734      2.852462
  O      -2.510926     -2.675944      1.638611
  P       0.990440      1.028165      2.817331
  P      -2.090542     -3.248366      0.264359
  O      -1.793035     -4.861447      0.297890
  O      -0.726303     -2.487374     -0.170553
  O       0.316432      2.456859      2.333580
  O       2.122091      0.585653      1.912973
  C       1.403583      1.298128      4.598253
  C      -3.315050     -3.104557     -1.101670
  C      -2.756629     -3.785311     -2.369100
  C      -3.536650     -1.595384     -1.339806
  C      -4.615807     -3.781992     -0.630959
  C       0.146514      1.756572      5.359565
  C       1.929221     -0.042245      5.150831
  C       2.506209      2.373764      4.651211
  H      -1.304504     -5.098080      1.118829
  H       0.764099      2.723859      1.503902
  H      -1.786802     -3.343576     -2.676715
  H      -3.474399     -3.643740     -3.203377
  H      -2.609852     -4.871722     -2.216496
  H      -2.609772     -1.099387     -1.683866
  H      -3.879996     -1.084078     -0.421337
  H      -4.310427     -1.461773     -2.119814
  H      -4.467763     -4.866086     -0.444113
  H      -5.390857     -3.670684     -1.417869
  H      -4.996556     -3.315222      0.300177
  H      -0.650397      0.990703      5.315094
  H      -0.258333      2.700185      4.945207
  H       0.403599      1.931881      6.424777
  H       1.145380     -0.824867      5.128327
  H       2.251775      0.092791      6.204563
  H       2.797455     -0.403917      4.565249
  H       2.146100      3.341795      4.250434
  H       3.396410      2.064918      4.068703
  H       2.818809      2.534844      5.703713
  Si      2.682817     -0.554737     -2.176620
  C       4.329543     -0.169999     -3.046998
  C       3.023080     -1.499845     -0.573150
  C       1.599286     -1.628659     -3.317647
  H       4.974529      0.474540     -2.414133
  H       4.163447      0.360245     -4.007892
  H       4.895539     -1.098056     -3.268689
  H       2.089031     -1.919148     -0.144926
  H       3.467680     -0.843831      0.200998
  H       3.710554     -2.350812     -0.763512
  H       0.758186     -2.074369     -2.745346
  H       2.188731     -2.464227     -3.750057
  H       1.177538     -1.044226     -4.162053
  H      -0.234440      0.302999     -2.037488
  C       1.807920      1.116595     -1.874572
  C       0.323662      1.071845     -1.456558
  H       1.926089      1.684563     -2.828410
  H       2.399006      1.681493     -1.118041
  Si     -0.638471      2.706768     -1.682585
  H       0.225458      0.750790     -0.390705
  C       0.251550      4.155792     -0.826916
  C      -2.376278      2.526350     -0.938328
  C      -0.759058      3.076489     -3.543877
  H       0.065870      4.165741      0.265896
  H      -0.123345      5.126244     -1.214476
  H       1.345827      4.132080     -0.999787
  H      -2.309796      2.320920      0.150038
  H      -2.936052      1.691252     -1.408063
  H      -2.978605      3.450008     -1.072683
  H       0.246418      3.221606     -3.997535
  H      -1.349598      3.998260     -3.734609
  H      -1.254617      2.239446     -4.082404
69
Coordinates from ORCA-job my_molecule E -2464.465633732360
  Pt     -0.460584     -1.220227      1.344405
  O      -0.290129     -0.000417      2.854843
  O      -2.507305     -2.683165      1.635569
  P       0.981370      1.032716      2.816307
  P      -2.089657     -3.248796      0.257908
  O      -1.781413     -4.859964      0.285516
  O      -0.732892     -2.476797     -0.181103
  O       0.290916      2.456033      2.339064
  O       2.113513      0.602514      1.906799
  C       1.400196      1.300602      4.596310
  C      -3.322749     -3.109789     -1.100766
  C      -2.769461     -3.787193     -2.372276
  C      -3.553476     -1.601367     -1.335392
  C      -4.617010     -3.793993     -0.622105
  C       0.141589      1.743110      5.365242
  C       1.942535     -0.036047      5.141522
  C       2.491710      2.387530      4.648202
  H      -1.287122     -5.095865      1.104458
  H       0.741770      2.737190      1.515845
  H      -1.804133     -3.340310     -2.687310
  H      -3.493866     -3.650013     -3.201436
  H      -2.615513     -4.872355     -2.220117
  H      -2.631734     -1.100471     -1.685478
  H      -3.892598     -1.093094     -0.413681
  H      -4.333881     -1.470373     -2.109391
  H      -4.462584     -4.877815     -0.438012
  H      -5.398373     -3.684715     -1.403551
  H      -4.993119     -3.330448      0.312951
  H      -0.647248      0.968578      5.322535
  H      -0.275555      2.683279      4.955079
  H       0.401905      1.918517      6.429852
  H       1.167305     -0.826824      5.119129
  H       2.267508      0.098405      6.194226
  H       2.812428     -0.386316      4.551345
  H       2.119288      3.353134      4.253122
  H       3.382679      2.090587      4.060258
  H       2.807640      2.547872      5.699946
  Si      2.684792     -0.559130     -2.176416
  C       4.332428     -0.175427     -3.045483
  C       3.023972     -1.501646     -0.571538
  C       1.601728     -1.633386     -3.318021
  H       4.976331      0.470934     -2.412945
  H       4.167191      0.352935     -4.007695
  H       4.899348     -1.103550     -3.264759
  H       2.090461     -1.923707     -0.144871
  H       3.465105     -0.842656      0.201878
  H       3.715566     -2.349807     -0.759811
  H       0.755554     -2.073616     -2.748554
  H       2.190333     -2.473176     -3.744107
  H       1.186618     -1.050315     -4.166907
  H      -0.233456      0.304669     -2.041522
  C       1.811089      1.114161     -1.877290
  C       0.326844      1.071802     -1.458494
  H       1.929531      1.679535     -2.833460
  H       2.403909      1.680531     -1.121075
  Si     -0.628713      2.710664     -1.681604
  H       0.228462      0.749821     -0.392113
  C       0.268109      4.154411     -0.823617
  C      -2.367399      2.537636     -0.937457
  C      -0.748237      3.083745     -3.541928
  H       0.072679      4.171123      0.267725
  H      -0.093859      5.126845     -1.218580
  H       1.364039      4.119414     -0.986360
  H      -2.301964      2.325794      0.150466
  H      -2.933462      1.708808     -1.411451
  H      -2.963081      3.466434     -1.066537
  H       0.256743      3.227827     -3.995053
  H      -1.337557      4.006522     -3.731062
  H      -1.245054      2.249092     -4.081179
69
Coordinates from ORCA-job my_molecule E -2464.465519264629
  Pt     -0.453533     -1.231897      1.343854
  O      -0.275478     -0.020426      2.857994
  O      -2.500361     -2.696876      1.632676
  P       0.982380      1.030055      2.814900
  P      -2.088734     -3.251819      0.249214
  O      -1.778994     -4.862849      0.264037
  O      -0.735706     -2.473906     -0.190899
  O       0.264515      2.440365      2.340060
  O       2.117992      0.620296      1.901221
  C       1.404309      1.302789      4.594074
  C      -3.328292     -3.102187     -1.102464
  C      -2.783621     -3.770982     -2.381955
  C      -3.558499     -1.591564     -1.324243
  C      -4.620370     -3.788669     -0.621557
  C       0.141682      1.722785      5.368822
  C       1.972774     -0.024125      5.136853
  C       2.475993      2.409673      4.642237
  H      -1.285964     -5.103894      1.081166
  H       0.723479      2.741333      1.528415
  H      -1.819711     -3.322626     -2.698379
  H      -3.512589     -3.626050     -3.206769
  H      -2.630990     -4.858707     -2.239425
  H      -2.637976     -1.088461     -1.674497
  H      -3.892425     -1.090234     -0.396526
  H      -4.342852     -1.453353     -2.093373
  H      -4.466096     -4.874466     -0.446437
  H      -5.405996     -3.672905     -1.397913
  H      -4.990359     -3.331426      0.319231
  H      -0.633463      0.934380      5.329875
  H      -0.293857      2.655118      4.960129
  H       0.403771      1.903168      6.432275
  H       1.211744     -0.829100      5.117441
  H       2.299608      0.115897      6.188683
  H       2.846485     -0.358165      4.543217
  H       2.084810      3.368119      4.247507
  H       3.370427      2.128928      4.052575
  H       2.791643      2.576797      5.692999
  Si      2.685312     -0.563625     -2.168980
  C       4.333859     -0.176522     -3.035335
  C       3.025850     -1.506562     -0.564039
  C       1.606194     -1.639262     -3.312154
  H       4.974691      0.471659     -2.401517
  H       4.168222      0.351938     -3.997411
  H       4.904004     -1.102868     -3.254211
  H       2.094256     -1.932507     -0.136791
  H       3.465792     -0.845861      0.208805
  H       3.719917     -2.352831     -0.753016
  H       0.758976     -2.079015     -2.744479
  H       2.195876     -2.478648     -3.736618
  H       1.193067     -1.056803     -4.162288
  H      -0.234298      0.296609     -2.039161
  C       1.809449      1.106582     -1.870207
  C       0.323998      1.063385     -1.455855
  H       1.929079      1.672815     -2.823950
  H       2.397895      1.672155     -1.113672
  Si     -0.629111      2.703658     -1.683542
  H       0.223131      0.743348     -0.389850
  C       0.269054      4.146993     -0.824562
  C      -2.371345      2.538081     -0.945604
  C      -0.739750      3.076445     -3.545148
  H       0.068117      4.169212      0.265452
  H      -0.086421      5.119700     -1.224582
  H       1.365032      4.106645     -0.982001
  H      -2.309032      2.329615      0.141283
  H      -2.938745      1.710959     -1.418480
  H      -2.964507      3.468043     -1.079008
  H       0.268309      3.221615     -3.994033
  H      -1.328613      3.999375     -3.736512
  H      -1.234005      2.240652     -4.087555
69
Coordinates from ORCA-job my_molecule E -2464.465605700230
  Pt     -0.460960     -1.226080      1.352142
  O      -0.287580     -0.006645      2.860796
  O      -2.511140     -2.685604      1.634496
  P       0.982496      1.029016      2.819954
  P      -2.090319     -3.250454      0.258956
  O      -1.780290     -4.860532      0.287078
  O      -0.733690     -2.476678     -0.177330
  O       0.288439      2.449859      2.341182
  O       2.114187      0.599859      1.909961
  C       1.402184      1.302085      4.599485
  C      -3.320006     -3.110416     -1.102514
  C      -2.764684     -3.785221     -2.374320
  C      -3.550670     -1.601374     -1.334642
  C      -4.614954     -3.795953     -0.628144
  C       0.143304      1.742779      5.368803
  C       1.949520     -0.031303      5.148641
  C       2.490197      2.393262      4.647337
  H      -1.291247     -5.094991      1.106996
  H       0.739929      2.733263      1.518961
  H      -1.798520     -3.337691     -2.684300
  H      -3.487441     -3.643570     -3.206317
  H      -2.612801     -4.873251     -2.226224
  H      -2.628430     -1.099141     -1.682195
  H      -3.891184     -1.094935     -0.411651
  H      -4.330638     -1.468487     -2.109881
  H      -4.460649     -4.880984     -0.447004
  H      -5.394886     -3.684459     -1.411112
  H      -4.992703     -3.334793      0.307928
  H      -0.643403      0.965570      5.329627
  H      -0.277244      2.680346      4.956160
  H       0.404853      1.922375      6.432803
  H       1.177411     -0.825611      5.128187
  H       2.273718      0.107324      6.201261
  H       2.820825     -0.379372      4.560038
  H       2.115270      3.355893      4.247076
  H       3.382092      2.096517      4.062314
  H       2.804621      2.559965      5.698598
  Si      2.680649     -0.559357     -2.178747
  C       4.330773     -0.180216     -3.045889
  C       3.015639     -1.503703     -0.573455
  C       1.597209     -1.632223     -3.320508
  H       4.975787      0.463930     -2.411968
  H       4.167132      0.350008     -4.007326
  H       4.895655     -1.109728     -3.266015
  H       2.080939     -1.924308     -0.147947
  H       3.458942     -0.848021      0.201995
  H       3.703953     -2.354741     -0.762363
  H       0.751079     -2.071358     -2.750995
  H       2.184577     -2.472143     -3.746977
  H       1.182638     -1.048764     -4.169126
  H      -0.234238      0.305071     -2.041207
  C       1.810491      1.113110     -1.881538
  C       0.326953      1.071074     -1.460049
  H       1.925055      1.675172     -2.837205
  H       2.402979      1.681249     -1.132336
  Si     -0.629254      2.710224     -1.681720
  H       0.230635      0.748932     -0.394367
  C       0.267426      4.152841     -0.820754
  C      -2.368479      2.538581     -0.939594
  C      -0.745729      3.087258     -3.542237
  H       0.072119      4.168712      0.270500
  H      -0.094269      5.125898     -1.214208
  H       1.362725      4.118426     -0.984120
  H      -2.301976      2.333542      0.146207
  H      -2.932678      1.708410     -1.408511
  H      -2.967073      3.464936     -1.073761
  H       0.261165      3.234984     -3.993641
  H      -1.336122      4.009906     -3.729652
  H      -1.240310      2.251727     -4.085630
69
Coordinates from ORCA-job my_molecule E -2464.465652625209
  Pt     -0.468689     -1.216672      1.359569
  O      -0.296225      0.009462      2.863075
  O      -2.528283     -2.674674      1.638291
  P       0.986395      1.030053      2.824463
  P      -2.095364     -3.248465      0.270116
  O      -1.784663     -4.858485      0.311244
  O      -0.735078     -2.477705     -0.161611
  O       0.315427      2.460360      2.342579
  O       2.113620      0.582422      1.917520
  C       1.403567      1.301378      4.604440
  C      -3.312699     -3.118881     -1.103296
  C      -2.743783     -3.799448     -2.365624
  C      -3.544246     -1.611565     -1.345886
  C      -4.610476     -3.804694     -0.636291
  C       0.149610      1.765805      5.367445
  C       1.925241     -0.039959      5.159032
  C       2.510334      2.373171      4.653649
  H      -1.299336     -5.087770      1.135881
  H       0.756676      2.725134      1.508617
  H      -1.776069     -3.350995     -2.669339
  H      -3.458531     -3.665678     -3.204482
  H      -2.590021     -4.885136     -2.209088
  H      -2.620080     -1.109946     -1.689564
  H      -3.892378     -1.100336     -0.428194
  H      -4.318351     -1.484317     -2.127818
  H      -4.455244     -4.887271     -0.446142
  H      -5.383215     -3.700825     -1.426719
  H      -4.998372     -3.338610      0.292456
  H      -0.650468      1.002917      5.325531
  H      -0.252483      2.710368      4.952466
  H       0.409268      1.941636      6.432111
  H       1.138160     -0.819812      5.140405
  H       2.251135      0.096329      6.211981
  H       2.790647     -0.406107      4.571986
  H       2.153598      3.341740      4.250810
  H       3.398623      2.059544      4.071353
  H       2.824614      2.535599      5.705462
  Si      2.676238     -0.555547     -2.186188
  C       4.325902     -0.182148     -3.055876
  C       3.007945     -1.501546     -0.581730
  C       1.587069     -1.623790     -3.326855
  H       4.974742      0.458416     -2.422812
  H       4.163283      0.349229     -4.016808
  H       4.886157     -1.113797     -3.277363
  H       2.070295     -1.917310     -0.158143
  H       3.453534     -0.850190      0.196033
  H       3.691699     -2.356101     -0.771119
  H       0.741540     -2.062101     -2.755618
  H       2.171573     -2.464318     -3.756094
  H       1.171392     -1.038130     -4.173506
  H      -0.234957      0.314322     -2.043906
  C       1.810426      1.120203     -1.887337
  C       0.327795      1.079456     -1.462883
  H       1.924864      1.682499     -2.843992
  H       2.406274      1.687402     -1.138060
  Si     -0.631077      2.717128     -1.681234
  H       0.234109      0.754903     -0.397883
  C       0.260842      4.159441     -0.815668
  C      -2.370819      2.536339     -0.941573
  C      -0.747759      3.098383     -3.540634
  H       0.071612      4.167756      0.276501
  H      -0.108968      5.132539     -1.201430
  H       1.355226      4.132927     -0.985271
  H      -2.306992      2.326462      0.145672
  H      -2.931217      1.704697     -1.416027
  H      -2.971617      3.461413     -1.073288
  H       0.258803      3.247346     -3.991767
  H      -1.338641      4.021262     -3.725778
  H      -1.242136      2.264285     -4.085794
69
Coordinates from ORCA-job my_molecule E -2464.465518949371
  Pt     -0.468840     -1.218585      1.369541
  O      -0.289446      0.014219      2.863544
  O      -2.549996     -2.664493      1.636719
  P       1.000631      1.027211      2.827993
  P      -2.105523     -3.247778      0.278159
  O      -1.802837     -4.858475      0.330822
  O      -0.737100     -2.485705     -0.144712
  O       0.339763      2.459289      2.338294
  O       2.129203      0.569690      1.928500
  C       1.409429      1.303236      4.609633
  C      -3.305708     -3.119917     -1.110303
  C      -2.725267     -3.807089     -2.363661
  C      -3.528386     -1.612522     -1.360624
  C      -4.611108     -3.799074     -0.656221
  C       0.153926      1.775620      5.365577
  C       1.922954     -0.038190      5.171732
  C       2.520947      2.370500      4.659974
  H      -1.327486     -5.085556      1.161983
  H       0.781844      2.715854      1.502259
  H      -1.752674     -3.362691     -2.657505
  H      -3.430499     -3.673427     -3.211037
  H      -2.577239     -4.893016     -2.202126
  H      -2.598671     -1.115888     -1.695424
  H      -3.884131     -1.096610     -0.448260
  H      -4.293689     -1.484471     -2.151530
  H      -4.462022     -4.882422     -0.461470
  H      -5.374944     -3.694178     -1.456158
  H      -5.007334     -3.328327      0.267599
  H      -0.649315      1.015023      5.324614
  H      -0.243308      2.719760      4.944402
  H       0.410806      1.955934      6.430966
  H       1.134576     -0.815909      5.148658
  H       2.239806      0.100140      6.226226
  H       2.792000     -0.408168      4.593545
  H       2.170108      3.339207      4.252047
  H       3.410821      2.051113      4.082327
  H       2.831540      2.534930      5.713093
  Si      2.671538     -0.553252     -2.188464
  C       4.319355     -0.179893     -3.061476
  C       3.004944     -1.504286     -0.587475
  C       1.577847     -1.616899     -3.329201
  H       4.971338      0.458474     -2.428654
  H       4.154586      0.353714     -4.021003
  H       4.877672     -1.112138     -3.286590
  H       2.066528     -1.917054     -0.163038
  H       3.455008     -0.858039      0.191887
  H       3.684362     -2.361305     -0.781042
  H       0.736139     -2.058638     -2.755354
  H       2.160176     -2.454711     -3.766010
  H       1.156768     -1.027259     -4.170602
  H      -0.237717      0.314420     -2.045235
  C       1.807254      1.121654     -1.883317
  C       0.323624      1.078814     -1.461202
  H       1.922406      1.687765     -2.836976
  H       2.401832      1.685786     -1.131541
  Si     -0.637785      2.715260     -1.678846
  H       0.226926      0.751290     -0.397298
  C       0.254416      4.159579     -0.817900
  C      -2.374853      2.532835     -0.934493
  C      -0.760361      3.093331     -3.538272
  H       0.073756      4.165743      0.275876
  H      -0.122656      5.131334     -1.200143
  H       1.347893      4.137756     -0.995710
  H      -2.307907      2.324750      0.151998
  H      -2.934569      1.700279     -1.405822
  H      -2.977633      3.456319     -1.066665
  H       0.244855      3.244094     -3.992399
  H      -1.354403      4.014326     -3.723678
  H      -1.254168      2.256716     -4.080536
69
Coordinates from ORCA-job my_molecule E -2464.465551431470
  Pt     -0.471884     -1.213846      1.361418
  O      -0.289995      0.009225      2.862442
  O      -2.541560     -2.670972      1.632862
  P       0.991699      1.032478      2.825658
  P      -2.102845     -3.247135      0.270414
  O      -1.789340     -4.855271      0.316247
  O      -0.741941     -2.475019     -0.158544
  O       0.315783      2.461193      2.345388
  O       2.121110      0.589088      1.920133
  C       1.406154      1.302735      4.606973
  C      -3.314938     -3.122834     -1.107843
  C      -2.742457     -3.806094     -2.366815
  C      -3.547110     -1.616210     -1.354009
  C      -4.613314     -3.808435     -0.643287
  C       0.149973      1.760836      5.371159
  C       1.933191     -0.037169      5.160034
  C       2.508978      2.379110      4.657614
  H      -1.308077     -5.081156      1.143693
  H       0.756602      2.729029      1.512222
  H      -1.774681     -3.356954     -2.669130
  H      -3.455958     -3.675207     -3.207938
  H      -2.587880     -4.891406     -2.207170
  H      -2.623045     -1.114533     -1.696660
  H      -3.897024     -1.103344     -0.437348
  H      -4.320815     -1.490606     -2.137632
  H      -4.457648     -4.891502     -0.451654
  H      -5.384881     -3.705410     -1.436416
  H      -5.003227     -3.340936      0.285110
  H      -0.647062      0.992827      5.331635
  H      -0.257758      2.702986      4.954865
  H       0.411001      1.939882      6.436337
  H       1.152484     -0.821733      5.133938
  H       2.250176      0.098039      6.213908
  H       2.804368     -0.396170      4.579069
  H       2.146882      3.347329      4.257903
  H       3.398681      2.071389      4.072230
  H       2.824641      2.539458      5.710253
  Si      2.675047     -0.555886     -2.186090
  C       4.322834     -0.181699     -3.059247
  C       3.010929     -1.501303     -0.582086
  C       1.584275     -1.624770     -3.324824
  H       4.973509      0.459286     -2.427259
  H       4.157152      0.350058     -4.019754
  H       4.883159     -1.113380     -3.282589
  H       2.074918     -1.918564     -0.156718
  H       3.456912     -0.849232      0.194773
  H       3.696404     -2.354232     -0.772761
  H       0.739817     -2.062802     -2.752465
  H       2.167903     -2.465223     -3.754643
  H       1.167262     -1.039113     -4.171192
  H      -0.236737      0.314191     -2.044079
  C       1.809759      1.119119     -1.886586
  C       0.326851      1.078506     -1.461899
  H       1.922973      1.680707     -2.843068
  H       2.405478      1.686896     -1.138562
  Si     -0.629677      2.717638     -1.680050
  H       0.231811      0.753102     -0.396990
  C       0.265936      4.158651     -0.816676
  C      -2.368193      2.542309     -0.938459
  C      -0.747965      3.097588     -3.539178
  H       0.075811      4.169994      0.275797
  H      -0.101051      5.131787     -1.205243
  H       1.361060      4.128502     -0.984860
  H      -2.303357      2.333790      0.148136
  H      -2.931183      1.712605     -1.410395
  H      -2.966233      3.468508     -1.071110
  H       0.258380      3.246970     -3.991092
  H      -1.339953      4.019958     -3.724630
  H      -1.242120      2.262373     -4.083259
69
Coordinates from ORCA-job my_molecule E -2464.465499948005
  Pt     -0.466877     -1.216706      1.351750
  O      -0.281599     -0.001614      2.858858
  O      -2.528992     -2.686147      1.632813
  P       0.988914      1.035496      2.820946
  P      -2.099854     -3.248656      0.260116
  O      -1.780683     -4.857177      0.289022
  O      -0.745788     -2.467605     -0.174579
  O       0.292218      2.456668      2.348991
  O       2.121389      0.611064      1.910104
  C       1.406905      1.302700      4.601964
  C      -3.325237     -3.116279     -1.105855
  C      -2.764585     -3.790229     -2.375249
  C      -3.562260     -1.608325     -1.339295
  C      -4.617663     -3.807398     -0.632612
  C       0.148226      1.743612      5.371581
  C       1.951348     -0.032936      5.148360
  C       2.496607      2.391982      4.653708
  H      -1.292665     -5.089687      1.112199
  H       0.733531      2.738968      1.520932
  H      -1.800464     -3.337646     -2.684297
  H      -3.486280     -3.655070     -3.208368
  H      -2.607084     -4.876440     -2.224412
  H      -2.642360     -1.102772     -1.687376
  H      -3.904163     -1.102432     -0.416009
  H      -4.343307     -1.478689     -2.114405
  H      -4.458190     -4.891202     -0.448679
  H      -5.396799     -3.701485     -1.417430
  H      -4.999345     -3.346119      0.302006
  H      -0.639860      0.967808      5.329940
  H      -0.270537      2.683044      4.961217
  H       0.409348      1.919929      6.436287
  H       1.176748     -0.825068      5.128547
  H       2.278083      0.103466      6.200904
  H       2.820779     -0.382504      4.557421
  H       2.122289      3.357046      4.258155
  H       3.388082      2.096834      4.066124
  H       2.812096      2.553114      5.705686
  Si      2.680530     -0.559677     -2.177323
  C       4.326558     -0.180726     -3.052139
  C       3.023165     -1.499601     -0.571223
  C       1.593093     -1.634680     -3.313454
  H       4.973994      0.464698     -2.421972
  H       4.158298      0.348145     -4.013654
  H       4.891192     -1.109985     -3.273636
  H       2.091495     -1.923776     -0.142778
  H       3.464895     -0.839969      0.201670
  H       3.716016     -2.347039     -0.760352
  H       0.747584     -2.071451     -2.741468
  H       2.178866     -2.475919     -3.739226
  H       1.177282     -1.052620     -4.162752
  H      -0.234504      0.307668     -2.043209
  C       1.810863      1.113772     -1.880923
  C       0.327122      1.072602     -1.459980
  H       1.925991      1.674684     -2.837703
  H       2.403935      1.682520     -1.131228
  Si     -0.627097      2.712741     -1.682612
  H       0.230042      0.749007     -0.394376
  C       0.266921      4.153998     -0.816455
  C      -2.370208      2.540665     -0.948979
  C      -0.735521      3.092414     -3.542699
  H       0.069534      4.169480      0.274294
  H      -0.094429      5.127317     -1.209767
  H       1.362566      4.120148     -0.977555
  H      -2.310876      2.333908      0.138490
  H      -2.932332      1.710403     -1.422299
  H      -2.966756      3.467743     -1.085739
  H       0.273426      3.240286     -3.989812
  H      -1.325234      4.015834     -3.731040
  H      -1.228377      2.257863     -4.089167
69
Coordinates from ORCA-job my_molecule E -2464.465360230929
  Pt     -0.463999     -1.222344      1.363768
  O      -0.278549      0.002353      2.861722
  O      -2.543539     -2.684254      1.637958
  P       1.000555      1.030094      2.824757
  P      -2.105403     -3.250931      0.269169
  O      -1.794502     -4.862037      0.302225
  O      -0.744100     -2.477451     -0.157257
  O       0.316518      2.453427      2.343669
  O       2.133040      0.592527      1.920101
  C       1.412333      1.304042      4.606284
  C      -3.316842     -3.114540     -1.108965
  C      -2.746304     -3.789872     -2.373465
  C      -3.546170     -1.605540     -1.344014
  C      -4.615736     -3.801763     -0.648245
  C       0.154065      1.760612      5.366496
  C       1.942493     -0.032884      5.163660
  C       2.511006      2.384255      4.657464
  H      -1.312587     -5.097214      1.130305
  H       0.758168      2.726040      1.512568
  H      -1.777308     -3.340429     -2.671819
  H      -3.458656     -3.651165     -3.213861
  H      -2.594710     -4.877140     -2.222496
  H      -2.621395     -1.103610     -1.683833
  H      -3.893879     -1.098629     -0.423643
  H      -4.319522     -1.472594     -2.125770
  H      -4.461429     -4.886138     -0.462543
  H      -5.386622     -3.693872     -1.440498
  H      -5.005123     -3.339104      0.282342
  H      -0.640406      0.992503      5.323634
  H      -0.253510      2.701857      4.950057
  H       0.410293      1.939055      6.431294
  H       1.160107     -0.818288      5.146912
  H       2.267988      0.107722      6.217196
  H       2.810527     -0.394144      4.576877
  H       2.147659      3.350186      4.254036
  H       3.402695      2.077662      4.077153
  H       2.821700      2.549091      5.709894
  Si      2.675826     -0.556771     -2.179653
  C       4.321271     -0.179419     -3.055851
  C       3.017238     -1.502822     -0.576968
  C       1.583826     -1.625966     -3.316977
  H       4.970942      0.462798     -2.425285
  H       4.152892      0.352008     -4.015822
  H       4.883256     -1.109314     -3.280375
  H       2.084014     -1.923761     -0.148809
  H       3.463477     -0.849036      0.198292
  H       3.704691     -2.353801     -0.770171
  H       0.741527     -2.066243     -2.742997
  H       2.167483     -2.464523     -3.750924
  H       1.163055     -1.039483     -4.160605
  H      -0.235126      0.308593     -2.046703
  C       1.808379      1.116769     -1.877638
  C       0.323765      1.072991     -1.459994
  H       1.925474      1.681937     -2.831579
  H       2.400041      1.682022     -1.124132
  Si     -0.634711      2.710642     -1.682409
  H       0.224395      0.746075     -0.395498
  C       0.254476      4.154747     -0.816018
  C      -2.378538      2.530821     -0.950454
  C      -0.743413      3.089908     -3.542822
  H       0.066013      4.164661      0.275901
  H      -0.117134      5.126765     -1.203031
  H       1.348657      4.129879     -0.986175
  H      -2.320249      2.323416      0.137270
  H      -2.936450      1.697942     -1.425636
  H      -2.979432      3.455494     -1.087422
  H       0.265679      3.241294     -3.990006
  H      -1.336627      4.011623     -3.731199
  H      -1.233555      2.253273     -4.089444
69
Coordinates from ORCA-job my_molecule E -2464.465431663284
  Pt     -0.464954     -1.218043      1.354246
  O      -0.281058     -0.000959      2.859862
  O      -2.530133     -2.694021      1.636268
  P       0.990087      1.035856      2.822141
  P      -2.099226     -3.250731      0.260280
  O      -1.777150     -4.860091      0.282755
  O      -0.746584     -2.466406     -0.172754
  O       0.294017      2.456737      2.351156
  O       2.121943      0.610663      1.910469
  C       1.407849      1.304899      4.602980
  C      -3.323940     -3.115705     -1.106394
  C      -2.761296     -3.783430     -2.378691
  C      -3.564543     -1.607366     -1.334439
  C      -4.614707     -3.812184     -0.635956
  C       0.149594      1.750259      5.369508
  C       1.949120     -0.030548      5.153206
  C       2.499025      2.392656      4.654256
  H      -1.287259     -5.096343      1.106100
  H       0.731564      2.738688      1.521002
  H      -1.797823     -3.327370     -2.684788
  H      -3.482308     -3.646043     -3.212101
  H      -2.601889     -4.870660     -2.232956
  H      -2.645889     -1.098823     -1.681897
  H      -3.906733     -1.105415     -0.409235
  H      -4.346019     -1.476717     -2.108429
  H      -4.452411     -4.896081     -0.455131
  H      -5.393058     -3.706322     -1.420673
  H      -4.998496     -3.355059      0.299373
  H      -0.639853      0.977620      5.325754
  H      -0.265065      2.690576      4.958485
  H       0.408016      1.925563      6.433879
  H       1.171942     -0.821145      5.136818
  H       2.278150      0.108395      6.205878
  H       2.817114     -0.383974      4.561790
  H       2.126889      3.357789      4.256861
  H       3.390170      2.095281      4.068764
  H       2.813139      2.554974      5.705915
  Si      2.678169     -0.561737     -2.178163
  C       4.323735     -0.186989     -3.055828
  C       3.021374     -1.499647     -0.570794
  C       1.587369     -1.637071     -3.310929
  H       4.972360      0.458224     -2.427663
  H       4.155086      0.340838     -4.017594
  H       4.886686     -1.117054     -3.276936
  H       2.090572     -1.924436     -0.140992
  H       3.463693     -0.839474      0.201353
  H       3.713807     -2.347611     -0.759921
  H       0.742244     -2.072168     -2.737196
  H       2.171463     -2.479446     -3.737364
  H       1.170567     -1.055685     -4.159780
  H      -0.233602      0.309059     -2.046290
  C       1.811296      1.113473     -1.883908
  C       0.328286      1.072882     -1.461474
  H       1.925501      1.672292     -2.841809
  H       2.405597      1.683083     -1.135996
  Si     -0.626138      2.713190     -1.681570
  H       0.232510      0.746991     -0.395834
  C       0.265152      4.154037     -0.810604
  C      -2.371666      2.536609     -0.952102
  C      -0.731098      3.097399     -3.541389
  H       0.067306      4.167837      0.279806
  H      -0.097299      5.127644     -1.202253
  H       1.360762      4.122549     -0.971558
  H      -2.315185      2.329520      0.135851
  H      -2.930712      1.704260     -1.427926
  H      -2.970826      3.462643     -1.089780
  H       0.278883      3.248017     -3.986637
  H      -1.322148      4.020950     -3.727963
  H      -1.221971      2.263298     -4.091058
69
Coordinates from ORCA-job my_molecule E -2464.465456192130
  Pt     -0.465606     -1.211373      1.340747
  O      -0.272602     -0.005289      2.853175
  O      -2.527748     -2.692166      1.627276
  P       0.988453      1.044132      2.817273
  P      -2.100530     -3.245874      0.250505
  O      -1.769462     -4.852280      0.271773
  O      -0.753444     -2.454283     -0.188630
  O       0.273621      2.459639      2.355560
  O       2.123342      0.637583      1.901738
  C       1.406728      1.305492      4.599146
  C      -3.333238     -3.117152     -1.109170
  C      -2.775957     -3.785193     -2.382902
  C      -3.580708     -1.610061     -1.337839
  C      -4.618936     -3.816995     -0.629518
  C       0.144364      1.727217      5.373293
  C       1.968412     -0.026213      5.137380
  C       2.482714      2.407866      4.655232
  H      -1.277963     -5.084836      1.093484
  H       0.712250      2.755006      1.530575
  H      -1.816927     -3.325590     -2.697224
  H      -3.503382     -3.654226     -3.211141
  H      -2.610308     -4.870291     -2.234497
  H      -2.665913     -1.098096     -1.690530
  H      -3.920128     -1.108252     -0.411092
  H      -4.367200     -1.483216     -2.108006
  H      -4.451855     -4.899446     -0.447582
  H      -5.402900     -3.715142     -1.409553
  H      -4.998313     -3.359411      0.307353
  H      -0.634038      0.942351      5.328975
  H      -0.286338      2.663424      4.968215
  H       0.404956      1.901238      6.438070
  H       1.202351     -0.827400      5.117376
  H       2.298474      0.109205      6.190062
  H       2.839580     -0.363215      4.540683
  H       2.095152      3.370561      4.266720
  H       3.376490      2.127874      4.064071
  H       2.798218      2.566256      5.707317
  Si      2.680876     -0.567205     -2.173119
  C       4.324327     -0.188494     -3.053082
  C       3.030464     -1.498606     -0.563252
  C       1.593124     -1.648575     -3.302662
  H       4.970866      0.461554     -2.427234
  H       4.152666      0.335707     -4.016541
  H       4.891240     -1.116838     -3.271614
  H       2.102515     -1.927611     -0.130972
  H       3.469338     -0.832093      0.205499
  H       3.729087     -2.341998     -0.750053
  H       0.745982     -2.080534     -2.729394
  H       2.178689     -2.493160     -3.722175
  H       1.179620     -1.071232     -4.156331
  H      -0.236278      0.306646     -2.040649
  C       1.811190      1.107385     -1.882172
  C       0.328466      1.069893     -1.458347
  H       1.925057      1.664158     -2.841903
  H       2.406149      1.678664     -1.135248
  Si     -0.620106      2.713728     -1.679207
  H       0.233563      0.747076     -0.392155
  C       0.279335      4.151619     -0.812383
  C      -2.364407      2.548016     -0.946104
  C      -0.726385      3.096172     -3.538774
  H       0.074629      4.174196      0.276714
  H      -0.071831      5.125992     -1.212274
  H       1.375477      4.108726     -0.965907
  H      -2.307535      2.338849      0.142407
  H      -2.930356      1.720149     -1.421769
  H      -2.955713      3.478558     -1.081822
  H       0.283137      3.243122     -3.984972
  H      -1.314582      4.021018     -3.725947
  H      -1.220216      2.263273     -4.086871
69
Coordinates from ORCA-job my_molecule E -2464.465297933764
  Pt     -0.461601     -1.211284      1.330978
  O      -0.254424     -0.018288      2.850002
  O      -2.527155     -2.702236      1.622229
  P       0.992763      1.048480      2.813058
  P      -2.104006     -3.244327      0.238672
  O      -1.765371     -4.850508      0.246986
  O      -0.763430     -2.442926     -0.203842
  O       0.251834      2.452721      2.359849
  O       2.131567      0.665601      1.892916
  C       1.412436      1.309194      4.595105
  C      -3.343853     -3.111240     -1.114435
  C      -2.792551     -3.769727     -2.396078
  C      -3.597483     -1.603626     -1.332506
  C      -4.624291     -3.818454     -0.631580
  C       0.145968      1.708359      5.373757
  C       1.997417     -0.014608      5.127813
  C       2.469653      2.429726      4.651854
  H      -1.272620     -5.088074      1.068199
  H       0.689900      2.765394      1.541071
  H      -1.837469     -3.304219     -2.713929
  H      -3.525949     -3.636546     -3.219149
  H      -2.621955     -4.855898     -2.255774
  H      -2.686356     -1.086970     -1.687809
  H      -3.932681     -1.108409     -0.401152
  H      -4.388544     -1.474698     -2.096976
  H      -4.452649     -4.901799     -0.456729
  H      -5.412336     -3.714929     -1.406780
  H      -5.000039     -3.367370      0.309739
  H      -0.619315      0.911536      5.329041
  H      -0.300483      2.638318      4.972278
  H       0.406220      1.883645      6.437924
  H       1.246621     -0.829155      5.104006
  H       2.323685      0.122451      6.180396
  H       2.874604     -0.333706      4.531652
  H       2.063636      3.387247      4.268975
  H       3.365884      2.168258      4.056165
  H       2.786329      2.589102      5.703428
  Si      2.683378     -0.574407     -2.162886
  C       4.323844     -0.193706     -3.048258
  C       3.042188     -1.499454     -0.551043
  C       1.594491     -1.660696     -3.286986
  H       4.969219      0.460656     -2.426079
  H       4.148056      0.327039     -4.012677
  H       4.893661     -1.120577     -3.265539
  H       2.119686     -1.935123     -0.113691
  H       3.478373     -0.824980      0.212256
  H       3.747425     -2.337763     -0.736958
  H       0.747573     -2.090334     -2.711889
  H       2.179820     -2.506748     -3.704538
  H       1.180187     -1.086352     -4.142036
  H      -0.234299      0.299152     -2.035961
  C       1.812108      1.099913     -1.873769
  C       0.329012      1.062720     -1.452507
  H       1.926801      1.655425     -2.833629
  H       2.405744      1.671301     -1.126559
  Si     -0.617805      2.707534     -1.676870
  H       0.232000      0.741177     -0.385357
  C       0.280479      4.146236     -0.807637
  C      -2.366196      2.544678     -0.950473
  C      -0.715455      3.089831     -3.537231
  H       0.068351      4.174314      0.280013
  H      -0.064802      5.120494     -1.213002
  H       1.377798      4.099472     -0.953846
  H      -2.313375      2.340151      0.137982
  H      -2.930410      1.715089     -1.424822
  H      -2.958032      3.474954     -1.091958
  H       0.296449      3.236638     -3.979148
  H      -1.302755      4.015210     -3.726464
  H      -1.207473      2.257124     -4.087793
69
Coordinates from ORCA-job my_molecule E -2464.465334193138
  Pt     -0.462869     -1.216075      1.345499
  O      -0.268020     -0.009201      2.855995
  O      -2.530806     -2.699747      1.630903
  P       0.992326      1.041517      2.818305
  P      -2.102490     -3.249186      0.251346
  O      -1.774272     -4.857644      0.266404
  O      -0.754335     -2.457896     -0.184377
  O       0.274215      2.454188      2.355477
  O       2.127108      0.636267      1.902024
  C       1.411310      1.307282      4.599696
  C      -3.332399     -3.112926     -1.110484
  C      -2.774456     -3.776059     -2.387057
  C      -3.577341     -1.604496     -1.333187
  C      -4.619436     -3.813644     -0.635876
  C       0.148934      1.730773      5.371658
  C       1.973622     -0.022488      5.142095
  C       2.485999      2.411451      4.652669
  H      -1.283757     -5.095857      1.089320
  H       0.713404      2.751509      1.531623
  H      -1.814159     -3.316170     -2.697323
  H      -3.500275     -3.639374     -3.216304
  H      -2.611125     -4.863309     -2.244547
  H      -2.661163     -1.092767     -1.682891
  H      -3.916873     -1.105926     -0.405258
  H      -4.362089     -1.473358     -2.103604
  H      -4.453949     -4.897249     -0.457455
  H      -5.400914     -3.708620     -1.416982
  H      -5.000434     -3.359024      0.301208
  H      -0.628829      0.946309      5.327894
  H      -0.281157      2.665899      4.964528
  H       0.408149      1.906787      6.435829
  H       1.211862     -0.825661      5.117280
  H       2.294633      0.114999      6.194866
  H       2.849287     -0.357200      4.553998
  H       2.096400      3.373051      4.262507
  H       3.379726      2.132069      4.061082
  H       2.802381      2.572111      5.704280
  Si      2.680242     -0.568252     -2.170901
  C       4.323552     -0.191205     -3.052320
  C       3.030525     -1.501123     -0.562027
  C       1.588822     -1.647018     -3.300316
  H       4.970768      0.458099     -2.427132
  H       4.151872      0.333248     -4.015405
  H       4.889461     -1.119946     -3.271474
  H       2.103161     -1.930353     -0.128901
  H       3.470519     -0.834820      0.206140
  H       3.728281     -2.345194     -0.750111
  H       0.743187     -2.079827     -2.725886
  H       2.172681     -2.490998     -3.724361
  H       1.172528     -1.067626     -4.150858
  H      -0.232901      0.304455     -2.041962
  C       1.811936      1.107300     -1.877568
  C       0.328719      1.068203     -1.456868
  H       1.927276      1.665578     -2.835536
  H       2.405605      1.676345     -1.128748
  Si     -0.623052      2.710138     -1.679559
  H       0.231847      0.743975     -0.390668
  C       0.269713      4.151314     -0.808720
  C      -2.370752      2.538436     -0.952733
  C      -0.723337      3.093225     -3.539774
  H       0.065340      4.171763      0.280763
  H      -0.086239      5.124799     -1.206659
  H       1.366707      4.114254     -0.963016
  H      -2.316509      2.333209      0.135087
  H      -2.930908      1.706491     -1.427698
  H      -2.967892      3.465904     -1.092994
  H       0.287759      3.242943     -3.982735
  H      -1.313509      4.017068     -3.728169
  H      -1.213612      2.259280     -4.090030
69
Coordinates from ORCA-job my_molecule E -2464.465128457619
  Pt     -0.461015     -1.218840      1.353257
  O      -0.253096     -0.008638      2.855642
  O      -2.556998     -2.688342      1.628956
  P       1.011957      1.039054      2.820415
  P      -2.115750     -3.247139      0.259381
  O      -1.793031     -4.856151      0.287219
  O      -0.759088     -2.463442     -0.168934
  O       0.296048      2.450112      2.349132
  O       2.151328      0.630116      1.912874
  C       1.419993      1.307694      4.604067
  C      -3.328501     -3.114161     -1.117904
  C      -2.758970     -3.786063     -2.384323
  C      -3.564828     -1.605773     -1.350184
  C      -4.623379     -3.807268     -0.654041
  C       0.153502      1.731752      5.369530
  C       1.980122     -0.021084      5.151214
  C       2.494338      2.411875      4.661083
  H      -1.315416     -5.090856      1.118020
  H       0.741020      2.744676      1.527371
  H      -1.793788     -3.330987     -2.686284
  H      -3.475203     -3.651896     -3.222046
  H      -2.600949     -4.872527     -2.233719
  H      -2.643111     -1.099048     -1.691791
  H      -3.912018     -1.101762     -0.427862
  H      -4.341001     -1.474662     -2.129516
  H      -4.464063     -4.890490     -0.468095
  H      -5.396299     -3.703401     -1.444373
  H      -5.012618     -3.345979      0.276685
  H      -0.623783      0.946361      5.324154
  H      -0.275783      2.665813      4.958562
  H       0.408077      1.910334      6.434801
  H       1.217051     -0.823912      5.127428
  H       2.299884      0.118843      6.205112
  H       2.856790     -0.357786      4.564404
  H       2.107302      3.372548      4.266217
  H       3.392013      2.130875      4.075859
  H       2.803936      2.574997      5.714386
  Si      2.675375     -0.565484     -2.169437
  C       4.316041     -0.183317     -3.052934
  C       3.029589     -1.505777     -0.565885
  C       1.582159     -1.639578     -3.300973
  H       4.964482      0.464459     -2.426852
  H       4.141111      0.344389     -4.013876
  H       4.882433     -1.110701     -3.276770
  H       2.102229     -1.934290     -0.132126
  H       3.473894     -0.844389      0.204219
  H       3.724798     -2.350504     -0.760107
  H       0.740059     -2.077380     -2.725022
  H       2.165415     -2.479787     -3.732446
  H       1.160985     -1.055699     -4.146381
  H      -0.238632      0.303781     -2.040885
  C       1.806192      1.107598     -1.867664
  C       0.320791      1.066792     -1.453299
  H       1.925555      1.672906     -2.821335
  H       2.396578      1.671567     -1.112038
  Si     -0.630863      2.708510     -1.679585
  H       0.218884      0.742125     -0.388414
  C       0.264249      4.151206     -0.815446
  C      -2.377571      2.539727     -0.950796
  C      -0.733350      3.085562     -3.540604
  H       0.069186      4.170851      0.275376
  H      -0.097485      5.123492     -1.211145
  H       1.359491      4.116586     -0.978804
  H      -2.323871      2.331113      0.137652
  H      -2.940414      1.710323     -1.427775
  H      -2.970992      3.469144     -1.088998
  H       0.277211      3.235228     -3.985059
  H      -1.325129      4.007832     -3.731802
  H      -1.223071      2.248874     -4.087484
69
Coordinates from ORCA-job my_molecule E -2464.465400266441
  Pt     -0.468124     -1.207603      1.345484
  O      -0.268797     -0.001084      2.854669
  O      -2.542369     -2.686643      1.625540
  P       0.994554      1.047278      2.819435
  P      -2.106176     -3.243322      0.254278
  O      -1.772246     -4.848570      0.282186
  O      -0.756886     -2.451458     -0.180515
  O       0.279907      2.463097      2.358948
  O       2.128813      0.640938      1.903822
  C       1.411976      1.305253      4.602104
  C      -3.330597     -3.120030     -1.113458
  C      -2.766104     -3.791113     -2.382282
  C      -3.578667     -1.613906     -1.347633
  C      -4.618297     -3.819746     -0.638451
  C       0.150758      1.730690      5.376418
  C       1.968548     -0.029118      5.139251
  C       2.492088      2.403642      4.659307
  H      -1.288113     -5.077205      1.107716
  H       0.715046      2.755613      1.531035
  H      -1.806770     -3.330370     -2.693759
  H      -3.490360     -3.664482     -3.214367
  H      -2.598808     -4.875508     -2.229477
  H      -2.662784     -1.101516     -1.697650
  H      -3.922873     -1.109872     -0.423854
  H      -4.361887     -1.490082     -2.121711
  H      -4.450933     -4.900966     -0.451377
  H      -5.397992     -3.722176     -1.423183
  H      -5.003578     -3.359223      0.294204
  H      -0.630741      0.948680      5.331129
  H      -0.276501      2.669022      4.972368
  H       0.411786      1.902412      6.441686
  H       1.201044     -0.828251      5.114956
  H       2.294719      0.103356      6.192746
  H       2.840831     -0.367193      4.545476
  H       2.107786      3.368280      4.271944
  H       3.385054      2.121247      4.067451
  H       2.808281      2.559315      5.711788
  Si      2.677198     -0.567070     -2.172209
  C       4.318537     -0.189263     -3.056475
  C       3.029846     -1.497818     -0.562793
  C       1.586681     -1.648530     -3.298629
  H       4.967499      0.460399     -2.432342
  H       4.144411      0.335130     -4.019468
  H       4.884407     -1.118056     -3.276614
  H       2.102239     -1.926553     -0.129795
  H       3.469399     -0.831423      0.205754
  H       3.728554     -2.340875     -0.750602
  H       0.740781     -2.079939     -2.723176
  H       2.171001     -2.493528     -3.719108
  H       1.171583     -1.071288     -4.151666
  H      -0.239969      0.308475     -2.038646
  C       1.808276      1.107898     -1.880122
  C       0.325234      1.071534     -1.456844
  H       1.923106      1.665517     -2.839257
  H       2.403305      1.678015     -1.132494
  Si     -0.622996      2.715382     -1.679845
  H       0.230418      0.748957     -0.391101
  C       0.274537      4.153827     -0.811930
  C      -2.368901      2.549934     -0.950974
  C      -0.725243      3.097888     -3.539450
  H       0.071585      4.175314      0.277754
  H      -0.079438      5.127822     -1.210296
  H       1.370637      4.113233     -0.967429
  H      -2.315435      2.341731      0.138387
  H      -2.933201      1.721116     -1.427399
  H      -2.959683      3.480135     -1.089548
  H       0.285033      3.244578     -3.983597
  H      -1.312795      4.022859     -3.727803
  H      -1.218197      2.265215     -4.088507
69
Coordinates from ORCA-job my_molecule E -2464.465705450213
  Pt     -0.474317     -1.199098      1.339783
  O      -0.293016      0.006378      2.856897
  O      -2.517325     -2.689446      1.626449
  P       0.971307      1.050518      2.819611
  P      -2.091021     -3.242172      0.248634
  O      -1.751497     -4.846187      0.271057
  O      -0.749188     -2.444159     -0.192493
  O       0.265629      2.473010      2.365892
  O       2.098643      0.638286      1.896345
  C       1.399696      1.304682      4.599722
  C      -3.329683     -3.121944     -1.106415
  C      -2.772802     -3.788258     -2.381057
  C      -3.587287     -1.617103     -1.337002
  C      -4.610049     -3.828727     -0.621114
  C       0.144220      1.736903      5.379186
  C       1.950391     -0.033530      5.133136
  C       2.486519      2.396607      4.652852
  H      -1.254094     -5.074633      1.089319
  H       0.693332      2.761543      1.532797
  H      -1.818352     -3.322785     -2.700227
  H      -3.504665     -3.663617     -3.206525
  H      -2.599137     -4.872149     -2.231587
  H      -2.676647     -1.100221     -1.695012
  H      -3.926251     -1.115347     -0.409712
  H      -4.377930     -1.496637     -2.104474
  H      -4.435865     -4.909406     -0.438078
  H      -5.397072     -3.732821     -1.398446
  H      -4.989428     -3.372446      0.316015
  H      -0.642082      0.959708      5.335759
  H      -0.278718      2.678304      4.977661
  H       0.410183      1.905658      6.443503
  H       1.178020     -0.827955      5.110578
  H       2.281434      0.095604      6.185473
  H       2.818348     -0.376169      4.535696
  H       2.105720      3.364143      4.269061
  H       3.374594      2.110012      4.055458
  H       2.809617      2.548479      5.703803
  Si      2.680432     -0.569567     -2.179568
  C       4.325641     -0.199679     -3.060195
  C       3.024961     -1.493253     -0.564251
  C       1.591524     -1.654840     -3.303960
  H       4.974136      0.450501     -2.436514
  H       4.156674      0.321327     -4.025812
  H       4.889555     -1.131011     -3.274491
  H       2.094847     -1.919551     -0.133994
  H       3.460762     -0.824334      0.204125
  H       3.723910     -2.337709     -0.744844
  H       0.740625     -2.079103     -2.730475
  H       2.175585     -2.505172     -3.714560
  H       1.183779     -1.082507     -4.163595
  H      -0.235707      0.312482     -2.040774
  C       1.813885      1.108966     -1.897377
  C       0.334341      1.075551     -1.462876
  H       1.922086      1.657836     -2.862383
  H       2.414930      1.685513     -1.159371
  Si     -0.614169      2.720007     -1.677543
  H       0.248208      0.751906     -0.396176
  C       0.284443      4.155648     -0.805343
  C      -2.357586      2.551234     -0.943643
  C      -0.722480      3.110226     -3.535105
  H       0.074245      4.178102      0.283273
  H      -0.063427      5.131183     -1.205225
  H       1.381840      4.111367     -0.953762
  H      -2.300098      2.341789      0.145049
  H      -2.922231      1.722185     -1.419320
  H      -2.950213      3.480980     -1.078636
  H       0.285859      3.257695     -3.981902
  H      -1.309621      4.036362     -3.717383
  H      -1.217962      2.280845     -4.085913
69
Coordinates from ORCA-job my_molecule E -2464.465964389336
  Pt     -0.483440     -1.191340      1.340572
  O      -0.319311      0.018485      2.858561
  O      -2.499591     -2.691994      1.629794
  P       0.949656      1.055255      2.820820
  P      -2.079289     -3.242216      0.249125
  O      -1.734075     -4.844086      0.268717
  O      -0.742915     -2.439000     -0.195172
  O       0.256234      2.486317      2.375211
  O       2.068837      0.635260      1.889905
  C       1.389063      1.300976      4.599233
  C      -3.328079     -3.126182     -1.097011
  C      -2.777048     -3.790332     -2.375490
  C      -3.593464     -1.622495     -1.326221
  C      -4.602778     -3.837806     -0.603738
  C       0.141738      1.746245      5.384892
  C       1.925392     -0.045221      5.127209
  C       2.489526      2.379245      4.650326
  H      -1.227585     -5.069976      1.080357
  H       0.672787      2.767109      1.533647
  H      -1.826692     -3.321171     -2.701333
  H      -3.515322     -3.668453     -3.195995
  H      -2.597925     -4.873481     -2.227214
  H      -2.687420     -1.101661     -1.689991
  H      -3.929252     -1.121841     -0.397317
  H      -4.389147     -1.505940     -2.088925
  H      -4.423327     -4.917722     -0.422015
  H      -5.394984     -3.744760     -1.376153
  H      -4.978059     -3.383222      0.335690
  H      -0.654371      0.978659      5.342448
  H      -0.271268      2.693993      4.987734
  H       0.413971      1.908477      6.448871
  H       1.143618     -0.830265      5.104329
  H       2.260683      0.076909      6.178842
  H       2.787657     -0.396594      4.526596
  H       2.119426      3.352278      4.270454
  H       3.371186      2.082905      4.048523
  H       2.818932      2.524604      5.700188
  Si      2.683971     -0.567296     -2.187150
  C       4.331629     -0.203565     -3.065810
  C       3.022441     -1.483657     -0.566400
  C       1.597801     -1.657946     -3.308677
  H       4.980839      0.446639     -2.442573
  H       4.165575      0.315383     -4.033065
  H       4.893667     -1.136927     -3.276644
  H       2.090335     -1.908092     -0.139142
  H       3.453958     -0.812443      0.202385
  H       3.722478     -2.328332     -0.740532
  H       0.743054     -2.076181     -2.736751
  H       2.182329     -2.512399     -3.709565
  H       1.196238     -1.091160     -4.174887
  H      -0.232680      0.318038     -2.044393
  C       1.818375      1.112806     -1.914933
  C       0.341583      1.081033     -1.470774
  H       1.920379      1.653937     -2.884929
  H       2.423482      1.696275     -1.185868
  Si     -0.607467      2.725416     -1.679921
  H       0.263415      0.756625     -0.404034
  C       0.290053      4.158301     -0.802692
  C      -2.349877      2.554171     -0.945744
  C      -0.717415      3.122497     -3.535577
  H       0.074042      4.180687      0.284928
  H      -0.053926      5.134870     -1.203438
  H       1.388030      4.111917     -0.945078
  H      -2.291738      2.345169      0.143029
  H      -2.913260      1.724164     -1.420942
  H      -2.943615      3.482876     -1.080718
  H       0.290739      3.271275     -3.982585
  H      -1.304254      4.049678     -3.713601
  H      -1.213543      2.295284     -4.089389
69
Coordinates from ORCA-job my_molecule E -2464.466210120123
  Pt     -0.491606     -1.185093      1.335002
  O      -0.344638      0.021901      2.859310
  O      -2.468238     -2.707088      1.631878
  P       0.921122      1.060381      2.819614
  P      -2.062950     -3.245029      0.240144
  O      -1.709799     -4.845639      0.243023
  O      -0.738522     -2.429167     -0.211203
  O       0.225989      2.494415      2.388198
  O       2.033343      0.643231      1.877139
  C       1.375372      1.300130      4.595088
  C      -3.331786     -3.126947     -1.086350
  C      -2.796162     -3.781129     -2.375867
  C      -3.607393     -1.623252     -1.302660
  C      -4.595490     -3.847939     -0.578636
  C       0.134136      1.746038      5.389424
  C       1.912159     -0.048337      5.116239
  C       2.477956      2.376587      4.641493
  H      -1.184015     -5.075950      1.043867
  H       0.631318      2.780763      1.543082
  H      -1.852151     -3.306052     -2.711279
  H      -3.545304     -3.657683     -3.185301
  H      -2.611574     -4.864338     -2.236834
  H      -2.709208     -1.096129     -1.676207
  H      -3.931949     -1.129498     -0.365536
  H      -4.414941     -1.505690     -2.053253
  H      -4.408139     -4.927820     -0.405825
  H      -5.399197     -3.754314     -1.338763
  H      -4.959038     -3.400640      0.368814
  H      -0.663351      0.979956      5.350215
  H      -0.279356      2.695175      4.996442
  H       0.413167      1.905560      6.451846
  H       1.130066     -0.832466      5.092737
  H       2.250381      0.069814      6.166764
  H       2.772167     -0.398544      4.512654
  H       2.105746      3.351859      4.268734
  H       3.354258      2.081804      4.030526
  H       2.816753      2.516916      5.689272
  Si      2.690422     -0.569761     -2.193312
  C       4.341606     -0.213596     -3.068612
  C       3.022770     -1.476168     -0.565219
  C       1.606211     -1.666140     -3.311644
  H       4.989500      0.438483     -2.446577
  H       4.179840      0.300916     -4.038968
  H       4.902829     -1.148720     -3.272640
  H       2.089370     -1.901099     -0.140658
  H       3.448051     -0.799997      0.203015
  H       3.726427     -2.319851     -0.731000
  H       0.744344     -2.073645     -2.742774
  H       2.189559     -2.527892     -3.698951
  H       1.214760     -1.106017     -4.186922
  H      -0.224599      0.320830     -2.050480
  C       1.827096      1.113241     -1.933468
  C       0.353657      1.082868     -1.479509
  H       1.922562      1.645348     -2.909299
  H       2.436656      1.704071     -1.213565
  Si     -0.594856      2.727868     -1.680302
  H       0.283941      0.756587     -0.412565
  C       0.302481      4.156434     -0.794617
  C      -2.338157      2.553310     -0.947289
  C      -0.704878      3.135585     -3.533372
  H       0.073498      4.183985      0.290065
  H      -0.029992      5.134529     -1.201289
  H       1.401855      4.102730     -0.923225
  H      -2.280922      2.342058      0.141528
  H      -2.900733      1.723341     -1.424707
  H      -2.932513      3.482210     -1.080461
  H       0.303270      3.286622     -3.979602
  H      -1.291731      4.064083     -3.705360
  H      -1.201449      2.311999     -4.092010
69
Coordinates from ORCA-job my_molecule E -2464.465674133126
  Pt     -0.480433     -1.177601      1.308516
  O      -0.268961     -0.013485      2.851760
  O      -2.510026     -2.692379      1.603093
  P       0.964430      1.067751      2.811091
  P      -2.093344     -3.227899      0.216274
  O      -1.724640     -4.825372      0.223877
  O      -0.773992     -2.400584     -0.239097
  O       0.206530      2.471320      2.383968
  O       2.096090      0.704185      1.873580
  C       1.403566      1.313421      4.590067
  C      -3.354669     -3.120648     -1.118702
  C      -2.808695     -3.769549     -2.405978
  C      -3.641705     -1.618762     -1.334074
  C      -4.614889     -3.851813     -0.616024
  C       0.143776      1.697953      5.387261
  C       2.001451     -0.012128      5.102943
  C       2.455300      2.439403      4.643707
  H      -1.222545     -5.051437      1.039821
  H       0.622530      2.794492      1.557599
  H      -1.871130     -3.282414     -2.742025
  H      -3.558511     -3.658469     -3.216117
  H      -2.609581     -4.849540     -2.263975
  H      -2.746569     -1.084358     -1.705397
  H      -3.971470     -1.128970     -0.396693
  H      -4.448427     -1.505873     -2.085956
  H      -4.420227     -4.929032     -0.440950
  H      -5.415381     -3.765806     -1.379401
  H      -4.986572     -3.406749      0.328009
  H      -0.617420      0.895624      5.346426
  H      -0.313581      2.628093      4.997200
  H       0.416560      1.867267      6.450052
  H       1.260075     -0.832547      5.067318
  H       2.324656      0.113007      6.154951
  H       2.881012     -0.315772      4.504868
  H       2.037489      3.398593      4.276953
  H       3.344851      2.190061      4.031223
  H       2.786918      2.588849      5.692649
  Si      2.685996     -0.588661     -2.165619
  C       4.325468     -0.220545     -3.057924
  C       3.047269     -1.491287     -0.541560
  C       1.593940     -1.687096     -3.274148
  H       4.972142      0.440244     -2.444319
  H       4.150018      0.288940     -4.028623
  H       4.894280     -1.150398     -3.263752
  H       2.126764     -1.930561     -0.103218
  H       3.472674     -0.802865      0.215719
  H       3.763372     -2.323214     -0.714265
  H       0.738138     -2.096510     -2.697719
  H       2.175387     -2.547146     -3.668039
  H       1.193266     -1.126324     -4.145142
  H      -0.232133      0.303175     -2.020315
  C       1.819498      1.093256     -1.893587
  C       0.343605      1.066834     -1.450698
  H       1.923318      1.633255     -2.864474
  H       2.426097      1.674100     -1.162852
  Si     -0.598422      2.714943     -1.666568
  H       0.265495      0.749769     -0.381541
  C       0.303752      4.145856     -0.786685
  C      -2.347701      2.554695     -0.942427
  C      -0.693633      3.111957     -3.523025
  H       0.071243      4.182885      0.297109
  H      -0.021362      5.123468     -1.200347
  H       1.403194      4.084698     -0.912575
  H      -2.297701      2.349281      0.147502
  H      -2.912776      1.725336     -1.418176
  H      -2.936189      3.486511     -1.084118
  H       0.317740      3.255538     -3.962951
  H      -1.274249      4.042203     -3.703840
  H      -1.190959      2.288831     -4.080638
69
Coordinates from ORCA-job my_molecule E -2464.465603662743
  Pt     -0.474768     -1.168332      1.281987
  O      -0.233541     -0.033064      2.843292
  O      -2.509537     -2.685750      1.582918
  P       0.973748      1.078106      2.802775
  P      -2.098161     -3.213931      0.191619
  O      -1.713283     -4.807500      0.194720
  O      -0.790520     -2.372360     -0.273907
  O       0.175512      2.462457      2.385048
  O       2.113002      0.752626      1.862660
  C       1.410392      1.322428      4.582533
  C      -3.370409     -3.115128     -1.134617
  C      -2.827980     -3.755543     -2.428024
  C      -3.673575     -1.615951     -1.345055
  C      -4.620924     -3.858818     -0.624923
  C       0.142249      1.660716      5.388159
  C       2.052918      0.013175      5.082924
  C       2.425711      2.480921      4.641062
  H      -1.217240     -5.030601      1.012639
  H       0.592853      2.811624      1.570022
  H      -1.900656     -3.255999     -2.774233
  H      -3.588373     -3.653808     -3.230340
  H      -2.612383     -4.832943     -2.288907
  H      -2.785753     -1.072559     -1.722592
  H      -4.001400     -1.131058     -0.404770
  H      -4.486776     -1.509580     -2.090884
  H      -4.415470     -4.935509     -0.456042
  H      -5.428242     -3.775823     -1.382287
  H      -4.989528     -3.420812      0.324535
  H      -0.592751      0.834234      5.346189
  H      -0.346714      2.577694      5.005227
  H       0.414587      1.832874      6.450671
  H       1.335358     -0.829974      5.049406
  H       2.382867      0.141888      6.134590
  H       2.936479     -0.260226      4.473475
  H       1.975309      3.428843      4.284109
  H       3.320423      2.265515      4.022877
  H       2.756813      2.632462      5.689839
  Si      2.686777     -0.604537     -2.150148
  C       4.321760     -0.233681     -3.050017
  C       3.060723     -1.495652     -0.522293
  C       1.595514     -1.712264     -3.248835
  H       4.966706      0.434989     -2.442214
  H       4.140458      0.268739     -4.023206
  H       4.895415     -1.161925     -3.252120
  H       2.147480     -1.943474     -0.077329
  H       3.481387     -0.796327      0.227603
  H       3.785965     -2.319949     -0.692185
  H       0.737834     -2.115379     -2.670058
  H       2.177037     -2.576639     -3.633546
  H       1.197960     -1.158867     -4.125640
  H      -0.237152      0.291233     -2.006763
  C       1.817558      1.076924     -1.881491
  C       0.341373      1.054847     -1.438674
  H       1.922118      1.614351     -2.853666
  H       2.424817      1.657986     -1.151793
  Si     -0.593330      2.707794     -1.655181
  H       0.262001      0.740866     -0.367652
  C       0.320458      4.134983     -0.780764
  C      -2.340701      2.561921     -0.925553
  C      -0.690370      3.103533     -3.511679
  H       0.078326      4.184178      0.300929
  H       0.011804      5.113705     -1.204245
  H       1.420374      4.058269     -0.896467
  H      -2.288648      2.356652      0.164390
  H      -2.914041      1.737409     -1.398717
  H      -2.921012      3.498491     -1.066207
  H       0.320205      3.241855     -3.953219
  H      -1.266236      4.036263     -3.691889
  H      -1.192799      2.283412     -4.068066
69
Coordinates from ORCA-job my_molecule E -2464.465457591488
  Pt     -0.472349     -1.161811      1.268534
  O      -0.207250     -0.045303      2.837121
  O      -2.514840     -2.687393      1.573598
  P       0.983838      1.085054      2.797455
  P      -2.105786     -3.205224      0.177894
  O      -1.709290     -4.796613      0.171486
  O      -0.807223     -2.351126     -0.292718
  O       0.158464      2.456048      2.389852
  O       2.126179      0.786207      1.853076
  C       1.420484      1.325841      4.577771
  C      -3.384084     -3.107981     -1.142474
  C      -2.844495     -3.739178     -2.440982
  C      -3.696763     -1.609614     -1.343814
  C      -4.627583     -3.861492     -0.630153
  C       0.149264      1.638716      5.388459
  C       2.086014      0.024948      5.069404
  C       2.415933      2.501266      4.640228
  H      -1.214819     -5.022025      0.990900
  H       0.568455      2.819437      1.577241
  H      -1.921980     -3.232120     -2.788802
  H      -3.608945     -3.638911     -3.239306
  H      -2.622211     -4.815989     -2.307873
  H      -2.814078     -1.059955     -1.723689
  H      -4.021490     -1.131140     -0.399249
  H      -4.514772     -1.503771     -2.084296
  H      -4.415038     -4.937610     -0.466956
  H      -5.438734     -3.779905     -1.383274
  H      -4.994241     -3.429920      0.322755
  H      -0.571029      0.799478      5.345793
  H      -0.356701      2.548288      5.010113
  H       0.421868      1.811916      6.450668
  H       1.383633     -0.830066      5.031703
  H       2.414144      0.153229      6.120835
  H       2.973429     -0.230056      4.458636
  H       1.948372      3.443265      4.289846
  H       3.312133      2.304636      4.018666
  H       2.746989      2.653034      5.688824
  Si      2.690288     -0.611739     -2.135955
  C       4.321150     -0.236079     -3.041225
  C       3.074726     -1.495048     -0.505814
  C       1.600500     -1.726167     -3.228638
  H       4.964031      0.437563     -2.437074
  H       4.134837      0.262686     -4.015398
  H       4.899074     -1.161733     -3.241966
  H       2.166581     -1.949603     -0.056514
  H       3.491042     -0.787540      0.238964
  H       3.807536     -2.313310     -0.673801
  H       0.741988     -2.125772     -2.648904
  H       2.182823     -2.592290     -3.607808
  H       1.204316     -1.177497     -4.109162
  H      -0.237188      0.281684     -2.003078
  C       1.816936      1.067818     -1.869395
  C       0.339024      1.045214     -1.432958
  H       1.925228      1.605851     -2.840942
  H       2.420496      1.648591     -1.136435
  Si     -0.594034      2.698981     -1.653934
  H       0.255259      0.732178     -0.361345
  C       0.318060      4.126383     -0.777000
  C      -2.345405      2.556312     -0.932490
  C      -0.681018      3.094553     -3.510879
  H       0.069502      4.180326      0.302959
  H       0.015005      5.104929     -1.205030
  H       1.418310      4.045735     -0.885613
  H      -2.299098      2.354233      0.158013
  H      -2.917158      1.730827     -1.405989
  H      -2.924210      3.493243     -1.078805
  H       0.332561      3.231813     -3.947279
  H      -1.254768      4.028599     -3.693233
  H      -1.181888      2.275094     -4.070545
69
Coordinates from ORCA-job my_molecule E -2464.465591074358
  Pt     -0.477282     -1.165460      1.284583
  O      -0.234345     -0.031481      2.845897
  O      -2.511935     -2.684747      1.584779
  P       0.974366      1.078571      2.804607
  P      -2.099432     -3.211317      0.192882
  O      -1.712507     -4.804730      0.194922
  O      -0.793154     -2.367141     -0.272423
  O       0.177007      2.463728      2.388783
  O       2.112530      0.751925      1.863165
  C       1.412005      1.321356      4.584067
  C      -3.371429     -3.113439     -1.133239
  C      -2.827971     -3.752094     -2.426353
  C      -3.676435     -1.614675     -1.342342
  C      -4.620655     -3.859539     -0.624115
  C       0.144602      1.662898      5.388961
  C       2.050369      0.010085      5.084064
  C       2.430005      2.477215      4.643357
  H      -1.215273     -5.028409      1.013155
  H       0.589417      2.810646      1.570251
  H      -1.900607     -3.251455     -2.770398
  H      -3.587039     -3.650033     -3.229460
  H      -2.612657     -4.829712     -2.288270
  H      -2.789306     -1.070507     -1.719640
  H      -4.004303     -1.130767     -0.401682
  H      -4.489847     -1.508565     -2.087825
  H      -4.413663     -4.935892     -0.455686
  H      -5.427778     -3.777393     -1.381465
  H      -4.990071     -3.422647      0.325233
  H      -0.592061      0.837888      5.346810
  H      -0.342056      2.580918      5.005422
  H       0.416837      1.834795      6.451443
  H       1.331136     -0.830775      5.049044
  H       2.378658      0.137372      6.135411
  H       2.933723     -0.265539      4.476545
  H       1.982543      3.426257      4.286131
  H       3.324197      2.259361      4.026348
  H       2.760367      2.628250      5.692059
  Si      2.688239     -0.603442     -2.151319
  C       4.323316     -0.232653     -3.050882
  C       3.061652     -1.494041     -0.522818
  C       1.597666     -1.711978     -3.249447
  H       4.967928      0.435824     -2.442955
  H       4.142129      0.269978     -4.024035
  H       4.897086     -1.160582     -3.252847
  H       2.147742     -1.942093     -0.078532
  H       3.481784     -0.794657      0.227484
  H       3.787374     -2.318443     -0.691946
  H       0.739107     -2.113587     -2.671075
  H       2.179218     -2.577019     -3.632177
  H       1.201553     -1.159518     -4.127601
  H      -0.235329      0.290029     -2.008761
  C       1.818608      1.077343     -1.884153
  C       0.342462      1.053874     -1.440851
  H       1.922671      1.614570     -2.856687
  H       2.425271      1.659536     -1.154974
  Si     -0.594531      2.705637     -1.657604
  H       0.264252      0.739550     -0.369967
  C       0.315527      4.133809     -0.780238
  C      -2.343443      2.556777     -0.931693
  C      -0.688332      3.103524     -3.513780
  H       0.073106      4.181694      0.301336
  H       0.004875      5.112463     -1.202607
  H       1.415599      4.059665     -0.895717
  H      -2.293289      2.353316      0.158036
  H      -2.913780      1.730366     -1.404800
  H      -2.925981      3.491895     -1.074853
  H       0.323541      3.243598     -3.953440
  H      -1.264885      4.036339     -3.693499
  H      -1.189091      2.283278     -4.072620
69
Coordinates from ORCA-job my_molecule E -2464.465670817863
  Pt     -0.479413     -1.169927      1.300752
  O      -0.252232     -0.019944      2.854322
  O      -2.518467     -2.679091      1.593141
  P       0.972231      1.072212      2.811827
  P      -2.097651     -3.216057      0.207801
  O      -1.719445     -4.811087      0.221756
  O      -0.782026     -2.382870     -0.250272
  O       0.200326      2.468356      2.384961
  O       2.106823      0.720539      1.874878
  C       1.407998      1.319218      4.591006
  C      -3.358138     -3.119118     -1.129471
  C      -2.805483     -3.765501     -2.415021
  C      -3.655896     -1.620168     -1.348161
  C      -4.614794     -3.858201     -0.627876
  C       0.143176      1.685439      5.389370
  C       2.023561      0.000696      5.100805
  C       2.444243      2.458988      4.646955
  H      -1.225523     -5.031891      1.042006
  H       0.617500      2.799329      1.562195
  H      -1.873122     -3.270095     -2.753092
  H      -3.557157     -3.663779     -3.225239
  H      -2.595309     -4.843256     -2.270353
  H      -2.763430     -1.080671     -1.720559
  H      -3.990335     -1.130803     -0.412339
  H      -4.462629     -1.514546     -2.101329
  H      -4.413261     -4.934432     -0.453019
  H      -5.415165     -3.776366     -1.392460
  H      -4.990955     -3.415974      0.316433
  H      -0.607062      0.872760      5.347410
  H      -0.326555      2.609904      5.000264
  H       0.413886      1.857124      6.452292
  H       1.290027     -0.828246      5.069985
  H       2.352633      0.129253      6.152147
  H       2.903097     -0.293355      4.495930
  H       2.012595      3.413225      4.283740
  H       3.336891      2.224138      4.033150
  H       2.774625      2.609628      5.695987
  Si      2.683174     -0.597441     -2.164017
  C       4.321656     -0.231569     -3.059203
  C       3.046644     -1.495942     -0.538020
  C       1.590573     -1.698912     -3.267291
  H       4.968672      0.431537     -2.447890
  H       4.144878      0.275092     -4.031016
  H       4.890936     -1.161918     -3.263184
  H       2.127512     -1.937290     -0.098382
  H       3.471413     -0.805300      0.217685
  H       3.764270     -2.326810     -0.709234
  H       0.733253     -2.103862     -2.689301
  H       2.170950     -2.562192     -3.655956
  H       1.192846     -1.141603     -4.141436
  H      -0.236733      0.297769     -2.013263
  C       1.817555      1.085065     -1.894065
  C       0.342345      1.061731     -1.446090
  H       1.919437      1.622783     -2.866386
  H       2.427047      1.666581     -1.166839
  Si     -0.597232      2.712163     -1.659205
  H       0.267648      0.745581     -0.375877
  C       0.312141      4.140739     -0.782653
  C      -2.343305      2.558464     -0.928245
  C      -0.698157      3.111412     -3.514931
  H       0.078129      4.181557      0.301292
  H      -0.007148      5.119631     -1.197863
  H       1.411724      4.073387     -0.907644
  H      -2.289681      2.350993      0.161104
  H      -2.913830      1.732746     -1.402926
  H      -2.927460      3.493082     -1.066266
  H       0.311324      3.253365     -3.958163
  H      -1.276816      4.042967     -3.692591
  H      -1.199329      2.290766     -4.072066
69
Coordinates from ORCA-job my_molecule E -2464.465365847651
  Pt     -0.475750     -1.169875      1.312368
  O      -0.229320     -0.017296      2.857862
  O      -2.561149     -2.661637      1.594256
  P       1.004079      1.067834      2.816874
  P      -2.119025     -3.208362      0.220317
  O      -1.744840     -4.805168      0.249874
  O      -0.792037     -2.383957     -0.228326
  O       0.241604      2.464813      2.376071
  O       2.143533      0.706260      1.890937
  C       1.424518      1.320357      4.598622
  C      -3.354267     -3.115852     -1.140462
  C      -2.779928     -3.769289     -2.412305
  C      -3.644827     -1.617715     -1.371402
  C      -4.620826     -3.850477     -0.657915
  C       0.154024      1.692121      5.385009
  C       2.033133      0.002216      5.117789
  C       2.462561      2.458012      4.659320
  H      -1.268196     -5.023629      1.082403
  H       0.663491      2.783490      1.550936
  H      -1.839589     -3.277999     -2.733315
  H      -3.515087     -3.668417     -3.237602
  H      -2.576683     -4.847499     -2.259440
  H      -2.744895     -1.083122     -1.732179
  H      -3.992665     -1.122881     -0.443700
  H      -4.438922     -1.513697     -2.137954
  H      -4.424255     -4.926961     -0.475520
  H      -5.407789     -3.769598     -1.436904
  H      -5.012636     -3.403880      0.278673
  H      -0.597541      0.881011      5.339169
  H      -0.310459      2.616507      4.989219
  H       0.416138      1.866633      6.449455
  H       1.295551     -0.823800      5.090634
  H       2.361144      0.135650      6.169623
  H       2.912727     -0.298830      4.515663
  H       2.036612      3.411578      4.288342
  H       3.360143      2.218635      4.055310
  H       2.783221      2.612387      5.710489
  Si      2.677472     -0.594425     -2.161542
  C       4.313664     -0.223503     -3.058552
  C       3.043609     -1.502878     -0.541745
  C       1.582039     -1.689504     -3.268001
  H       4.962222      0.436353     -2.445313
  H       4.134188      0.288399     -4.027170
  H       4.882501     -1.152706     -3.268941
  H       2.123613     -1.942360     -0.101063
  H       3.475091     -0.818050      0.215400
  H       3.756384     -2.336776     -0.719710
  H       0.730719     -2.103476     -2.687376
  H       2.162676     -2.546638     -3.669449
  H       1.175562     -1.125304     -4.133643
  H      -0.241274      0.293696     -2.012184
  C       1.810835      1.085488     -1.881564
  C       0.332887      1.058478     -1.440924
  H       1.917221      1.630959     -2.849256
  H       2.416275      1.661827     -1.146849
  Si     -0.611601      2.706283     -1.659544
  H       0.252014      0.741265     -0.371127
  C       0.292649      4.141247     -0.788518
  C      -2.357571      2.548780     -0.929360
  C      -0.712485      3.098142     -3.516911
  H       0.073680      4.174259      0.298816
  H      -0.043504      5.118171     -1.195238
  H       1.391326      4.086554     -0.929534
  H      -2.303882      2.344057      0.159541
  H      -2.924853      1.720513     -1.402325
  H      -2.945281      3.480987     -1.069908
  H       0.297037      3.242332     -3.960350
  H      -1.294606      4.027073     -3.698577
  H      -1.210398      2.273197     -4.071274
69
Coordinates from ORCA-job my_molecule E -2464.465583418563
  Pt     -0.483018     -1.164558      1.308843
  O      -0.250658     -0.010068      2.857090
  O      -2.540049     -2.667899      1.596818
  P       0.982747      1.073427      2.815749
  P      -2.106887     -3.210261      0.217465
  O      -1.727442     -4.805592      0.240961
  O      -0.786515     -2.379577     -0.235958
  O       0.222747      2.475199      2.385297
  O       2.116687      0.711564      1.882247
  C       1.413193      1.318061      4.596045
  C      -3.354661     -3.120051     -1.131894
  C      -2.789511     -3.771315     -2.409048
  C      -3.651805     -1.622920     -1.360204
  C      -4.614891     -3.858663     -0.638902
  C       0.147877      1.694080      5.389045
  C       2.016373     -0.005277      5.108198
  C       2.458021      2.449322      4.656038
  H      -1.239617     -5.023337      1.066644
  H       0.636539      2.794488      1.556255
  H      -1.853685     -3.277053     -2.738507
  H      -3.532559     -3.672376     -3.227715
  H      -2.581636     -4.849094     -2.258431
  H      -2.756475     -1.085281     -1.727897
  H      -3.994368     -1.129129     -0.430231
  H      -4.451965     -1.521829     -2.120634
  H      -4.413520     -4.934903     -0.459013
  H      -5.408833     -3.779396     -1.411221
  H      -4.999859     -3.413760      0.301600
  H      -0.608355      0.887169      5.343654
  H      -0.313219      2.622320      4.998211
  H       0.415321      1.863377      6.453015
  H       1.273520     -0.826926      5.081321
  H       2.349899      0.122521      6.159522
  H       2.891842     -0.309431      4.500887
  H       2.036642      3.406434      4.289490
  H       3.351548      2.206100      4.048027
  H       2.783496      2.598836      5.706255
  Si      2.681224     -0.594237     -2.167262
  C       4.319277     -0.229360     -3.063684
  C       3.043260     -1.495369     -0.542410
  C       1.587105     -1.694302     -3.270034
  H       4.968272      0.431788     -2.452077
  H       4.141815      0.279205     -4.034412
  H       4.886902     -1.160358     -3.270019
  H       2.121968     -1.934283     -0.103724
  H       3.470591     -0.807879      0.214605
  H       3.757942     -2.328778     -0.714854
  H       0.730993     -2.100623     -2.690803
  H       2.167107     -2.556776     -3.661165
  H       1.187586     -1.135686     -4.142477
  H      -0.237698      0.298846     -2.016139
  C       1.816104      1.087600     -1.896322
  C       0.340539      1.062793     -1.447747
  H       1.917504      1.626185     -2.868424
  H       2.425157      1.669563     -1.168983
  Si     -0.602521      2.711840     -1.660276
  H       0.265851      0.745074     -0.377829
  C       0.303293      4.143319     -0.784796
  C      -2.347559      2.554284     -0.928469
  C      -0.705374      3.110843     -3.515777
  H       0.075921      4.180145      0.300879
  H      -0.024633      5.121354     -1.195620
  H       1.403046      4.082817     -0.916667
  H      -2.292336      2.351110      0.159970
  H      -2.914669      1.725432     -1.399373
  H      -2.936080      3.485972     -1.069472
  H       0.303768      3.254974     -3.959780
  H      -1.286042      4.041363     -3.693202
  H      -1.205240      2.288941     -4.072682
69
Coordinates from ORCA-job my_molecule E -2464.465754815009
  Pt     -0.485965     -1.158629      1.298297
  O      -0.262451     -0.007362      2.851820
  O      -2.519841     -2.673888      1.593533
  P       0.966014      1.080718      2.811823
  P      -2.096107     -3.210765      0.208830
  O      -1.708557     -4.803741      0.225565
  O      -0.783915     -2.372108     -0.251311
  O       0.201152      2.483168      2.392590
  O       2.097605      0.726696      1.871935
  C       1.403088      1.318343      4.591512
  C      -3.357611     -3.124303     -1.128014
  C      -2.801619     -3.771811     -2.411078
  C      -3.664244     -1.628308     -1.352223
  C      -4.609866     -3.869092     -0.623276
  C       0.140147      1.689672      5.390657
  C       2.009406     -0.006384      5.096331
  C       2.446957      2.450688      4.651955
  H      -1.211158     -5.020168      1.044997
  H       0.608841      2.808982      1.563040
  H      -1.871935     -3.272398     -2.749991
  H      -3.553557     -3.676745     -3.221892
  H      -2.586204     -4.848239     -2.263035
  H      -2.775160     -1.085412     -1.728041
  H      -4.000732     -1.137037     -0.418077
  H      -4.472537     -1.530429     -2.105121
  H      -4.401722     -4.943823     -0.445552
  H      -5.411411     -3.793644     -1.387714
  H      -4.988097     -3.426530      0.320638
  H      -0.615359      0.882134      5.344889
  H      -0.323289      2.618852      5.005126
  H       0.411271      1.854959      6.454343
  H       1.268414     -0.829381      5.065446
  H       2.342897      0.116562      6.147898
  H       2.885169     -0.305848      4.487496
  H       2.022540      3.409036      4.291560
  H       3.338131      2.211435      4.038292
  H       2.777378      2.595610      5.701585
  Si      2.683508     -0.598296     -2.169310
  C       4.321183     -0.237984     -3.068253
  C       3.046436     -1.490093     -0.539305
  C       1.589776     -1.704765     -3.265849
  H       4.970102      0.426505     -2.460446
  H       4.143498      0.265285     -4.041661
  H       4.888935     -1.169891     -3.269719
  H       2.126491     -1.930623     -0.099808
  H       3.469403     -0.797534      0.215526
  H       3.764871     -2.321128     -0.706942
  H       0.729947     -2.103180     -2.686733
  H       2.168837     -2.572535     -3.646560
  H       1.195952     -1.152805     -4.145016
  H      -0.236853      0.302952     -2.016703
  C       1.819310      1.085783     -1.906647
  C       0.346313      1.065180     -1.450906
  H       1.916461      1.617357     -2.882983
  H       2.432337      1.672268     -1.186386
  Si     -0.591913      2.717282     -1.656991
  H       0.277054      0.746995     -0.380610
  C       0.319766      4.143727     -0.779173
  C      -2.335578      2.563068     -0.921519
  C      -0.697816      3.122660     -3.510916
  H       0.083534      4.186681      0.304510
  H       0.003716      5.123187     -1.195623
  H       1.419879      4.073694     -0.901491
  H      -2.279329      2.356903      0.167508
  H      -2.906316      1.736482     -1.393685
  H      -2.920555      3.497150     -1.059312
  H       0.310316      3.265071     -3.956398
  H      -1.275791      4.055320     -3.684049
  H      -1.201145      2.304476     -4.069376
69
Coordinates from ORCA-job my_molecule E -2464.466015403149
  Pt     -0.495733     -1.150928      1.294053
  O      -0.292409      0.005007      2.849266
  O      -2.490156     -2.681693      1.596763
  P       0.937142      1.089682      2.809826
  P      -2.079998     -3.212377      0.204423
  O      -1.687868     -4.803857      0.211592
  O      -0.776567     -2.366170     -0.261806
  O       0.177028      2.499386      2.406239
  O       2.060587      0.735475      1.858851
  C       1.387884      1.314773      4.587584
  C      -3.358931     -3.126733     -1.115671
  C      -2.817299     -3.770467     -2.407220
  C      -3.673046     -1.631599     -1.334015
  C      -4.602524     -3.876265     -0.597157
  C       0.132626      1.693839      5.395454
  C       1.983684     -0.018316      5.082380
  C       2.442851      2.436323      4.648309
  H      -1.174088     -5.020594      1.020903
  H       0.570668      2.824835      1.569656
  H      -1.894115     -3.267113     -2.758049
  H      -3.580590     -3.676865     -3.207907
  H      -2.596003     -4.846486     -2.263829
  H      -2.790085     -1.085116     -1.717992
  H      -4.001951     -1.142631     -0.396698
  H      -4.488696     -1.536213     -2.078302
  H      -4.388838     -4.951354     -0.424197
  H      -5.413467     -3.801479     -1.352141
  H      -4.970483     -3.436323      0.352465
  H      -0.630639      0.893262      5.350073
  H      -0.324387      2.629152      5.016753
  H       0.411121      1.851287      6.458557
  H       1.233704     -0.833397      5.051715
  H       2.324788      0.095869      6.133021
  H       2.853074     -0.323725      4.466615
  H       2.026226      3.400578      4.295458
  H       3.328001      2.191393      4.028694
  H       2.780031      2.572452      5.696593
  Si      2.691788     -0.596910     -2.176659
  C       4.331304     -0.243873     -3.075520
  C       3.050124     -1.477227     -0.539257
  C       1.600653     -1.711803     -3.267307
  H       4.981118      0.422541     -2.470193
  H       4.155326      0.254968     -4.051527
  H       4.897692     -1.177972     -3.272051
  H       2.128696     -1.917513     -0.102507
  H       3.466312     -0.780143      0.215141
  H       3.771966     -2.306950     -0.698508
  H       0.734390     -2.099365     -2.690483
  H       2.178961     -2.586642     -3.632740
  H       1.216486     -1.168768     -4.156324
  H      -0.229421      0.307046     -2.022953
  C       1.827685      1.088498     -1.927023
  C       0.357971      1.068591     -1.460627
  H       1.917302      1.610767     -2.909068
  H       2.444411      1.683583     -1.216755
  Si     -0.581178      2.720684     -1.658218
  H       0.297374      0.749029     -0.390386
  C       0.330364      4.144141     -0.775253
  C      -2.323374      2.563404     -0.920491
  C      -0.690855      3.135431     -3.509270
  H       0.083570      4.193302      0.305797
  H       0.023970      5.124113     -1.197932
  H       1.431456      4.067655     -0.885380
  H      -2.264771      2.360625      0.167722
  H      -2.891975      1.734424     -1.389092
  H      -2.911601      3.495423     -1.059937
  H       0.317198      3.279909     -3.955756
  H      -1.269092      4.069455     -3.676194
  H      -1.195395      2.319962     -4.071509
69
Coordinates from ORCA-job my_molecule E -2464.466009323801
  Pt     -0.490271     -1.142468      1.262708
  O      -0.273813     -0.005810      2.830679
  O      -2.471501     -2.686179      1.580353
  P       0.934454      1.102931      2.796485
  P      -2.075612     -3.205072      0.179195
  O      -1.668453     -4.792930      0.173062
  O      -0.786445     -2.344098     -0.300707
  O       0.142578      2.500129      2.410617
  O       2.063418      0.783821      1.840117
  C       1.386020      1.318821      4.575378
  C      -3.374302     -3.124056     -1.121884
  C      -2.846908     -3.760420     -2.422397
  C      -3.702586     -1.630850     -1.331790
  C      -4.605110     -3.883759     -0.586835
  C       0.126413      1.664325      5.391526
  C       2.011201     -0.006175      5.055520
  C       2.417994      2.461577      4.642686
  H      -1.147866     -5.009524      0.977173
  H       0.529989      2.848404      1.580414
  H      -1.933476     -3.248667     -2.786014
  H      -3.623022     -3.672021     -3.210966
  H      -2.614624     -4.834649     -2.284665
  H      -2.829246     -1.076384     -1.727409
  H      -4.021566     -1.146819     -0.387769
  H      -4.530624     -1.539400     -2.063938
  H      -4.380999     -4.957120     -0.419477
  H      -5.427776     -3.813235     -1.329471
  H      -4.962294     -3.448877      0.369263
  H      -0.619909      0.848292      5.343066
  H      -0.351642      2.592604      5.022130
  H       0.406172      1.819045      6.454607
  H       1.278728     -0.837066      5.017363
  H       2.351371      0.104208      6.107176
  H       2.886247     -0.286784      4.435639
  H       1.979727      3.420335      4.300633
  H       3.305260      2.241020      4.016541
  H       2.757153      2.594663      5.691091
  Si      2.696681     -0.608268     -2.162103
  C       4.330769     -0.252823     -3.070229
  C       3.069218     -1.473354     -0.518970
  C       1.606720     -1.736027     -3.240095
  H       4.978104      0.423100     -2.473259
  H       4.148223      0.236282     -4.049922
  H       4.902658     -1.184769     -3.260559
  H       2.155159     -1.922154     -0.074747
  H       3.478611     -0.763503      0.227324
  H       3.801792     -2.294457     -0.673924
  H       0.737598     -2.114736     -2.661274
  H       2.185231     -2.616549     -3.592139
  H       1.226794     -1.203744     -4.137351
  H      -0.230581      0.301369     -2.016326
  C       1.828745      1.076966     -1.919413
  C       0.359400      1.061187     -1.453960
  H       1.918923      1.594916     -2.903791
  H       2.445279      1.674197     -1.210858
  Si     -0.571908      2.718068     -1.649717
  H       0.297676      0.742572     -0.382550
  C       0.348665      4.137617     -0.768712
  C      -2.313517      2.570900     -0.908838
  C      -0.681551      3.134332     -3.500336
  H       0.089477      4.199970      0.309071
  H       0.060081      5.117893     -1.202791
  H       1.450103      4.045965     -0.864603
  H      -2.255004      2.368507      0.180396
  H      -2.887737      1.744487     -1.376071
  H      -2.895307      3.506598     -1.048586
  H       0.325998      3.272527     -3.947285
  H      -1.253480      4.071782     -3.666048
  H      -1.191502      2.323339     -4.062435
69
Coordinates from ORCA-job my_molecule E -2464.466013953160
  Pt     -0.487820     -1.137605      1.244259
  O      -0.263226     -0.012401      2.819422
  O      -2.455665     -2.691114      1.570925
  P       0.930918      1.111371      2.788164
  P      -2.072058     -3.201407      0.162970
  O      -1.658473     -4.787388      0.145699
  O      -0.792583     -2.331546     -0.325334
  O       0.118482      2.500207      2.415087
  O       2.061675      0.815223      1.826633
  C       1.385651      1.320454      4.567223
  C      -3.385450     -3.119674     -1.123457
  C      -2.870740     -3.749578     -2.432515
  C      -3.720914     -1.626839     -1.324328
  C      -4.607994     -3.885169     -0.577869
  C       0.125238      1.646757      5.389958
  C       2.027027     -0.000372      5.036983
  C       2.404924      2.474180      4.638693
  H      -1.132042     -5.005776      0.945394
  H       0.498522      2.861923      1.587176
  H      -1.964287     -3.232445     -2.806138
  H      -3.657154     -3.662477     -3.211178
  H      -2.631540     -4.823089     -2.301078
  H      -2.853530     -1.067929     -1.726391
  H      -4.032257     -1.147400     -0.375731
  H      -4.556180     -1.535750     -2.047754
  H      -4.378733     -4.958509     -0.416531
  H      -5.438552     -3.814851     -1.311599
  H      -4.956344     -3.454471      0.383225
  H      -0.611499      0.821902      5.340754
  H      -0.365291      2.571033      5.026753
  H       0.407555      1.799738      6.452720
  H       1.304043     -0.839219      4.994748
  H       2.368051      0.106753      6.088625
  H       2.903982     -0.267086      4.413692
  H       1.954597      3.430227      4.304913
  H       3.292100      2.267783      4.007657
  H       2.746325      2.603961      5.686629
  Si      2.703092     -0.613579     -2.151466
  C       4.333793     -0.255798     -3.064980
  C       3.084377     -1.468054     -0.504462
  C       1.615401     -1.750162     -3.222107
  H       4.979939      0.425490     -2.472499
  H       4.146897      0.228215     -4.046380
  H       4.909060     -1.186363     -3.252628
  H       2.175073     -1.922451     -0.056228
  H       3.487974     -0.749655      0.236841
  H       3.824486     -2.283036     -0.655763
  H       0.744078     -2.123063     -2.643135
  H       2.194549     -2.633807     -3.564707
  H       1.238990     -1.225334     -4.125237
  H      -0.228306      0.295687     -2.014238
  C       1.831232      1.070547     -1.913691
  C       0.361376      1.054990     -1.450973
  H       1.922666      1.586532     -2.898991
  H       2.445900      1.669424     -1.204767
  Si     -0.567850      2.713133     -1.646895
  H       0.297760      0.736693     -0.378963
  C       0.354587      4.131547     -0.765614
  C      -2.310435      2.569401     -0.907531
  C      -0.674761      3.130263     -3.497227
  H       0.086850      4.202084      0.309481
  H       0.076023      5.111385     -1.207189
  H       1.455972      4.032156     -0.851298
  H      -2.253380      2.369672      0.182079
  H      -2.885060      1.742471     -1.373313
  H      -2.890869      3.505605     -1.050295
  H       0.334142      3.266567     -3.942735
  H      -1.244493      4.069411     -3.662584
  H      -1.185821      2.320609     -4.060902
69
Coordinates from ORCA-job my_molecule E -2464.465979398968
  Pt     -0.484869     -1.129306      1.219830
  O      -0.244847     -0.020788      2.804874
  O      -2.445445     -2.691154      1.556776
  P       0.932591      1.120841      2.777689
  P      -2.071281     -3.193957      0.143560
  O      -1.647530     -4.777174      0.118008
  O      -0.802535     -2.313626     -0.354367
  O       0.096703      2.498958      2.416179
  O       2.066545      0.850928      1.812782
  C       1.387668      1.324211      4.557388
  C      -3.396914     -3.115868     -1.130326
  C      -2.891163     -3.740572     -2.444900
  C      -3.741423     -1.624382     -1.325075
  C      -4.610875     -3.888288     -0.574900
  C       0.124522      1.623752      5.386105
  C       2.052544      0.011148      5.016140
  C       2.387938      2.494326      4.633878
  H      -1.118248     -4.995340      0.915313
  H       0.471840      2.875906      1.592855
  H      -1.991332     -3.217720     -2.826219
  H      -3.685450     -3.657012     -3.215707
  H      -2.644762     -4.812814     -2.317478
  H      -2.880188     -1.060342     -1.733885
  H      -4.046514     -1.148447     -0.372377
  H      -4.584030     -1.535729     -2.040788
  H      -4.375006     -4.960469     -0.417758
  H      -5.448624     -3.820517     -1.300640
  H      -4.952369     -3.461226      0.390223
  H      -0.597977      0.786584      5.334929
  H      -0.383084      2.541356      5.029697
  H       0.407889      1.775616      6.448711
  H       1.343939     -0.839737      4.968849
  H       2.393598      0.116080      6.068085
  H       2.932936     -0.236033      4.389478
  H       1.921138      3.444805      4.306987
  H       3.276594      2.306364      3.999398
  H       2.729776      2.623411      5.681842
  Si      2.706621     -0.622505     -2.137824
  C       4.333650     -0.262382     -3.057137
  C       3.097565     -1.466906     -0.487435
  C       1.619691     -1.766781     -3.200692
  H       4.977607      0.425462     -2.470194
  H       4.142567      0.214883     -4.041063
  H       4.913032     -1.191172     -3.240278
  H       2.192972     -1.926463     -0.034342
  H       3.496480     -0.739780      0.247929
  H       3.844647     -2.276115     -0.635482
  H       0.746220     -2.133650     -2.620859
  H       2.198806     -2.654046     -3.534417
  H       1.246405     -1.248768     -4.109149
  H      -0.228908      0.289884     -2.008730
  C       1.831702      1.061429     -1.903326
  C       0.361135      1.048015     -1.444239
  H       1.925493      1.576162     -2.889202
  H       2.444979      1.660315     -1.193150
  Si     -0.564034      2.708810     -1.639945
  H       0.294544      0.730160     -0.371520
  C       0.363559      4.125727     -0.760758
  C      -2.306332      2.571247     -0.898827
  C      -0.670406      3.125359     -3.490290
  H       0.088201      4.205301      0.312016
  H       0.096165      5.105215     -1.209821
  H       1.464868      4.016957     -0.837169
  H      -2.248968      2.373739      0.191087
  H      -2.883677      1.745011     -1.362219
  H      -2.883896      3.508925     -1.043219
  H       0.338353      3.257243     -3.935819
  H      -1.235927      4.066610     -3.655558
  H      -1.184873      2.318327     -4.053524
69
Coordinates from ORCA-job my_molecule E -2464.465976481220
  Pt     -0.484716     -1.121217      1.201331
  O      -0.236129     -0.022396      2.791065
  O      -2.431681     -2.698847      1.547808
  P       0.929043      1.132258      2.769024
  P      -2.068364     -3.190138      0.127655
  O      -1.635350     -4.770770      0.088113
  O      -0.810795     -2.298344     -0.377520
  O       0.076088      2.503348      2.421738
  O       2.063180      0.883710      1.798793
  C       1.387143      1.326803      4.549231
  C      -3.407287     -3.111657     -1.132425
  C      -2.913390     -3.729343     -2.455163
  C      -3.759070     -1.620607     -1.317515
  C      -4.612723     -3.890643     -0.567936
  C       0.124080      1.607907      5.384458
  C       2.066375      0.017183      4.996526
  C       2.376235      2.506182      4.631242
  H      -1.099593     -4.991181      0.880506
  H       0.441567      2.891239      1.599020
  H      -2.019926     -3.201216     -2.844415
  H      -3.716733     -3.646252     -3.216921
  H      -2.661008     -4.801091     -2.334790
  H      -2.904051     -1.051621     -1.732025
  H      -4.056641     -1.149821     -0.360060
  H      -4.608835     -1.532179     -2.024497
  H      -4.371425     -4.962717     -0.417197
  H      -5.457699     -3.823416     -1.285128
  H      -4.945987     -3.468237      0.401960
  H      -0.589839      0.763627      5.331013
  H      -0.394378      2.522355      5.035911
  H       0.410015      1.755998      6.446921
  H       1.366674     -0.840585      4.943715
  H       2.407845      0.117438      6.048593
  H       2.948299     -0.216138      4.367008
  H       1.898864      3.454564      4.313418
  H       3.264180      2.331729      3.991718
  H       2.720802      2.630545      5.678989
  Si      2.712589     -0.628250     -2.126712
  C       4.335984     -0.266805     -3.051859
  C       3.111795     -1.460763     -0.471885
  C       1.628022     -1.781691     -3.181589
  H       4.979009      0.426504     -2.470085
  H       4.140220      0.204760     -4.037612
  H       4.918426     -1.194333     -3.231987
  H       2.211697     -1.924959     -0.015130
  H       3.504947     -0.725346      0.258413
  H       3.865684     -2.264282     -0.615569
  H       0.751847     -2.141618     -2.602044
  H       2.207406     -2.672367     -3.504643
  H       1.258985     -1.272022     -4.096442
  H      -0.227178      0.284868     -2.011083
  C       1.833920      1.054494     -1.898630
  C       0.362531      1.040838     -1.443208
  H       1.928911      1.566282     -2.885776
  H       2.444659      1.656056     -1.188659
  Si     -0.560037      2.703395     -1.636336
  H       0.292970      0.720523     -0.370407
  C       0.370643      4.118476     -0.757488
  C      -2.302403      2.568787     -0.894859
  C      -0.665823      3.121388     -3.486145
  H       0.087480      4.207535      0.312436
  H       0.114075      5.097042     -1.214788
  H       1.471425      4.001149     -0.823556
  H      -2.245996      2.371968      0.195763
  H      -2.881100      1.742800     -1.357857
  H      -2.877852      3.507536     -1.040381
  H       0.343799      3.252621     -3.931170
  H      -1.230391      4.063820     -3.650203
  H      -1.181016      2.315125     -4.050671
69
Coordinates from ORCA-job my_molecule E -2464.465917765168
  Pt     -0.484953     -1.105124      1.175190
  O      -0.214292     -0.025525      2.774999
  O      -2.429111     -2.693947      1.530983
  P       0.934697      1.145819      2.758492
  P      -2.070251     -3.179137      0.108081
  O      -1.623629     -4.755712      0.063803
  O      -0.824493     -2.275151     -0.405609
  O       0.060470      2.506899      2.422450
  O       2.071638      0.921779      1.786350
  C       1.391462      1.333177      4.539600
  C      -3.417110     -3.108962     -1.143871
  C      -2.926478     -3.721571     -2.469915
  C      -3.780236     -1.620244     -1.325259
  C      -4.614080     -3.896763     -0.572972
  C       0.125812      1.584679      5.380242
  C       2.095342      0.032322      4.974194
  C       2.359988      2.528878      4.629154
  H      -1.088655     -4.973670      0.856556
  H       0.419643      2.907749      1.603230
  H      -2.040131     -3.185903     -2.864859
  H      -3.735427     -3.645157     -3.226189
  H      -2.664233     -4.791040     -2.351472
  H      -2.931144     -1.045201     -1.744607
  H      -4.075046     -1.152456     -0.365403
  H      -4.634940     -1.536767     -2.026939
  H      -4.364683     -4.966932     -0.424793
  H      -5.463888     -3.834378     -1.284865
  H      -4.944504     -3.477816      0.399291
  H      -0.572401      0.727270      5.323829
  H      -0.411155      2.491522      5.039283
  H       0.412558      1.731248      6.442816
  H       1.411020     -0.837547      4.915668
  H       2.437740      0.129532      6.026502
  H       2.979892     -0.179622      4.340326
  H       1.866278      3.471070      4.318506
  H       3.249771      2.373786      3.987601
  H       2.703446      2.651800      5.677221
  Si      2.713206     -0.640296     -2.112131
  C       4.332409     -0.278643     -3.044610
  C       3.122156     -1.462555     -0.454264
  C       1.626630     -1.799530     -3.158493
  H       4.974357      0.420984     -2.469495
  H       4.132301      0.185433     -4.033065
  H       4.917923     -1.205121     -3.219922
  H       2.226139     -1.930542      0.007462
  H       3.511560     -0.718970      0.269810
  H       3.882036     -2.261008     -0.594772
  H       0.747807     -2.151831     -2.577910
  H       2.204287     -2.694826     -3.472680
  H       1.261184     -1.296203     -4.078477
  H      -0.229570      0.279484     -2.002741
  C       1.833104      1.043707     -1.886404
  C       0.361441      1.033584     -1.433995
  H       1.930518      1.554134     -2.874409
  H       2.443479      1.644592     -1.175046
  Si     -0.557098      2.699143     -1.625781
  H       0.289356      0.713625     -0.360368
  C       0.380345      4.112997     -0.751231
  C      -2.298054      2.570971     -0.879942
  C      -0.664850      3.115511     -3.475489
  H       0.091179      4.212454      0.316321
  H       0.134938      5.090693     -1.216413
  H       1.480731      3.985822     -0.809049
  H      -2.239150      2.378669      0.210362
  H      -2.879406      1.744617     -1.337750
  H      -2.872199      3.510380     -1.027752
  H       0.343978      3.242235     -3.921780
  H      -1.225510      4.059816     -3.639028
  H      -1.184148      2.311774     -4.038568
69
Coordinates from ORCA-job my_molecule E -2464.465940756574
  Pt     -0.488754     -1.091755      1.155819
  O      -0.211432     -0.020877      2.759621
  O      -2.415339     -2.700832      1.521427
  P       0.928640      1.159522      2.749740
  P      -2.066240     -3.173677      0.091960
  O      -1.607763     -4.746659      0.033110
  O      -0.833332     -2.256236     -0.428407
  O       0.043410      2.516533      2.428012
  O       2.064673      0.952052      1.772882
  C       1.388419      1.337174      4.531345
  C      -3.425450     -3.105654     -1.146662
  C      -2.945175     -3.711538     -2.479481
  C      -3.796911     -1.618023     -1.319245
  C      -4.613148     -3.901000     -0.567236
  C       0.123548      1.571724      5.377769
  C       2.104684      0.039149      4.954104
  C       2.347442      2.540460      4.627103
  H      -1.064640     -4.966061      0.820283
  H       0.392850      2.925654      1.608529
  H      -2.064574     -3.170788     -2.880295
  H      -3.761487     -3.635776     -3.227939
  H      -2.677756     -4.780449     -2.367634
  H      -2.954607     -1.037640     -1.744356
  H      -4.084277     -1.155095     -0.354581
  H      -4.659188     -1.535729     -2.012170
  H      -4.357393     -4.970541     -0.425198
  H      -5.469928     -3.840345     -1.270675
  H      -4.935944     -3.486833      0.409509
  H      -0.567483      0.709257      5.317342
  H      -0.422238      2.476398      5.046002
  H       0.412492      1.712598      6.440328
  H       1.428625     -0.836495      4.888668
  H       2.446875      0.130562      6.006632
  H       2.990447     -0.159082      4.318129
  H       1.845043      3.480923      4.324812
  H       3.236414      2.397347      3.981428
  H       2.693416      2.658437      5.675214
  Si      2.718208     -0.647430     -2.103226
  C       4.334562     -0.286047     -3.040326
  C       3.133117     -1.457977     -0.440516
  C       1.633910     -1.814966     -3.142058
  H       4.975186      0.419138     -2.470629
  H       4.130909      0.171336     -4.031219
  H       4.922831     -1.211521     -3.210995
  H       2.240448     -1.929124      0.023964
  H       3.517395     -0.707107      0.278908
  H       3.898508     -2.251849     -0.576058
  H       0.751186     -2.158781     -2.562886
  H       2.211049     -2.714386     -3.443896
  H       1.274526     -1.320378     -4.069164
  H      -0.228380      0.275488     -2.006083
  C       1.835298      1.035934     -1.885143
  C       0.363718      1.026152     -1.433847
  H       1.931715      1.541496     -2.875564
  H       2.444374      1.640934     -1.176598
  Si     -0.551828      2.694073     -1.619036
  H       0.290178      0.701856     -0.360328
  C       0.392115      4.105144     -0.747213
  C      -2.290459      2.568863     -0.867490
  C      -0.664718      3.112391     -3.467708
  H       0.096199      4.216296      0.317255
  H       0.159445      5.081397     -1.221782
  H       1.491327      3.967301     -0.794782
  H      -2.229729      2.374656      0.223560
  H      -2.875491      1.744182     -1.325172
  H      -2.861481      3.510230     -1.012742
  H       0.343346      3.239414     -3.916354
  H      -1.225687      4.057325     -3.628100
  H      -1.185695      2.309254     -4.030663
69
Coordinates from ORCA-job my_molecule E -2464.465912138005
  Pt     -0.491598     -1.071017      1.130774
  O      -0.195869     -0.014612      2.740709
  O      -2.410919     -2.700005      1.506286
  P       0.932002      1.178075      2.739190
  P      -2.066457     -3.162434      0.072892
  O      -1.591905     -4.730274      0.004311
  O      -0.847400     -2.229978     -0.454491
  O       0.031461      2.528717      2.432034
  O       2.069038      0.991892      1.759969
  C       1.391686      1.343479      4.521853
  C      -3.434237     -3.101935     -1.156996
  C      -2.958209     -3.700399     -2.495067
  C      -3.818174     -1.616680     -1.323163
  C      -4.612296     -3.907751     -0.572024
  C       0.126342      1.552809      5.374056
  C       2.126023      0.050659      4.929364
  C       2.335834      2.557494      4.627873
  H      -1.047426     -4.948219      0.790103
  H       0.370497      2.946574      1.612551
  H      -2.085484     -3.151079     -2.901524
  H      -3.780954     -3.630395     -3.237234
  H      -2.680036     -4.767022     -2.387496
  H      -2.982699     -1.028892     -1.752160
  H      -4.102746     -1.158568     -0.355702
  H      -4.685104     -1.539145     -2.010145
  H      -4.347550     -4.975637     -0.434355
  H      -5.474033     -3.851791     -1.269807
  H      -4.932026     -3.498562      0.407781
  H      -0.553309      0.681350      5.308427
  H      -0.433335      2.453024      5.052627
  H       0.417171      1.688026      6.437063
  H       1.461254     -0.833111      4.856505
  H       2.470032      0.135466      5.982098
  H       3.012579     -0.128957      4.288588
  H       1.821465      3.494654      4.335977
  H       3.225095      2.431342      3.979061
  H       2.682398      2.669065      5.676298
  Si      2.719891     -0.658958     -2.088175
  C       4.331780     -0.298993     -3.033479
  C       3.144009     -1.456578     -0.421273
  C       1.634521     -1.834113     -3.116899
  H       4.972252      0.412459     -2.471312
  H       4.123102      0.150342     -4.026971
  H       4.922476     -1.223928     -3.199466
  H       2.255486     -1.930811      0.048114
  H       3.523951     -0.697279      0.291590
  H       3.915213     -2.245443     -0.552571
  H       0.748393     -2.168823     -2.537454
  H       2.209974     -2.738578     -3.407311
  H       1.279981     -1.348031     -4.050402
  H      -0.230059      0.269719     -2.000367
  C       1.834968      1.025156     -1.875712
  C       0.363376      1.018022     -1.426660
  H       1.932267      1.526977     -2.868090
  H       2.443233      1.632105     -1.167862
  Si     -0.549686      2.688219     -1.608988
  H       0.287839      0.692650     -0.352380
  C       0.400300      4.099127     -0.742877
  C      -2.286156      2.567471     -0.851947
  C      -0.666550      3.104553     -3.457418
  H       0.099074      4.223032      0.318799
  H       0.178356      5.073067     -1.227303
  H       1.498849      3.951795     -0.781587
  H      -2.222339      2.378527      0.238913
  H      -2.872881      1.741294     -1.303601
  H      -2.857198      3.508677     -0.999907
  H       0.340714      3.229211     -3.908053
  H      -1.225829      4.050483     -3.616777
  H      -1.190416      2.302486     -4.018802
69
Coordinates from ORCA-job my_molecule E -2464.465943286476
  Pt     -0.496180     -1.051556      1.106026
  O      -0.191067     -0.006233      2.721784
  O      -2.396249     -2.703703      1.492577
  P       0.927822      1.194852      2.728510
  P      -2.061763     -3.153480      0.053103
  O      -1.572999     -4.716267     -0.030078
  O      -0.858081     -2.205759     -0.481971
  O       0.017488      2.541919      2.435975
  O       2.064377      1.025266      1.745783
  C       1.389679      1.348914      4.511652
  C      -3.442106     -3.097870     -1.162810
  C      -2.975269     -3.688427     -2.507070
  C      -3.836563     -1.614511     -1.319705
  C      -4.609346     -3.913201     -0.569343
  C       0.124970      1.537176      5.369209
  C       2.138888      0.060228      4.905099
  C       2.321672      2.571787      4.626226
  H      -1.020405     -4.934409      0.750293
  H       0.347334      2.967201      1.616499
  H      -2.109202     -3.132727     -2.918754
  H      -3.804762     -3.620450     -3.241453
  H      -2.690481     -4.753762     -2.406065
  H      -3.008629     -1.020199     -1.754376
  H      -4.113925     -1.161887     -0.347128
  H      -4.711375     -1.539208     -1.997686
  H      -4.336545     -4.979561     -0.438039
  H      -5.478316     -3.860458     -1.258199
  H      -4.921878     -3.509592      0.414934
  H      -0.545753      0.659663      5.297544
  H      -0.445236      2.434423      5.058584
  H       0.417573      1.665401      6.432407
  H       1.484002     -0.830086      4.824106
  H       2.483455      0.138194      5.957959
  H       3.026135     -0.102702      4.261251
  H       1.797182      3.506223      4.343610
  H       3.210493      2.460165      3.974201
  H       2.669915      2.677658      5.674801
  Si      2.723561     -0.669451     -2.076481
  C       4.333110     -0.310398     -3.025598
  C       3.152822     -1.455455     -0.404779
  C       1.640029     -1.851677     -3.098284
  H       4.971676      0.407023     -2.469272
  H       4.121962      0.131034     -4.022188
  H       4.926700     -1.234383     -3.185239
  H       2.266883     -1.931740      0.067498
  H       3.528225     -0.688972      0.302945
  H       3.928858     -2.240385     -0.530757
  H       0.748993     -2.176938     -2.521277
  H       2.214264     -2.760813     -3.375346
  H       1.293098     -1.374247     -4.039230
  H      -0.230141      0.264988     -1.999144
  C       1.836207      1.015094     -1.871117
  C       0.364960      1.010079     -1.423233
  H       1.932984      1.512194     -2.866055
  H       2.443830      1.625245     -1.165593
  Si     -0.545521      2.682698     -1.599243
  H       0.288030      0.681512     -0.348446
  C       0.412581      4.092126     -0.739460
  C      -2.278354      2.565493     -0.833443
  C      -0.670310      3.098363     -3.446910
  H       0.105872      4.229892      0.318831
  H       0.203620      5.063554     -1.234440
  H       1.509559      3.933460     -0.768469
  H      -2.210599      2.375870      0.257828
  H      -2.869388      1.740565     -1.282847
  H      -2.846813      3.508423     -0.978671
  H       0.335056      3.222000     -3.901451
  H      -1.229364      4.044805     -3.603480
  H      -1.197243      2.297022     -4.006103
69
Coordinates from ORCA-job my_molecule E -2464.465992822284
  Pt     -0.501251     -1.028932      1.082992
  O      -0.190407      0.008958      2.702768
  O      -2.381194     -2.707606      1.480198
  P       0.923149      1.214810      2.719247
  P      -2.055679     -3.143751      0.034894
  O      -1.551010     -4.700579     -0.063684
  O      -0.867635     -2.180116     -0.506696
  O       0.008424      2.562165      2.442452
  O       2.059035      1.057856      1.733840
  C       1.386888      1.353978      4.503114
  C      -3.448318     -3.094122     -1.167943
  C      -2.990066     -3.675627     -2.519707
  C      -3.855440     -1.613140     -1.315308
  C      -4.604065     -3.920376     -0.567054
  C       0.123365      1.526385      5.365670
  C       2.144142      0.065446      4.881636
  C       2.312889      2.580378      4.628336
  H      -0.991347     -4.918055      0.710857
  H       0.326505      2.991202      1.620166
  H      -2.132722     -3.111464     -2.938365
  H      -3.827895     -3.611600     -3.245399
  H      -2.695040     -4.738909     -2.425755
  H      -3.035738     -1.010806     -1.754738
  H      -4.127540     -1.166695     -0.338775
  H      -4.736404     -1.541856     -1.984972
  H      -4.322125     -4.985193     -0.442263
  H      -5.479614     -3.871751     -1.247786
  H      -4.910638     -3.522782      0.421415
  H      -0.542938      0.645885      5.286979
  H      -0.452989      2.423728      5.066344
  H       0.418372      1.645310      6.429495
  H       1.494016     -0.827614      4.792514
  H       2.490612      0.134249      5.934581
  H       3.030740     -0.085260      4.233867
  H       1.783046      3.515074      4.356929
  H       3.200695      2.480030      3.972940
  H       2.663378      2.676607      5.677072
  Si      2.727371     -0.679232     -2.065928
  C       4.334294     -0.323873     -3.020726
  C       3.161530     -1.451734     -0.388915
  C       1.644631     -1.869592     -3.078505
  H       4.972806      0.399028     -2.471351
  H       4.120035      0.109347     -4.020197
  H       4.929325     -1.248041     -3.174592
  H       2.278328     -1.929561      0.086435
  H       3.532374     -0.678394      0.313716
  H       3.942038     -2.232849     -0.509409
  H       0.748660     -2.184457     -2.503435
  H       2.217181     -2.784125     -3.341296
  H       1.305249     -1.402154     -4.027145
  H      -0.229367      0.260798     -1.997702
  C       1.838210      1.006086     -1.869628
  C       0.367940      1.003292     -1.420853
  H       1.932853      1.496440     -2.867983
  H       2.445966      1.621087     -1.168555
  Si     -0.541908      2.677275     -1.590355
  H       0.291395      0.672053     -0.345254
  C       0.422374      4.086951     -0.737583
  C      -2.270516      2.561578     -0.815316
  C      -0.675729      3.091906     -3.437153
  H       0.111124      4.238959      0.317546
  H       0.223982      5.054961     -1.243529
  H       1.518375      3.919097     -0.757520
  H      -2.197366      2.375808      0.275657
  H      -2.863256      1.735004     -1.258605
  H      -2.840150      3.503932     -0.960904
  H       0.327643      3.215530     -3.895908
  H      -1.235457      4.038337     -3.590814
  H      -1.205137      2.290716     -3.994055
69
Coordinates from ORCA-job my_molecule E -2464.466070704293
  Pt     -0.504585     -1.013380      1.058933
  O      -0.194174      0.020800      2.682184
  O      -2.356396     -2.718090      1.469131
  P       0.914447      1.230580      2.707799
  P      -2.047152     -3.138639      0.015798
  O      -1.531983     -4.690526     -0.103796
  O      -0.874955     -2.160886     -0.533716
  O      -0.004330      2.577577      2.445079
  O       2.048990      1.085488      1.718911
  C       1.381172      1.357154      4.491900
  C      -3.456200     -3.089043     -1.167844
  C      -3.012841     -3.660997     -2.528009
  C      -3.870942     -1.609098     -1.301744
  C      -4.600504     -3.923535     -0.556713
  C       0.118800      1.512956      5.358797
  C       2.148125      0.070379      4.856618
  C       2.299202      2.588642      4.626562
  H      -0.958641     -4.910315      0.660861
  H       0.306401      3.011631      1.622553
  H      -2.161740     -3.092094     -2.952620
  H      -3.858845     -3.594950     -3.243341
  H      -2.714380     -4.723883     -2.443983
  H      -3.058787     -1.001074     -1.747224
  H      -4.132457     -1.169532     -0.318887
  H      -4.760926     -1.537183     -1.959951
  H      -4.312324     -4.987636     -0.441383
  H      -5.485276     -3.875265     -1.225585
  H      -4.895628     -3.532614      0.437968
  H      -0.541789      0.629022      5.273095
  H      -0.464293      2.409320      5.069993
  H       0.415532      1.623588      6.422922
  H       1.504171     -0.826316      4.759587
  H       2.495927      0.131313      5.909566
  H       3.034366     -0.067318      4.205706
  H       1.762495      3.522283      4.365276
  H       3.186029      2.500463      3.968164
  H       2.651855      2.677124      5.675275
  Si      2.734408     -0.686892     -2.055275
  C       4.341227     -0.331499     -3.009798
  C       3.169916     -1.449359     -0.373314
  C       1.656554     -1.884151     -3.064269
  H       4.976610      0.396851     -2.464375
  H       4.126683      0.094519     -4.012401
  H       4.939498     -1.254524     -3.156732
  H       2.287751     -1.928320      0.103393
  H       3.536324     -0.670275      0.325459
  H       3.954142     -2.227727     -0.487971
  H       0.754804     -2.191144     -2.494204
  H       2.229002     -2.802301     -3.313441
  H       1.326378     -1.424863     -4.020304
  H      -0.226770      0.256823     -2.000028
  C       1.841647      0.998060     -1.866844
  C       0.371200      0.996432     -1.420425
  H       1.935988      1.484185     -2.867529
  H       2.447609      1.616713     -1.167407
  Si     -0.537819      2.671897     -1.583603
  H       0.292304      0.661633     -0.344393
  C       0.433799      4.081585     -0.739048
  C      -2.261891      2.558282     -0.798331
  C      -0.681776      3.084173     -3.429670
  H       0.117942      4.248068      0.312384
  H       0.247311      5.045906     -1.256343
  H       1.528053      3.903306     -0.749338
  H      -2.183578      2.372606      0.292807
  H      -2.858303      1.732093     -1.238263
  H      -2.830278      3.501611     -0.941237
  H       0.319260      3.207972     -3.893239
  H      -1.242988      4.030187     -3.580940
  H      -1.213370      2.282206     -3.983205
69
Coordinates from ORCA-job my_molecule E -2464.466019891312
  Pt     -0.503056     -1.002733      1.034810
  O      -0.168058      0.018261      2.660800
  O      -2.349040     -2.730427      1.456002
  P       0.924553      1.243284      2.694355
  P      -2.050153     -3.133523     -0.004264
  O      -1.522705     -4.680311     -0.144299
  O      -0.893719     -2.139917     -0.559315
  O      -0.015125      2.577119      2.441009
  O       2.061174      1.123446      1.705587
  C       1.389965      1.363644      4.479486
  C      -3.469281     -3.081943     -1.176650
  C      -3.034848     -3.640156     -2.545987
  C      -3.891193     -1.602864     -1.294916
  C      -4.605089     -3.926700     -0.564400
  C       0.126761      1.487509      5.349841
  C       2.182981      0.089386      4.832172
  C       2.283892      2.611709      4.623973
  H      -0.947375     -4.905079      0.618074
  H       0.290987      3.022314      1.622761
  H      -2.189954     -3.063677     -2.973125
  H      -3.887600     -3.571781     -3.253753
  H      -2.730308     -4.702562     -2.474014
  H      -3.084591     -0.988525     -1.741542
  H      -4.146231     -1.172685     -0.306849
  H      -4.786275     -1.529039     -1.945110
  H      -4.311530     -4.991464     -0.461553
  H      -5.495275     -3.875782     -1.226080
  H      -4.893811     -3.546088      0.436458
  H      -0.516252      0.591403      5.258446
  H      -0.474728      2.374375      5.069681
  H       0.423453      1.595835      6.414187
  H       1.556588     -0.819263      4.729558
  H       2.532509      0.148899      5.884909
  H       3.069822     -0.025219      4.177556
  H       1.727802      3.537067      4.373476
  H       3.170701      2.547736      3.962158
  H       2.637906      2.696583      5.672610
  Si      2.736880     -0.696636     -2.032082
  C       4.341140     -0.336233     -2.988768
  C       3.180243     -1.451077     -0.348052
  C       1.663640     -1.899572     -3.038025
  H       4.973414      0.397602     -2.446443
  H       4.123121      0.084923     -3.992615
  H       4.944097     -1.256887     -3.133047
  H       2.303507     -1.934485      0.133642
  H       3.543066     -0.664714      0.344612
  H       3.969967     -2.224011     -0.460737
  H       0.759131     -2.203067     -2.470966
  H       2.237280     -2.818587     -3.279860
  H       1.337975     -1.445595     -3.997982
  H      -0.229740      0.247588     -1.997768
  C       1.839245      0.985989     -1.846311
  C       0.365553      0.984879     -1.412047
  H       1.939570      1.472636     -2.845901
  H       2.439323      1.603873     -1.141769
  Si     -0.540008      2.662987     -1.577168
  H       0.275467      0.648178     -0.334860
  C       0.438781      4.072652     -0.740691
  C      -2.263336      2.557106     -0.789444
  C      -0.684358      3.067912     -3.424657
  H       0.119423      4.251481      0.307378
  H       0.263317      5.033711     -1.267857
  H       1.531102      3.884208     -0.743001
  H      -2.184793      2.372987      0.302157
  H      -2.863800      1.732646     -1.227322
  H      -2.827600      3.502653     -0.933570
  H       0.317581      3.189793     -3.888768
  H      -1.245316      4.014268     -3.578196
  H      -1.216772      2.263961     -3.975932
69
Coordinates from ORCA-job my_molecule E -2464.466158155356
  Pt     -0.498944     -1.028466      1.064093
  O      -0.212053      0.017149      2.687699
  O      -2.333390     -2.732879      1.474227
  P       0.899035      1.222499      2.708973
  P      -2.035612     -3.147195      0.013914
  O      -1.535112     -4.702864     -0.115665
  O      -0.860354     -2.175911     -0.534924
  O      -0.013913      2.572103      2.443675
  O       2.029727      1.070787      1.716123
  C       1.374207      1.354460      4.490567
  C      -3.454481     -3.079311     -1.158075
  C      -3.025749     -3.644913     -2.527100
  C      -3.859794     -1.595954     -1.279497
  C      -4.600909     -3.909860     -0.545417
  C       0.116453      1.521015      5.362389
  C       2.135614      0.065122      4.857685
  C       2.299762      2.580996      4.616722
  H      -0.953339     -4.930114      0.640887
  H       0.299500      3.002927      1.620664
  H      -2.174635     -3.078979     -2.956306
  H      -3.878401     -3.567922     -3.234606
  H      -2.732861     -4.710641     -2.453676
  H      -3.045762     -0.990514     -1.724878
  H      -4.114095     -1.161472     -0.293383
  H      -4.751636     -1.514163     -1.932764
  H      -4.319857     -4.978394     -0.440927
  H      -5.489547     -3.849167     -1.208556
  H      -4.886627     -3.524265      0.454709
  H      -0.549912      0.640388      5.283493
  H      -0.462848      2.419645      5.072576
  H       0.418696      1.634219      6.424971
  H       1.485343     -0.828352      4.768581
  H       2.490209      0.128986      5.908945
  H       3.017542     -0.080540      4.201819
  H       1.766405      3.516791      4.355486
  H       3.183133      2.486099      3.953231
  H       2.658665      2.670414      5.663462
  Si      2.742968     -0.681297     -2.056757
  C       4.354194     -0.321962     -3.002228
  C       3.171036     -1.445851     -0.373727
  C       1.673668     -1.880276     -3.071940
  H       4.987066      0.405164     -2.451034
  H       4.143982      0.107178     -4.004236
  H       4.953628     -1.244764     -3.149633
  H       2.287119     -1.924614      0.098903
  H       3.534345     -0.668062      0.327880
  H       3.954338     -2.225082     -0.485719
  H       0.771091     -2.191160     -2.505640
  H       2.249987     -2.795832     -3.320197
  H       1.345808     -1.421076     -4.028451
  H      -0.221250      0.249776     -2.004533
  C       1.844893      1.000041     -1.870191
  C       0.373314      0.992601     -1.424342
  H       1.938498      1.486561     -2.870167
  H       2.448091      1.620719     -1.170841
  Si     -0.541062      2.664354     -1.589624
  H       0.294818      0.658274     -0.348719
  C       0.426737      4.076528     -0.745806
  C      -2.264507      2.546404     -0.803874
  C      -0.687653      3.075797     -3.435632
  H       0.110738      4.241686      0.305497
  H       0.237948      5.040379     -1.263216
  H       1.521087      3.900607     -0.755885
  H      -2.185741      2.358522      0.287484
  H      -2.859841      1.720161     -1.245653
  H      -2.833869      3.489056     -0.944809
  H       0.313776      3.202707     -3.900313
  H      -1.252309      4.020539     -3.586408
  H      -1.217358      2.271193     -3.989309
69
Coordinates from ORCA-job my_molecule E -2464.466110702994
  Pt     -0.502302     -1.003811      1.043263
  O      -0.192086      0.029539      2.668524
  O      -2.337331     -2.734523      1.462578
  P       0.911614      1.242953      2.701137
  P      -2.039394     -3.136980      0.000788
  O      -1.515963     -4.684781     -0.140064
  O      -0.879439     -2.147204     -0.552167
  O      -0.010389      2.588600      2.446911
  O       2.046093      1.107190      1.711106
  C       1.379508      1.361644      4.485756
  C      -3.460964     -3.082258     -1.169494
  C      -3.029646     -3.641323     -2.540678
  C      -3.881135     -1.602521     -1.287960
  C      -4.597866     -3.924678     -0.555578
  C       0.117802      1.506700      5.355735
  C       2.152622      0.076168      4.842004
  C       2.292531      2.596010      4.627302
  H      -0.936247     -4.909123      0.617624
  H       0.294043      3.024856      1.623255
  H      -2.185948     -3.065449     -2.971625
  H      -3.885202     -3.572806     -3.245883
  H      -2.724168     -4.703662     -2.469239
  H      -3.074143     -0.988776     -1.735137
  H      -4.135989     -1.171814     -0.300391
  H      -4.775856     -1.528261     -1.937978
  H      -4.305946     -4.990141     -0.452320
  H      -5.488319     -3.872882     -1.216756
  H      -4.885396     -3.542846      0.445111
  H      -0.539325      0.620224      5.265874
  H      -0.469807      2.402417      5.073575
  H       0.416129      1.612341      6.420265
  H       1.511501     -0.822700      4.742299
  H       2.503748      0.133154      5.894671
  H       3.037427     -0.054306      4.187012
  H       1.750100      3.529313      4.376043
  H       3.177949      2.517927      3.964306
  H       2.649083      2.676701      5.675602
  Si      2.738690     -0.693137     -2.044412
  C       4.344166     -0.338090     -3.001144
  C       3.177308     -1.446428     -0.359019
  C       1.664892     -1.896965     -3.048786
  H       4.979467      0.393502     -2.458770
  H       4.127403      0.083875     -4.004757
  H       4.943736     -1.261243     -3.146000
  H       2.298469     -1.927126      0.120351
  H       3.540318     -0.662716      0.336198
  H       3.964513     -2.221713     -0.470473
  H       0.760017     -2.199147     -2.481568
  H       2.237936     -2.816843     -3.288866
  H       1.340010     -1.444644     -4.009486
  H      -0.226735      0.250425     -2.001765
  C       1.842190      0.990513     -1.862395
  C       0.370954      0.988801     -1.419311
  H       1.936654      1.472473     -2.864471
  H       2.445916      1.612479     -1.164724
  Si     -0.538168      2.664633     -1.579764
  H       0.288479      0.651489     -0.342411
  C       0.438251      4.075271     -0.743086
  C      -2.258685      2.552672     -0.787453
  C      -0.689379      3.072855     -3.426017
  H       0.120289      4.252509      0.305783
  H       0.258886      5.036183     -1.269186
  H       1.531236      3.890437     -0.747614
  H      -2.176780      2.367277      0.304057
  H      -2.857649      1.726826     -1.224862
  H      -2.825999      3.496614     -0.928896
  H       0.310800      3.197613     -3.893106
  H      -1.252756      4.018108     -3.576463
  H      -1.221716      2.268604     -3.977060
69
Coordinates from ORCA-job my_molecule E -2464.466140883223
  Pt     -0.507567     -0.977993      1.017019
  O      -0.182988      0.047079      2.644107
  O      -2.326792     -2.741364      1.448519
  P       0.915097      1.265609      2.689250
  P      -2.036839     -3.126714     -0.017895
  O      -1.493177     -4.665907     -0.178145
  O      -0.895758     -2.117000     -0.576813
  O      -0.012736      2.610128      2.450534
  O       2.050472      1.144940      1.698738
  C       1.380401      1.367260      4.475673
  C      -3.467564     -3.080245     -1.177329
  C      -3.042026     -3.630414     -2.553224
  C      -3.899831     -1.603332     -1.286929
  C      -4.592780     -3.933937     -0.557836
  C       0.116912      1.491984      5.346082
  C       2.163032      0.083502      4.816994
  C       2.283666      2.606828      4.633133
  H      -0.905938     -4.889476      0.574279
  H       0.281654      3.051146      1.625715
  H      -2.205383     -3.046640     -2.986866
  H      -3.902355     -3.565390     -3.252342
  H      -2.728645     -4.690619     -2.488047
  H      -3.100386     -0.981986     -1.737375
  H      -4.149872     -1.178494     -0.295355
  H      -4.800361     -1.532883     -1.929613
  H      -4.291225     -4.996940     -0.460067
  H      -5.488914     -3.887864     -1.211817
  H      -4.875473     -3.557732      0.446309
  H      -0.533223      0.601794      5.244207
  H      -0.477240      2.386714      5.074693
  H       0.413433      1.586729      6.412078
  H       1.528923     -0.818835      4.705615
  H       2.512697      0.130434      5.870477
  H       3.049149     -0.032131      4.161209
  H       1.734190      3.538945      4.393671
  H       3.169759      2.544268      3.969880
  H       2.639337      2.676808      5.682372
  Si      2.739331     -0.704913     -2.029888
  C       4.341098     -0.352593     -2.993559
  C       3.185095     -1.445230     -0.340227
  C       1.665221     -1.915674     -3.025300
  H       4.976081      0.384808     -2.459237
  H       4.120089      0.060601     -4.000009
  H       4.942595     -1.275185     -3.132565
  H       2.309111     -1.926612      0.144432
  H       3.546307     -0.654757      0.348449
  H       3.976193     -2.217354     -0.447986
  H       0.755701     -2.208273     -2.460489
  H       2.236229     -2.840079     -3.252685
  H       1.347211     -1.472137     -3.992657
  H      -0.229464      0.247888     -1.996815
  C       1.841683      0.979953     -1.854953
  C       0.371079      0.982797     -1.413597
  H       1.935518      1.456501     -2.860010
  H       2.445257      1.605117     -1.159893
  Si     -0.535801      2.661181     -1.568951
  H       0.285716      0.643382     -0.335116
  C       0.449084      4.073003     -0.743703
  C      -2.251466      2.553274     -0.766170
  C      -0.696483      3.063378     -3.415310
  H       0.128442      4.266840      0.301395
  H       0.280384      5.028806     -1.282461
  H       1.540418      3.878307     -0.740124
  H      -2.163666      2.372632      0.325268
  H      -2.853346      1.725950     -1.196335
  H      -2.818803      3.497089     -0.908577
  H       0.301370      3.186444     -3.887051
  H      -1.260103      4.008385     -3.565277
  H      -1.231731      2.258199     -3.961501
69
Coordinates from ORCA-job my_molecule E -2464.466078213753
  Pt     -0.508568     -0.959304      0.998098
  O      -0.153738      0.051916      2.625602
  O      -2.331503     -2.748946      1.437343
  P       0.932458      1.281832      2.680011
  P      -2.042139     -3.119210     -0.031740
  O      -1.478429     -4.650441     -0.206559
  O      -0.917060     -2.091088     -0.592929
  O      -0.010389      2.616936      2.449370
  O       2.071818      1.181865      1.692801
  C       1.390749      1.375000      4.468972
  C      -3.474590     -3.080939     -1.190084
  C      -3.046869     -3.621199     -2.569236
  C      -3.918806     -1.607190     -1.292700
  C      -4.591659     -3.946563     -0.573159
  C       0.123331      1.474878      5.336657
  C       2.190423      0.099666      4.802137
  C       2.275750      2.625904      4.639964
  H      -0.893073     -4.874819      0.547967
  H       0.278104      3.065471      1.626536
  H      -2.216122     -3.027991     -3.001512
  H      -3.908934     -3.560590     -3.266832
  H      -2.723821     -4.678989     -2.509503
  H      -3.124956     -0.978720     -1.742764
  H      -4.168708     -1.188222     -0.298795
  H      -4.821735     -1.540760     -1.932339
  H      -4.281178     -5.008036     -0.481190
  H      -5.489267     -3.904706     -1.225577
  H      -4.875487     -3.577538      0.433558
  H      -0.513603      0.576540      5.225213
  H      -0.482500      2.363320      5.070795
  H       0.415315      1.565284      6.404169
  H       1.569028     -0.810615      4.683056
  H       2.537762      0.143794      5.856645
  H       3.079002      0.001156      4.146917
  H       1.713064      3.552231      4.408614
  H       3.163953      2.582953      3.977803
  H       2.628672      2.690837      5.690486
  Si      2.733008     -0.716636     -2.012516
  C       4.330262     -0.366694     -2.984240
  C       3.188041     -1.448443     -0.321417
  C       1.655902     -1.930141     -3.000520
  H       4.967001      0.373873     -2.456096
  H       4.103880      0.041713     -3.991449
  H       4.932065     -1.289402     -3.122032
  H       2.317055     -1.931161      0.170473
  H       3.550324     -0.652267      0.360288
  H       3.982027     -2.217683     -0.429310
  H       0.744686     -2.216518     -2.435787
  H       2.224467     -2.856958     -3.222549
  H       1.340311     -1.491181     -3.970673
  H      -0.236443      0.246466     -1.991851
  C       1.837113      0.969722     -1.840084
  C       0.365458      0.977784     -1.405363
  H       1.934134      1.444129     -2.845807
  H       2.439699      1.594150     -1.143877
  Si     -0.536089      2.660085     -1.559983
  H       0.271831      0.636620     -0.324982
  C       0.456825      4.070730     -0.742341
  C      -2.250574      2.559225     -0.754174
  C      -0.697797      3.056048     -3.407623
  H       0.134943      4.275242      0.300045
  H       0.296866      5.023521     -1.289031
  H       1.546233      3.867744     -0.734157
  H      -2.162159      2.379595      0.337953
  H      -2.856446      1.733418     -1.182556
  H      -2.814072      3.505142     -0.897221
  H       0.300370      3.176816     -3.880336
  H      -1.260644      4.001648     -3.559246
  H      -1.234573      2.249696     -3.951335
69
Coordinates from ORCA-job my_molecule E -2464.465961729989
  Pt     -0.510043     -0.957506      1.005382
  O      -0.126270      0.044635      2.628220
  O      -2.366272     -2.746829      1.441471
  P       0.954731      1.281414      2.682594
  P      -2.058090     -3.119130     -0.021111
  O      -1.482423     -4.647436     -0.186385
  O      -0.932261     -2.086673     -0.578173
  O       0.002029      2.608741      2.446589
  O       2.099408      1.188939      1.701533
  C       1.403015      1.377561      4.474137
  C      -3.474703     -3.091641     -1.198563
  C      -3.027538     -3.633844     -2.569934
  C      -3.924445     -1.620251     -1.310645
  C      -4.594464     -3.960927     -0.592361
  C       0.130772      1.470148      5.335345
  C       2.208902      0.107386      4.812038
  C       2.279311      2.634268      4.648720
  H      -0.911154     -4.868778      0.579983
  H       0.292457      3.060598      1.626164
  H      -2.194728     -3.037152     -2.993037
  H      -3.880727     -3.580182     -3.278532
  H      -2.699994     -4.689681     -2.502677
  H      -3.129117     -0.990053     -1.755246
  H      -4.185072     -1.198854     -0.320315
  H      -4.821892     -1.559647     -1.958971
  H      -4.279910     -5.020288     -0.493623
  H      -5.484766     -3.925505     -1.255061
  H      -4.891446     -3.590604      0.409979
  H      -0.499708      0.567868      5.221148
  H      -0.479167      2.354463      5.065660
  H       0.416622      1.563217      6.404108
  H       1.594190     -0.806903      4.690512
  H       2.550235      0.154541      5.868045
  H       3.101410      0.013718      4.161929
  H       1.712403      3.556845      4.413075
  H       3.171251      2.596027      3.991962
  H       2.625617      2.702866      5.701149
  Si      2.720440     -0.718517     -2.011264
  C       4.314327     -0.372053     -2.989865
  C       3.181312     -1.454220     -0.323415
  C       1.634218     -1.926129     -2.996855
  H       4.955332      0.366140     -2.463881
  H       4.084160      0.038410     -3.995484
  H       4.913035     -1.295957     -3.131709
  H       2.312351     -1.936736      0.172656
  H       3.549143     -0.658872      0.356550
  H       3.974244     -2.224088     -0.436629
  H       0.725883     -2.212259     -2.427484
  H       2.199049     -2.853490     -3.226275
  H       1.313326     -1.482629     -3.963384
  H      -0.243731      0.254744     -1.989013
  C       1.831887      0.970860     -1.833037
  C       0.359615      0.983822     -1.401767
  H       1.932427      1.448387     -2.837112
  H       2.435724      1.590286     -1.133429
  Si     -0.536012      2.669346     -1.559753
  H       0.261276      0.643155     -0.321204
  C       0.458219      4.076891     -0.738270
  C      -2.254489      2.574044     -0.762054
  C      -0.687518      3.064644     -3.408646
  H       0.137904      4.276688      0.305489
  H       0.296923      5.031875     -1.280767
  H       1.547759      3.874332     -0.733569
  H      -2.171373      2.394550      0.330280
  H      -2.861053      1.750161     -1.192895
  H      -2.814658      3.521501     -0.907946
  H       0.313073      3.182314     -3.876707
  H      -1.246818      4.011816     -3.563389
  H      -1.224137      2.259631     -3.954279
69
Coordinates from ORCA-job my_molecule E -2464.465939500089
  Pt     -0.508153     -0.982782      1.031207
  O      -0.143979      0.030473      2.651987
  O      -2.377410     -2.739144      1.455774
  P       0.946035      1.259470      2.693611
  P      -2.061273     -3.128380     -0.002316
  O      -1.507130     -4.666112     -0.148804
  O      -0.915699     -2.116523     -0.554042
  O       0.002353      2.590650      2.444423
  O       2.088134      1.149049      1.710922
  C       1.399666      1.371005      4.482806
  C      -3.469465     -3.091923     -1.188815
  C      -3.017351     -3.642237     -2.555175
  C      -3.906819     -1.617612     -1.308206
  C      -4.600050     -3.950826     -0.587657
  C       0.130634      1.487297      5.345656
  C       2.193059      0.096472      4.833699
  C       2.289715      2.620329      4.640509
  H      -0.938749     -4.888027      0.620926
  H       0.301959      3.036861      1.624192
  H      -2.176603     -3.053806     -2.973849
  H      -3.864810     -3.583441     -3.270098
  H      -2.699835     -4.700966     -2.482596
  H      -3.104494     -0.994758     -1.749982
  H      -4.170644     -1.191016     -0.320920
  H      -4.799757     -1.552489     -1.962505
  H      -4.294711     -5.012901     -0.484866
  H      -5.485729     -3.908997     -1.256343
  H      -4.900524     -3.575878      0.412311
  H      -0.509947      0.590760      5.243735
  H      -0.470421      2.374853      5.067205
  H       0.419942      1.589473      6.412561
  H       1.568566     -0.812821      4.724319
  H       2.537570      0.152287      5.888437
  H       3.083094     -0.013869      4.182703
  H       1.732578      3.545939      4.393513
  H       3.180244      2.563635      3.983245
  H       2.637891      2.698866      5.691625
  Si      2.723681     -0.705173     -2.027298
  C       4.321993     -0.355266     -2.997709
  C       3.176287     -1.453259     -0.342746
  C       1.639141     -1.907475     -3.021825
  H       4.961942      0.378195     -2.463730
  H       4.096660      0.062973     -4.001214
  H       4.919911     -1.279065     -3.143782
  H       2.303464     -1.935730      0.147018
  H       3.544675     -0.664249      0.344131
  H       3.966001     -2.226177     -0.458334
  H       0.735161     -2.203386     -2.450518
  H       2.206787     -2.830157     -3.262484
  H       1.311765     -1.456109     -3.982517
  H      -0.237798      0.255604     -1.992164
  C       1.834864      0.982151     -1.843596
  C       0.362756      0.988897     -1.407336
  H       1.933266      1.463873     -2.845769
  H       2.439114      1.600597     -1.143599
  Si     -0.537783      2.670366     -1.569830
  H       0.270532      0.650590     -0.328655
  C       0.446297      4.078555     -0.737401
  C      -2.260985      2.568573     -0.782098
  C      -0.681300      3.071788     -3.418257
  H       0.128659      4.263080      0.309875
  H       0.273749      5.037950     -1.268584
  H       1.537573      3.886492     -0.740230
  H      -2.183506      2.385698      0.310376
  H      -2.863267      1.744587     -1.219407
  H      -2.822809      3.514893     -0.927849
  H       0.321342      3.193034     -3.882047
  H      -1.242215      4.018372     -3.572763
  H      -1.213843      2.266863     -3.968852
69
Coordinates from ORCA-job my_molecule E -2464.465929468733
  Pt     -0.511725     -0.958869      1.012668
  O      -0.119976      0.038801      2.635514
  O      -2.375883     -2.746883      1.445197
  P       0.959720      1.276783      2.686855
  P      -2.062826     -3.119179     -0.016581
  O      -1.485475     -4.647479     -0.179700
  O      -0.936755     -2.085595     -0.571385
  O       0.005276      2.601783      2.446750
  O       2.105867      1.183992      1.707245
  C       1.406018      1.378200      4.478602
  C      -3.475347     -3.093433     -1.198715
  C      -3.023697     -3.635240     -2.568475
  C      -3.925782     -1.622668     -1.312209
  C      -4.595786     -3.963994     -0.596004
  C       0.132492      1.473132      5.337367
  C       2.211751      0.109337      4.821590
  C       2.281452      2.635753      4.650935
  H      -0.916499     -4.869400      0.590003
  H       0.296159      3.053671      1.626488
  H      -2.190180     -3.037603     -2.988687
  H      -3.874501     -3.582240     -3.279926
  H      -2.695716     -4.691136     -2.500483
  H      -3.129972     -0.992834     -1.755714
  H      -4.188018     -1.200819     -0.322499
  H      -4.822374     -1.562722     -1.962070
  H      -4.280526     -5.023713     -0.497568
  H      -5.484502     -3.928399     -1.261062
  H      -4.895390     -3.594719      0.406362
  H      -0.497260      0.570372      5.224577
  H      -0.477215      2.356332      5.063883
  H       0.416273      1.569508      6.406195
  H       1.596854     -0.805525      4.703856
  H       2.553361      0.160793      5.877613
  H       3.104268      0.013032      4.171719
  H       1.714324      3.557423      4.412067
  H       3.174274      2.596230      3.995435
  H       2.626293      2.707505      5.703583
  Si      2.718725     -0.716925     -2.014815
  C       4.313265     -0.371735     -2.992855
  C       3.178168     -1.456352     -0.328139
  C       1.630292     -1.921121     -3.002054
  H       4.955916      0.363993     -2.465208
  H       4.083598      0.041666     -3.997388
  H       4.910067     -1.296615     -3.137084
  H       2.308698     -1.938629      0.167562
  H       3.547819     -0.662666      0.352843
  H       3.970005     -2.227425     -0.442765
  H       0.722427     -2.207341     -2.432261
  H       2.193774     -2.848389     -3.234398
  H       1.308618     -1.475132     -3.967157
  H      -0.242407      0.256005     -1.990931
  C       1.832836      0.972915     -1.834419
  C       0.360383      0.985176     -1.403417
  H       1.933687      1.451752     -2.837877
  H       2.436955      1.591179     -1.134222
  Si     -0.535950      2.670241     -1.561932
  H       0.261431      0.644173     -0.322988
  C       0.455804      4.077019     -0.736189
  C      -2.256848      2.572911     -0.769236
  C      -0.682817      3.067384     -3.410992
  H       0.135832      4.272759      0.308109
  H       0.292478      5.033490     -1.275490
  H       1.545339      3.876854     -0.733387
  H      -2.176903      2.390767      0.323262
  H      -2.862394      1.749969     -1.204129
  H      -2.816595      3.520611     -0.914405
  H       0.319273      3.186390     -3.876713
  H      -1.242671      4.014623     -3.565733
  H      -1.217780      2.262253     -3.959018
69
Coordinates from ORCA-job my_molecule E -2464.465854998263
  Pt     -0.511449     -0.972651      1.039437
  O      -0.121134      0.026327      2.660998
  O      -2.406291     -2.728271      1.457031
  P       0.964685      1.259760      2.700852
  P      -2.073248     -3.121767      0.004826
  O      -1.507399     -4.656767     -0.129492
  O      -0.928183     -2.105343     -0.543051
  O       0.015969      2.586399      2.446565
  O       2.111637      1.152801      1.723410
  C       1.410354      1.374730      4.491655
  C      -3.467869     -3.098951     -1.198376
  C      -2.997872     -3.651252     -2.558187
  C      -3.913459     -1.627877     -1.328132
  C      -4.599480     -3.962451     -0.605771
  C       0.137552      1.490013      5.349092
  C       2.204659      0.102243      4.847766
  C       2.297261      2.625864      4.650886
  H      -0.954365     -4.874207      0.651741
  H       0.313095      3.032152      1.625232
  H      -2.158998     -3.056976     -2.972812
  H      -3.839658     -3.603670     -3.280954
  H      -2.670511     -4.706495     -2.477669
  H      -3.110955     -1.002591     -1.766435
  H      -4.187874     -1.198297     -0.345011
  H      -4.801269     -1.570837     -1.990244
  H      -4.288888     -5.022118     -0.495917
  H      -5.478279     -3.928529     -1.283640
  H      -4.912752     -3.586020      0.389426
  H      -0.500510      0.591603      5.246237
  H      -0.464535      2.375680      5.066169
  H       0.422199      1.595164      6.416972
  H       1.581647     -0.808268      4.739552
  H       2.546725      0.161467      5.903218
  H       3.096392     -0.008765      4.198897
  H       1.738879      3.550076      4.401109
  H       3.190370      2.570411      3.996561
  H       2.641576      2.706135      5.703035
  Si      2.713699     -0.708095     -2.029609
  C       4.308514     -0.363721     -3.007787
  C       3.170474     -1.457519     -0.347289
  C       1.620368     -1.905680     -3.019727
  H       4.954515      0.366581     -2.476213
  H       4.079738      0.056627     -4.009513
  H       4.901750     -1.290132     -3.158366
  H       2.299428     -1.939304      0.145363
  H       3.542613     -0.669727      0.338919
  H       3.959219     -2.230918     -0.466493
  H       0.717908     -2.198386     -2.444255
  H       2.183484     -2.830420     -3.263986
  H       1.290241     -1.452567     -3.978371
  H      -0.243136      0.260022     -1.990745
  C       1.830978      0.982299     -1.842072
  C       0.359185      0.992296     -1.406190
  H       1.931120      1.464814     -2.843762
  H       2.437794      1.597626     -1.141326
  Si     -0.539026      2.675074     -1.569125
  H       0.265406      0.654266     -0.327214
  C       0.443771      4.081058     -0.731612
  C      -2.264978      2.573010     -0.787696
  C      -0.675481      3.079041     -3.418083
  H       0.127884      4.260088      0.317027
  H       0.267920      5.042663     -1.257628
  H       1.535336      3.892092     -0.738870
  H      -2.191385      2.387509      0.304964
  H      -2.866486      1.750501     -1.229020
  H      -2.825646      3.520138     -0.933255
  H       0.328600      3.198704     -3.878642
  H      -1.233525      4.026966     -3.573040
  H      -1.208305      2.276368     -3.971360
69
Coordinates from ORCA-job my_molecule E -2464.466016862418
  Pt     -0.516022     -0.950176      1.015960
  O      -0.137450      0.048110      2.643755
  O      -2.374547     -2.731012      1.445840
  P       0.951411      1.276149      2.693220
  P      -2.056421     -3.116121     -0.011679
  O      -1.478252     -4.644415     -0.158706
  O      -0.926698     -2.088332     -0.567915
  O       0.013626      2.612670      2.448856
  O       2.099073      1.167091      1.716199
  C       1.396294      1.378433      4.484767
  C      -3.467593     -3.102918     -1.196605
  C      -3.009836     -3.650661     -2.562637
  C      -3.925800     -1.635053     -1.320187
  C      -4.586375     -3.974440     -0.590727
  C       0.122607      1.488465      5.341940
  C       2.188661      0.102199      4.831927
  C       2.284683      2.627100      4.654233
  H      -0.912779     -4.857647      0.612537
  H       0.306476      3.057856      1.625701
  H      -2.180480     -3.050310     -2.987615
  H      -3.860963     -3.608841     -3.274768
  H      -2.673182     -4.703149     -2.486597
  H      -3.132755     -1.003454     -1.767176
  H      -4.192352     -1.208441     -0.333324
  H      -4.821623     -1.584044     -1.972122
  H      -4.267313     -5.031004     -0.484057
  H      -5.473059     -3.947312     -1.257926
  H      -4.891034     -3.600208      0.407160
  H      -0.516769      0.591844      5.230555
  H      -0.477769      2.377607      5.065878
  H       0.406406      1.584034      6.411058
  H       1.564982     -0.806485      4.714559
  H       2.528426      0.152122      5.888196
  H       3.081527     -0.004416      4.184122
  H       1.727992      3.553956      4.410950
  H       3.178382      2.575464      4.000560
  H       2.628386      2.698746      5.707156
  Si      2.714824     -0.717552     -2.030345
  C       4.311318     -0.380469     -3.007761
  C       3.168099     -1.459575     -0.343932
  C       1.620918     -1.916936     -3.017370
  H       4.957949      0.351533     -2.479477
  H       4.085137      0.034195     -4.012432
  H       4.902978     -1.308906     -3.151627
  H       2.295655     -1.938489      0.148455
  H       3.539318     -0.670053      0.340603
  H       3.956578     -2.233583     -0.458593
  H       0.711964     -2.199458     -2.446974
  H       2.180607     -2.847190     -3.248740
  H       1.301307     -1.470367     -3.982616
  H      -0.241371      0.265398     -1.989307
  C       1.835270      0.977361     -1.850271
  C       0.366863      0.994495     -1.407412
  H       1.930760      1.451742     -2.856423
  H       2.447796      1.596093     -1.157249
  Si     -0.529097      2.679706     -1.558879
  H       0.278069      0.654352     -0.326931
  C       0.465415      4.083753     -0.731832
  C      -2.246241      2.579199     -0.758712
  C      -0.684393      3.083811     -3.405867
  H       0.147465      4.276847      0.313824
  H       0.301333      5.041894     -1.267718
  H       1.555141      3.883915     -0.732569
  H      -2.161361      2.392731      0.332970
  H      -2.853411      1.757645     -1.194056
  H      -2.806908      3.527472     -0.897435
  H       0.314315      3.203224     -3.875835
  H      -1.243388      4.031513     -3.554738
  H      -1.222769      2.282292     -3.953837
69
Coordinates from ORCA-job my_molecule E -2464.466119054775
  Pt     -0.519265     -0.960975      1.022787
  O      -0.173590      0.054147      2.649475
  O      -2.356443     -2.733263      1.453326
  P       0.928696      1.268912      2.695424
  P      -2.046221     -3.123447     -0.006085
  O      -1.482934     -4.656811     -0.152786
  O      -0.909473     -2.106344     -0.563280
  O       0.008684      2.617219      2.449392
  O       2.072172      1.140804      1.714886
  C       1.381151      1.373378      4.484821
  C      -3.464094     -3.101283     -1.182120
  C      -3.015690     -3.649700     -2.550657
  C      -3.915531     -1.631309     -1.301392
  C      -4.583820     -3.968475     -0.572200
  C       0.111662      1.502184      5.345142
  C       2.159285      0.089131      4.834549
  C       2.285003      2.612007      4.646720
  H      -0.904648     -4.871425      0.610322
  H       0.305345      3.056324      1.624260
  H      -2.183764     -3.054148     -2.977083
  H      -3.868810     -3.600614     -3.259587
  H      -2.686706     -4.704915     -2.477955
  H      -3.121874     -1.002673     -1.750312
  H      -4.176209     -1.205006     -0.312936
  H      -4.813720     -1.575434     -1.949675
  H      -4.269509     -5.027235     -0.469413
  H      -5.473845     -3.935078     -1.234977
  H      -4.881295     -3.594423      0.428339
  H      -0.539344      0.613617      5.238420
  H      -0.478134      2.397979      5.068345
  H       0.399607      1.597253      6.413042
  H       1.524544     -0.812588      4.722105
  H       2.502739      0.138884      5.889774
  H       3.048909     -0.030047      4.184612
  H       1.739111      3.544495      4.400588
  H       3.176258      2.546407      3.991172
  H       2.632289      2.684217      5.698449
  Si      2.723680     -0.709523     -2.043591
  C       4.326571     -0.371661     -3.010084
  C       3.165368     -1.456617     -0.356071
  C       1.635272     -1.908216     -3.038038
  H       4.969790      0.359017     -2.476235
  H       4.107299      0.044911     -4.015572
  H       4.918835     -1.299875     -3.151344
  H       2.287705     -1.934218      0.129217
  H       3.534818     -0.670907      0.333817
  H       3.951630     -2.233441     -0.467969
  H       0.724584     -2.193095     -2.471608
  H       2.197007     -2.837515     -3.268114
  H       1.318852     -1.460506     -4.004019
  H      -0.231909      0.266444     -1.995604
  C       1.842847      0.983934     -1.866587
  C       0.376142      0.996937     -1.415524
  H       1.931987      1.455803     -2.874422
  H       2.456992      1.606986     -1.179066
  Si     -0.524904      2.679089     -1.562616
  H       0.295060      0.655836     -0.336091
  C       0.467683      4.084256     -0.734969
  C      -2.239659      2.572982     -0.757320
  C      -0.688024      3.087334     -3.407646
  H       0.150292      4.276172      0.310887
  H       0.302162      5.042433     -1.270445
  H       1.557612      3.885950     -0.735875
  H      -2.150971      2.386041      0.333402
  H      -2.845744      1.750279     -1.191570
  H      -2.803761      3.519632     -0.893404
  H       0.308952      3.211874     -3.880905
  H      -1.251646      4.033282     -3.552219
  H      -1.225062      2.284615     -3.955908
69
Coordinates from ORCA-job my_molecule E -2464.466369717887
  Pt     -0.523000     -0.956331      1.005527
  O      -0.215703      0.079856      2.629137
  O      -2.308822     -2.745502      1.451631
  P       0.899815      1.279992      2.684996
  P      -2.024693     -3.128551     -0.015739
  O      -1.466146     -4.660912     -0.180653
  O      -0.895003     -2.110969     -0.582023
  O       0.000483      2.644099      2.451433
  O       2.039011      1.142013      1.700543
  C       1.359188      1.367034      4.473598
  C      -3.465237     -3.099803     -1.164601
  C      -3.041999     -3.644421     -2.543183
  C      -3.917349     -1.629010     -1.271402
  C      -4.575449     -3.967434     -0.537801
  C       0.094204      1.506120      5.339417
  C       2.121090      0.069828      4.811265
  C       2.280509      2.591815      4.641739
  H      -0.865528     -4.876086      0.563298
  H       0.294934      3.078441      1.622973
  H      -2.215522     -3.050107     -2.981931
  H      -3.907335     -3.590174     -3.236994
  H      -2.714773     -4.700594     -2.480056
  H      -3.130329     -0.998365     -1.729687
  H      -4.163480     -1.206642     -0.277634
  H      -4.824936     -1.570589     -1.905969
  H      -4.260560     -5.026586     -0.443013
  H      -5.476677     -3.931661     -1.185178
  H      -4.855439     -3.595554      0.468461
  H      -0.569869      0.627484      5.227514
  H      -0.483924      2.412627      5.072486
  H       0.387115      1.587904      6.407400
  H       1.474603     -0.822439      4.691534
  H       2.466175      0.105921      5.866277
  H       3.008302     -0.055199      4.159116
  H       1.746983      3.533577      4.404324
  H       3.168722      2.518596      3.982709
  H       2.632297      2.651251      5.692855
  Si      2.737261     -0.705401     -2.044912
  C       4.346021     -0.366889     -3.001076
  C       3.168514     -1.447206     -0.352251
  C       1.660530     -1.911095     -3.042681
  H       4.984519      0.366611     -2.465153
  H       4.132713      0.045828     -4.009350
  H       4.940902     -1.294665     -3.135245
  H       2.287274     -1.922883      0.127970
  H       3.533189     -0.660830      0.339204
  H       3.954684     -2.224895     -0.457173
  H       0.743321     -2.192874     -2.485076
  H       2.225550     -2.841876     -3.259007
  H       1.355584     -1.470782     -4.015555
  H      -0.223858      0.268972     -2.002792
  C       1.851446      0.985981     -1.878937
  C       0.385847      0.998850     -1.423419
  H       1.935607      1.450607     -2.890446
  H       2.466029      1.616183     -1.198458
  Si     -0.517658      2.679876     -1.563183
  H       0.308796      0.656130     -0.344091
  C       0.481117      4.087076     -0.746119
  C      -2.224377      2.572146     -0.741946
  C      -0.699015      3.086949     -3.406495
  H       0.162328      4.292482      0.297173
  H       0.323361      5.040154     -1.292835
  H       1.569969      3.881328     -0.740201
  H      -2.126275      2.387212      0.348769
  H      -2.832858      1.747641     -1.169509
  H      -2.790579      3.517701     -0.874932
  H       0.293209      3.214223     -3.888565
  H      -1.266423      4.031225     -3.546287
  H      -1.238386      2.282592     -3.949790
69
Coordinates from ORCA-job my_molecule E -2464.466336408906
  Pt     -0.527255     -0.935364      0.985862
  O      -0.193596      0.087637      2.609996
  O      -2.300464     -2.758629      1.440295
  P       0.911585      1.297658      2.676282
  P      -2.025697     -3.119221     -0.033035
  O      -1.445274     -4.641756     -0.224025
  O      -0.918112     -2.077287     -0.602168
  O      -0.001449      2.654280      2.454269
  O       2.053566      1.180183      1.693013
  C       1.365357      1.373338      4.467237
  C      -3.473709     -3.096716     -1.172441
  C      -3.057724     -3.631986     -2.556565
  C      -3.935449     -1.628492     -1.269198
  C      -4.572594     -3.974903     -0.542062
  C       0.096025      1.489303      5.329955
  C       2.141033      0.081938      4.795153
  C       2.271388      2.607189      4.650897
  H      -0.837338     -4.859550      0.515833
  H       0.284151      3.095851      1.626388
  H      -2.237521     -3.030620     -2.997499
  H      -3.927931     -3.579027     -3.244305
  H      -2.724542     -4.686858     -2.501435
  H      -3.155110     -0.992088     -1.729818
  H      -4.175979     -1.211901     -0.272080
  H      -4.847954     -1.572366     -1.896405
  H      -4.249389     -5.033147     -0.455295
  H      -5.479266     -3.942192     -1.182556
  H      -4.846533     -3.609770      0.468966
  H      -0.556707      0.604174      5.206303
  H      -0.491498      2.391433      5.069593
  H       0.383889      1.564199      6.399614
  H       1.504780     -0.816579      4.666289
  H       2.483539      0.112925      5.851422
  H       3.030899     -0.027585      4.143884
  H       1.726796      3.544986      4.423112
  H       3.161804      2.552665      3.993003
  H       2.620472      2.659133      5.703362
  Si      2.736210     -0.715223     -2.029396
  C       4.341736     -0.378932     -2.991731
  C       3.174254     -1.447410     -0.333768
  C       1.658852     -1.925413     -3.020529
  H       4.980756      0.358472     -2.462059
  H       4.123653      0.028039     -4.001377
  H       4.937647     -1.306296     -3.123245
  H       2.296369     -1.923507      0.152763
  H       3.539906     -0.655185      0.350843
  H       3.963144     -2.223049     -0.436825
  H       0.737809     -2.199087     -2.465714
  H       2.221542     -2.859457     -3.227936
  H       1.359583     -1.491297     -3.998103
  H      -0.226433      0.264918     -2.003167
  C       1.850881      0.975848     -1.868541
  C       0.383866      0.990946     -1.419534
  H       1.936258      1.437276     -2.881349
  H       2.462716      1.608243     -1.188203
  Si     -0.517086      2.674678     -1.556094
  H       0.298404      0.644780     -0.338508
  C       0.488028      4.082097     -0.746938
  C      -2.221709      2.570944     -0.730569
  C      -0.701381      3.075383     -3.400434
  H       0.166229      4.301358      0.292287
  H       0.340135      5.030490     -1.304617
  H       1.574920      3.868174     -0.732982
  H      -2.121135      2.389756      0.359918
  H      -2.832090      1.745996     -1.153768
  H      -2.787397      3.516556     -0.865617
  H       0.291119      3.202258     -3.883968
  H      -1.269915      4.019327     -3.541652
  H      -1.241059      2.268466     -3.941033
69
Coordinates from ORCA-job my_molecule E -2464.466268110527
  Pt     -0.520001     -0.907662      0.953871
  O      -0.144999      0.094092      2.580070
  O      -2.299161     -2.761440      1.419788
  P       0.940777      1.322410      2.663373
  P      -2.028724     -3.107519     -0.053715
  O      -1.414936     -4.615121     -0.259445
  O      -0.945262     -2.039615     -0.628605
  O       0.005460      2.665906      2.451821
  O       2.090298      1.237373      1.687400
  C       1.378121      1.381571      4.459577
  C      -3.479505     -3.106645     -1.191514
  C      -3.061322     -3.643191     -2.574389
  C      -3.958414     -1.643282     -1.293687
  C      -4.567309     -3.993394     -0.552744
  C       0.099672      1.461889      5.314143
  C       2.174318      0.099712      4.776279
  C       2.260141      2.629091      4.667355
  H      -0.815169     -4.826978      0.483488
  H       0.285371      3.118126      1.627848
  H      -2.249709     -3.034352     -3.020762
  H      -3.934622     -3.604003     -3.259284
  H      -2.714666     -4.693043     -2.515172
  H      -3.186088     -0.999624     -1.760310
  H      -4.199765     -1.225062     -0.296625
  H      -4.874362     -1.599248     -1.917516
  H      -4.231528     -5.045459     -0.458857
  H      -5.475763     -3.977336     -1.190561
  H      -4.843482     -3.625204      0.455363
  H      -0.535789      0.566629      5.172685
  H      -0.502222      2.356825      5.061457
  H       0.378306      1.526921      6.387255
  H       1.555831     -0.807827      4.628454
  H       2.505820      0.121302      5.835626
  H       3.072145      0.015159      4.132519
  H       1.700518      3.559931      4.448164
  H       3.156457      2.600480      4.016390
  H       2.599903      2.672468      5.723348
  Si      2.721071     -0.733356     -2.006745
  C       4.316822     -0.403436     -2.987074
  C       3.176940     -1.451536     -0.309989
  C       1.634536     -1.946359     -2.983546
  H       4.961821      0.337341     -2.469672
  H       4.088173     -0.003805     -3.997347
  H       4.910785     -1.332073     -3.118266
  H       2.306738     -1.926605      0.189762
  H       3.546458     -0.651450      0.363262
  H       3.968302     -2.223910     -0.414906
  H       0.712964     -2.211385     -2.425389
  H       2.192283     -2.884333     -3.186134
  H       1.335540     -1.517829     -3.963551
  H      -0.242679      0.273265     -1.993032
  C       1.840412      0.963466     -1.846071
  C       0.372732      0.992805     -1.407176
  H       1.933443      1.423849     -2.858849
  H       2.452952      1.590626     -1.161279
  Si     -0.514535      2.685081     -1.543566
  H       0.275898      0.645977     -0.323870
  C       0.503173      4.088213     -0.743099
  C      -2.217316      2.594480     -0.714628
  C      -0.697464      3.077819     -3.389983
  H       0.178674      4.319614      0.293518
  H       0.366630      5.033300     -1.308957
  H       1.588520      3.863021     -0.722627
  H      -2.116141      2.414737      0.377092
  H      -2.833762      1.771882     -1.134815
  H      -2.776317      3.543793     -0.851034
  H       0.294259      3.195128     -3.873709
  H      -1.258674      4.024534     -3.535930
  H      -1.242582      2.273265     -3.925480
69
Coordinates from ORCA-job my_molecule E -2464.466189926336
  Pt     -0.521082     -0.892813      0.944829
  O      -0.112805      0.091867      2.571723
  O      -2.301591     -2.770387      1.414378
  P       0.960268      1.331560      2.661300
  P      -2.033967     -3.101064     -0.062456
  O      -1.400965     -4.600214     -0.284227
  O      -0.968543     -2.013032     -0.637184
  O       0.009679      2.664634      2.452436
  O       2.115195      1.264087      1.690169
  C       1.387414      1.387862      4.460209
  C      -3.485492     -3.108610     -1.199086
  C      -3.067622     -3.640559     -2.583678
  C      -3.971143     -1.647591     -1.298210
  C      -4.566493     -4.002276     -0.560003
  C       0.102828      1.448930      5.306675
  C       2.196860      0.114332      4.776110
  C       2.252369      2.645032      4.679774
  H      -0.801038     -4.814792      0.461191
  H       0.283081      3.123188      1.629771
  H      -2.261114     -3.025656     -3.031362
  H      -3.942649     -3.605790     -3.266469
  H      -2.714222     -4.688511     -2.527022
  H      -3.202391     -1.001644     -1.766000
  H      -4.210229     -1.230983     -0.300502
  H      -4.889027     -1.606435     -1.918748
  H      -4.224433     -5.053512     -0.468671
  H      -5.476324     -3.990293     -1.196199
  H      -4.841953     -3.636948      0.449797
  H      -0.520011      0.546623      5.156380
  H      -0.508193      2.337427      5.053582
  H       0.373309      1.512735      6.381657
  H       1.589393     -0.799836      4.622714
  H       2.523639      0.136422      5.837211
  H       3.098406      0.042128      4.136016
  H       1.681965      3.569952      4.463118
  H       3.152541      2.632077      4.033507
  H       2.585914      2.686609      5.737728
  Si      2.715203     -0.741099     -1.998286
  C       4.307049     -0.416202     -2.986537
  C       3.177905     -1.455975     -0.301796
  C       1.621180     -1.951094     -2.970668
  H       4.956394      0.323851     -2.473703
  H       4.073691     -0.017513     -3.996129
  H       4.898063     -1.346364     -3.119734
  H       2.310762     -1.930857      0.203887
  H       3.550736     -0.653086      0.366648
  H       3.970267     -2.227510     -0.408306
  H       0.698019     -2.209268     -2.412565
  H       2.173704     -2.892109     -3.172435
  H       1.323903     -1.522678     -3.951413
  H      -0.244336      0.273732     -1.993193
  C       1.839947      0.958202     -1.835930
  C       0.371105      0.990184     -1.403640
  H       1.936553      1.419583     -2.848053
  H       2.451161      1.582958     -1.147856
  Si     -0.513701      2.684684     -1.539581
  H       0.266543      0.640755     -0.318814
  C       0.505011      4.086560     -0.738400
  C      -2.219299      2.595875     -0.716187
  C      -0.689427      3.074305     -3.387309
  H       0.178159      4.321766      0.295746
  H       0.372775      5.030723     -1.307021
  H       1.588983      3.858837     -0.714297
  H      -2.121286      2.416985      0.375141
  H      -2.835176      1.773924     -1.137424
  H      -2.777602      3.545466     -0.854918
  H       0.305336      3.190259     -3.867316
  H      -1.249534      4.021681     -3.536152
  H      -1.233663      2.268900     -3.924220
69
Coordinates from ORCA-job my_molecule E -2464.466106688204
  Pt     -0.517942     -0.885732      0.943978
  O      -0.085831      0.085214      2.572030
  O      -2.315128     -2.772991      1.413442
  P       0.977431      1.333628      2.664451
  P      -2.038569     -3.098903     -0.061070
  O      -1.386594     -4.589934     -0.281154
  O      -0.982553     -1.999388     -0.635075
  O       0.017990      2.659361      2.450312
  O       2.139050      1.275399      1.701030
  C       1.392276      1.392573      4.466410
  C      -3.484202     -3.121627     -1.205612
  C      -3.056100     -3.656070     -2.585683
  C      -3.979911     -1.664233     -1.312873
  C      -4.562036     -4.019907     -0.567120
  C       0.101559      1.445386      5.304532
  C       2.207516      0.124010      4.787923
  C       2.248087      2.655278      4.691434
  H      -0.797143     -4.799868      0.470998
  H       0.292022      3.122217      1.630323
  H      -2.252697     -3.036619     -3.032402
  H      -3.928588     -3.631180     -3.272312
  H      -2.694475     -4.700678     -2.522937
  H      -3.214207     -1.014963     -1.782029
  H      -4.223898     -1.244725     -0.317026
  H      -4.897184     -1.631710     -1.935483
  H      -4.213117     -5.067556     -0.469476
  H      -5.469340     -4.017581     -1.206885
  H      -4.844358     -3.652406      0.439596
  H      -0.514691      0.539155      5.149815
  H      -0.513239      2.330089      5.047365
  H       0.364662      1.510645      6.381422
  H       1.606641     -0.793844      4.630795
  H       2.527172      0.148227      5.850947
  H       3.113696      0.056993      4.153959
  H       1.673737      3.576604      4.470162
  H       3.152791      2.647689      4.051702
  H       2.573908      2.699432      5.751834
  Si      2.701648     -0.746987     -2.000881
  C       4.290068     -0.430616     -2.997321
  C       3.169456     -1.463253     -0.306312
  C       1.596563     -1.950614     -2.968464
  H       4.946464      0.305537     -2.487935
  H       4.053272     -0.030167     -4.005451
  H       4.874984     -1.364121     -3.134111
  H       2.304699     -1.936761      0.204157
  H       3.547682     -0.661158      0.360143
  H       3.960031     -2.235841     -0.416877
  H       0.673917     -2.203472     -2.406928
  H       2.142632     -2.894949     -3.173074
  H       1.298026     -1.520011     -3.947837
  H      -0.251522      0.285337     -1.992046
  C       1.836379      0.957906     -1.834120
  C       0.368164      0.998246     -1.402904
  H       1.935699      1.420442     -2.845495
  H       2.451322      1.577389     -1.144747
  Si     -0.508295      2.697311     -1.537409
  H       0.260872      0.647920     -0.317685
  C       0.515172      4.092631     -0.731579
  C      -2.215503      2.614338     -0.718256
  C      -0.677745      3.089634     -3.385300
  H       0.186554      4.325168      0.303142
  H       0.386683      5.039244     -1.296905
  H       1.599009      3.861314     -0.706691
  H      -2.120657      2.430336      0.373053
  H      -2.834770      1.797182     -1.144278
  H      -2.768208      3.567390     -0.854320
  H       0.317797      3.201073     -3.862582
  H      -1.232675      4.039565     -3.534678
  H      -1.224452      2.287999     -3.923633
69
Coordinates from ORCA-job my_molecule E -2464.466025935000
  Pt     -0.521687     -0.887045      0.962835
  O      -0.070573      0.070288      2.592618
  O      -2.342130     -2.768270      1.422472
  P       0.988672      1.322254      2.677174
  P      -2.049074     -3.096144     -0.048767
  O      -1.389460     -4.585988     -0.257891
  O      -0.992721     -1.993663     -0.617569
  O       0.025447      2.642867      2.450037
  O       2.154803      1.260977      1.718712
  C       1.397541      1.395353      4.479764
  C      -3.482975     -3.127491     -1.207224
  C      -3.040443     -3.662209     -2.582612
  C      -3.983870     -1.672702     -1.320861
  C      -4.562217     -4.029771     -0.577171
  C       0.104071      1.454938      5.312828
  C       2.211745      0.129423      4.813689
  C       2.252607      2.659469      4.697964
  H      -0.809547     -4.794885      0.504560
  H       0.301307      3.105054      1.630260
  H      -2.237472     -3.038791     -3.024646
  H      -3.907372     -3.644302     -3.276225
  H      -2.673053     -4.704572     -2.514779
  H      -3.217776     -1.022307     -1.786736
  H      -4.235550     -1.251812     -0.327873
  H      -4.896978     -1.645022     -1.949230
  H      -4.209972     -5.076453     -0.476431
  H      -5.464026     -4.030757     -1.224568
  H      -4.854349     -3.663159      0.427262
  H      -0.511681      0.547644      5.162810
  H      -0.509837      2.337633      5.046702
  H       0.363114      1.528390      6.390017
  H       1.611386     -0.789625      4.662373
  H       2.528617      0.162331      5.877261
  H       3.119623      0.057296      4.182722
  H       1.679656      3.579068      4.466236
  H       3.160185      2.645855      4.062474
  H       2.573364      2.712805      5.759263
  Si      2.695401     -0.744877     -2.014108
  C       4.284173     -0.434555     -3.011929
  C       3.160693     -1.469563     -0.322563
  C       1.581132     -1.939017     -2.983059
  H       4.945915      0.295249     -2.500401
  H       4.048221     -0.028062     -4.017819
  H       4.863038     -1.371009     -3.153853
  H       2.294797     -1.942461      0.187012
  H       3.542592     -0.671711      0.346872
  H       3.948809     -2.244453     -0.436596
  H       0.659770     -2.189852     -2.418620
  H       2.121896     -2.884910     -3.194188
  H       1.280350     -1.502644     -3.959281
  H      -0.249376      0.288780     -1.991701
  C       1.838437      0.962794     -1.840893
  C       0.371220      1.002871     -1.405142
  H       1.936312      1.427745     -2.851425
  H       2.456907      1.579375     -1.151823
  Si     -0.506632      2.700737     -1.541029
  H       0.267049      0.653788     -0.320276
  C       0.510839      4.093672     -0.723799
  C      -2.219302      2.613532     -0.733462
  C      -0.664720      3.099030     -3.388759
  H       0.182294      4.315344      0.312676
  H       0.377356      5.044882     -1.280363
  H       1.595298      3.867653     -0.703007
  H      -2.130835      2.424879      0.356852
  H      -2.835526      1.798441     -1.167039
  H      -2.772226      3.566741     -0.868446
  H       0.334260      3.211189     -3.860144
  H      -1.217919      4.050149     -3.537716
  H      -1.209598      2.299587     -3.933423
69
Coordinates from ORCA-job my_molecule E -2464.466107148451
  Pt     -0.529320     -0.888342      0.960836
  O      -0.099448      0.083833      2.588735
  O      -2.326821     -2.770464      1.424094
  P       0.970897      1.325943      2.673416
  P      -2.043520     -3.100715     -0.049382
  O      -1.397082     -4.595547     -0.262710
  O      -0.981528     -2.005788     -0.619755
  O       0.018856      2.656314      2.455353
  O       2.131151      1.256111      1.707944
  C       1.389601      1.391162      4.474043
  C      -3.483562     -3.121800     -1.200070
  C      -3.050460     -3.658072     -2.577781
  C      -3.975050     -1.663751     -1.310571
  C      -4.565382     -4.017740     -0.566236
  C       0.100526      1.457504      5.313023
  C       2.196414      0.118662      4.800466
  C       2.254382      2.648749      4.691759
  H      -0.805696     -4.806229      0.491596
  H       0.293083      3.115250      1.633069
  H      -2.244296     -3.040018     -3.021780
  H      -3.919581     -3.632481     -3.268191
  H      -2.690853     -4.703284     -2.512646
  H      -3.205672     -1.017566     -1.776075
  H      -4.222549     -1.242477     -0.316913
  H      -4.888688     -1.629871     -1.937711
  H      -4.219120     -5.066647     -0.467216
  H      -5.469763     -4.013278     -1.209938
  H      -4.850865     -3.649325      0.439363
  H      -0.522033      0.555001      5.163145
  H      -0.508316      2.345197      5.052166
  H       0.364790      1.526210      6.389102
  H       1.589416     -0.795805      4.648335
  H       2.517262      0.145995      5.862853
  H       3.101366      0.042388      4.166035
  H       1.686978      3.572933      4.465216
  H       3.158737      2.630391      4.052224
  H       2.580279      2.697083      5.751613
  Si      2.706315     -0.740824     -2.013277
  C       4.297256     -0.424558     -3.005767
  C       3.168108     -1.463212     -0.319834
  C       1.601014     -1.940606     -2.985897
  H       4.953723      0.309238     -2.493177
  H       4.063198     -0.021131     -4.013381
  H       4.880967     -1.358539     -3.143744
  H       2.300087     -1.936308      0.186067
  H       3.546684     -0.664650      0.350716
  H       3.957585     -2.237290     -0.430546
  H       0.677652     -2.193563     -2.425935
  H       2.146160     -2.884959     -3.192334
  H       1.303594     -1.507145     -3.964506
  H      -0.243930      0.285322     -1.999413
  C       1.842271      0.963613     -1.845156
  C       0.374599      0.999297     -1.410438
  H       1.938752      1.426628     -2.856865
  H       2.458207      1.584425     -1.157186
  Si     -0.507671      2.695284     -1.541797
  H       0.270571      0.647259     -0.326116
  C       0.510847      4.091295     -0.731181
  C      -2.215791      2.605079     -0.724409
  C      -0.677329      3.091914     -3.388634
  H       0.182788      4.319545      0.303810
  H       0.378952      5.039300     -1.293577
  H       1.594660      3.864095     -0.708369
  H      -2.120734      2.420204      0.365532
  H      -2.831727      1.786807     -1.151849
  H      -2.772730      3.556170     -0.859411
  H       0.318938      3.208357     -3.865371
  H      -1.235944      4.040387     -3.535562
  H      -1.221205      2.289040     -3.929802
69
Coordinates from ORCA-job my_molecule E -2464.466142293243
  Pt     -0.528553     -0.904358      0.970751
  O      -0.125753      0.086979      2.594110
  O      -2.331087     -2.761747      1.431387
  P       0.957345      1.318747      2.673608
  P      -2.043866     -3.107691     -0.038292
  O      -1.418688     -4.612654     -0.236328
  O      -0.961391     -2.033263     -0.607599
  O       0.017379      2.658055      2.456858
  O       2.111401      1.235795      1.702216
  C       1.385985      1.383232      4.471858
  C      -3.479657     -3.117122     -1.194238
  C      -3.044921     -3.659441     -2.569350
  C      -3.959363     -1.655379     -1.309514
  C      -4.571915     -4.003054     -0.563295
  C       0.102538      1.466268      5.318161
  C       2.180551      0.102675      4.797261
  C       2.266171      2.631842      4.680709
  H      -0.827575     -4.822585      0.516752
  H       0.295137      3.110903      1.632419
  H      -2.231476     -3.049250     -3.010658
  H      -3.910945     -3.627470     -3.263642
  H      -2.694588     -4.707608     -2.500938
  H      -3.182879     -1.014510     -1.771598
  H      -4.210464     -1.231109     -0.317774
  H      -4.868873     -1.616065     -1.942596
  H      -4.234649     -5.054386     -0.460895
  H      -5.473500     -3.992234     -1.211005
  H      -4.859115     -3.630614      0.440457
  H      -0.531452      0.570513      5.174981
  H      -0.497827      2.360108      5.058599
  H       0.374147      1.534942      6.392586
  H       1.562781     -0.805544      4.650429
  H       2.507087      0.128872      5.858048
  H       3.081418      0.015249      4.158338
  H       1.707326      3.561665      4.455286
  H       3.166223      2.601851      4.035079
  H       2.599608      2.679062      5.738500
  Si      2.713731     -0.731126     -2.015910
  C       4.306856     -0.407495     -3.003014
  C       3.172206     -1.455070     -0.322267
  C       1.616767     -1.936423     -2.991399
  H       4.957859      0.329131     -2.487653
  H       4.074871     -0.004616     -4.011261
  H       4.895525     -1.338636     -3.139233
  H       2.302370     -1.929165      0.179606
  H       3.547854     -0.657950      0.351465
  H       3.961572     -2.229242     -0.432084
  H       0.696261     -2.198260     -2.430155
  H       2.168806     -2.876574     -3.200570
  H       1.314824     -1.502772     -3.968439
  H      -0.242212      0.282290     -2.001073
  C       1.841808      0.968846     -1.849958
  C       0.373914      0.999316     -1.413258
  H       1.936616      1.431864     -2.861491
  H       2.455537      1.592522     -1.163163
  Si     -0.512746      2.692321     -1.546925
  H       0.273942      0.648937     -0.330450
  C       0.501711      4.092308     -0.737647
  C      -2.219615      2.599230     -0.726925
  C      -0.686703      3.089208     -3.393542
  H       0.176859      4.316787      0.299760
  H       0.362471      5.040461     -1.297924
  H       1.587378      3.870667     -0.719805
  H      -2.122716      2.418391      0.363801
  H      -2.833312      1.777328     -1.150834
  H      -2.779744      3.547855     -0.864513
  H       0.307798      3.208026     -3.872395
  H      -1.247749      4.036068     -3.540009
  H      -1.229300      2.285103     -3.933406
69
Coordinates from ORCA-job my_molecule E -2464.466055631666
  Pt     -0.524609     -0.875377      0.943916
  O      -0.086554      0.091424      2.573583
  O      -2.320226     -2.765284      1.412833
  P       0.977172      1.337916      2.667401
  P      -2.035782     -3.094719     -0.059145
  O      -1.372083     -4.581617     -0.269237
  O      -0.986079     -1.989947     -0.634477
  O       0.021259      2.666270      2.454063
  O       2.140402      1.278635      1.705794
  C       1.390079      1.394991      4.469683
  C      -3.476227     -3.133171     -1.209681
  C      -3.040490     -3.677735     -2.583314
  C      -3.976264     -1.678762     -1.331749
  C      -4.553714     -4.029747     -0.567877
  C       0.098410      1.451226      5.306139
  C       2.200872      0.123514      4.791112
  C       2.249743      2.654627      4.696583
  H      -0.786906     -4.784644      0.488337
  H       0.293424      3.130416      1.634348
  H      -2.238174     -3.059207     -3.032965
  H      -3.910566     -3.662685     -3.273313
  H      -2.674621     -4.720207     -2.510076
  H      -3.210295     -1.031697     -1.804056
  H      -4.224915     -1.251059     -0.340555
  H      -4.891300     -1.654598     -1.957861
  H      -4.201694     -5.075517     -0.461017
  H      -5.458846     -4.035105     -1.210878
  H      -4.840798     -3.655672      0.435327
  H      -0.520846      0.547481      5.148711
  H      -0.512806      2.338548      5.049488
  H       0.359907      1.513733      6.383589
  H       1.597008     -0.792349      4.632832
  H       2.520049      0.146051      5.854468
  H       3.107227      0.053917      4.157537
  H       1.677632      3.578087      4.477053
  H       3.154608      2.645784      4.055924
  H       2.576517      2.695649      5.757094
  Si      2.690136     -0.750554     -2.008037
  C       4.279125     -0.441459     -3.005788
  C       3.155717     -1.469606     -0.313835
  C       1.578499     -1.948590     -2.974410
  H       4.939472      0.291216     -2.497123
  H       4.043259     -0.039723     -4.013565
  H       4.859329     -1.377705     -3.143116
  H       2.289651     -1.941220      0.197002
  H       3.537278     -0.669577      0.353419
  H       3.944276     -2.244393     -0.425295
  H       0.651634     -2.192455     -2.415138
  H       2.118199     -2.898413     -3.174037
  H       1.286636     -1.518752     -3.956259
  H      -0.258605      0.295563     -1.987321
  C       1.833277      0.958169     -1.839665
  C       0.367550      1.005757     -1.402440
  H       1.929004      1.417889     -2.852556
  H       2.454403      1.576444     -1.155566
  Si     -0.503697      2.708098     -1.531313
  H       0.263111      0.655699     -0.315750
  C       0.528620      4.097558     -0.726296
  C      -2.208766      2.629449     -0.708111
  C      -0.676861      3.103506     -3.378107
  H       0.199863      4.335531      0.307091
  H       0.408541      5.043842     -1.294060
  H       1.610768      3.857907     -0.698409
  H      -2.111432      2.442594      0.381820
  H      -2.832246      1.816219     -1.134528
  H      -2.758288      3.584699     -0.840210
  H       0.317570      3.211258     -3.857891
  H      -1.227527      4.056078     -3.523815
  H      -1.229013      2.305801     -3.916309
69
Coordinates from ORCA-job my_molecule E -2464.465952090944
  Pt     -0.524083     -0.868261      0.935536
  O      -0.059812      0.087098      2.563525
  O      -2.313215     -2.783679      1.409404
  P       0.989113      1.346221      2.663933
  P      -2.036479     -3.095560     -0.067107
  O      -1.358864     -4.574584     -0.296208
  O      -1.004332     -1.973855     -0.642236
  O       0.015101      2.662093      2.455695
  O       2.154649      1.307947      1.703931
  C       1.397307      1.398187      4.467849
  C      -3.480484     -3.135552     -1.213119
  C      -3.051042     -3.682982     -2.587207
  C      -3.977429     -1.680055     -1.335814
  C      -4.556045     -4.029547     -0.566315
  C       0.102797      1.434342      5.300869
  C       2.221681      0.134290      4.783973
  C       2.241311      2.666297      4.705012
  H      -0.774464     -4.782556      0.461825
  H       0.281457      3.134869      1.639016
  H      -2.248361     -3.066883     -3.040144
  H      -3.923139     -3.666319     -3.274326
  H      -2.687886     -4.726180     -2.514038
  H      -3.210257     -1.036005     -1.809408
  H      -4.222157     -1.250235     -0.344900
  H      -4.893825     -1.654055     -1.959640
  H      -4.204404     -5.075451     -0.457977
  H      -5.463201     -4.036615     -1.206266
  H      -4.838711     -3.652455      0.436736
  H      -0.504445      0.523830      5.136422
  H      -0.518364      2.315412      5.046814
  H       0.360108      1.494390      6.379353
  H       1.629245     -0.787411      4.617909
  H       2.536605      0.154114      5.848362
  H       3.130942      0.078640      4.153473
  H       1.659736      3.584323      4.488765
  H       3.148172      2.671390      4.068093
  H       2.563211      2.705404      5.766800
  Si      2.685205     -0.755998     -1.996819
  C       4.269657     -0.445463     -3.000889
  C       3.158546     -1.472376     -0.303643
  C       1.572098     -1.952574     -2.962313
  H       4.933128      0.286588     -2.494867
  H       4.028524     -0.043000     -4.007200
  H       4.848699     -1.381908     -3.142176
  H       2.295934     -1.944724      0.211864
  H       3.540824     -0.669180      0.359645
  H       3.949628     -2.244522     -0.416317
  H       0.641888     -2.189928     -2.406779
  H       2.108193     -2.904699     -3.157998
  H       1.286044     -1.524215     -3.946433
  H      -0.265035      0.297700     -1.995616
  C       1.829173      0.952926     -1.824505
  C       0.359538      1.003255     -1.402560
  H       1.934874      1.418170     -2.834277
  H       2.445049      1.566087     -1.130405
  Si     -0.504521      2.710140     -1.531588
  H       0.240304      0.649404     -0.315376
  C       0.532647      4.094867     -0.725206
  C      -2.212451      2.638191     -0.714198
  C      -0.668899      3.102542     -3.380003
  H       0.198975      4.339192      0.304792
  H       0.423064      5.039706     -1.297474
  H       1.612094      3.847064     -0.688709
  H      -2.119457      2.448504      0.375630
  H      -2.838480      1.828999     -1.144217
  H      -2.756952      3.596582     -0.846466
  H       0.328594      3.204867     -3.855889
  H      -1.214792      4.057642     -3.529919
  H      -1.222528      2.305552     -3.918675
69
Coordinates from ORCA-job my_molecule E -2464.465954692092
  Pt     -0.516895     -0.891353      0.955090
  O      -0.070795      0.072014      2.580143
  O      -2.316843     -2.788929      1.418327
  P       0.983605      1.331575      2.671790
  P      -2.037910     -3.100081     -0.060197
  O      -1.380367     -4.586759     -0.294955
  O      -0.986730     -1.991512     -0.627788
  O       0.003262      2.642928      2.454876
  O       2.147075      1.287301      1.709411
  C       1.398173      1.393619      4.473968
  C      -3.481964     -3.120162     -1.204334
  C      -3.053819     -3.654916     -2.583880
  C      -3.976044     -1.662579     -1.311949
  C      -4.558999     -4.018254     -0.567057
  C       0.107743      1.431289      5.312853
  C       2.228530      0.134916      4.793753
  C       2.239165      2.666071      4.699040
  H      -0.790231     -4.805377      0.457406
  H       0.277326      3.112203      1.637849
  H      -2.248265     -3.036247     -3.028650
  H      -3.924982     -3.628472     -3.271242
  H      -2.695047     -4.699832     -2.521046
  H      -3.210200     -1.013023     -1.777452
  H      -4.223447     -1.242790     -0.318055
  H      -4.890436     -1.630683     -1.938159
  H      -4.210678     -5.066722     -0.470343
  H      -5.466227     -4.014786     -1.207000
  H      -4.840494     -3.650368      0.439812
  H      -0.496955      0.517264      5.160261
  H      -0.518427      2.307655      5.055186
  H       0.370626      1.501692      6.389280
  H       1.639961     -0.790001      4.634569
  H       2.545554      0.161628      5.856791
  H       3.136201      0.079705      4.161418
  H       1.654528      3.580418      4.477327
  H       3.144122      2.668165      4.060034
  H       2.563007      2.714702      5.759524
  Si      2.692988     -0.745549     -2.000435
  C       4.281565     -0.429610     -2.997007
  C       3.157491     -1.468567     -0.308339
  C       1.585525     -1.944958     -2.970660
  H       4.938820      0.304991     -2.485690
  H       4.044989     -0.026518     -4.004270
  H       4.865534     -1.363120     -3.136629
  H       2.288891     -1.934670      0.202700
  H       3.543963     -0.669505      0.357847
  H       3.941566     -2.247659     -0.421166
  H       0.661328     -2.191803     -2.409277
  H       2.126746     -2.891479     -3.175499
  H       1.289772     -1.513222     -3.950345
  H      -0.256307      0.280363     -1.999386
  C       1.831640      0.956858     -1.830089
  C       0.359335      0.993037     -1.403422
  H       1.935889      1.426626     -2.837543
  H       2.443217      1.572612     -1.133505
  Si     -0.508326      2.694752     -1.546255
  H       0.245504      0.642117     -0.321118
  C       0.517890      4.082760     -0.733514
  C      -2.221086      2.625805     -0.735738
  C      -0.662874      3.087876     -3.395954
  H       0.180841      4.315518      0.297481
  H       0.401744      5.030326     -1.299932
  H       1.598582      3.843445     -0.698989
  H      -2.132330      2.443628      0.355683
  H      -2.843791      1.812549     -1.162431
  H      -2.767252      3.582283     -0.877021
  H       0.337346      3.193582     -3.867819
  H      -1.212364      4.040701     -3.551510
  H      -1.209964      2.286531     -3.936771
69
Coordinates from ORCA-job my_molecule E -2464.465910381697
  Pt     -0.513998     -0.896138      0.969083
  O      -0.063315      0.053312      2.602044
  O      -2.337233     -2.773316      1.416386
  P       0.985764      1.318419      2.682348
  P      -2.043980     -3.092949     -0.057731
  O      -1.388640     -4.581515     -0.278788
  O      -0.984473     -1.990531     -0.619670
  O      -0.002227      2.621408      2.451288
  O       2.148576      1.272526      1.719499
  C       1.402908      1.396981      4.483238
  C      -3.479830     -3.115950     -1.211503
  C      -3.038895     -3.645251     -2.589286
  C      -3.980905     -1.660619     -1.319068
  C      -4.557140     -4.020839     -0.584062
  C       0.114294      1.431713      5.324468
  C       2.244056      0.147633      4.811319
  C       2.234496      2.678000      4.695804
  H      -0.809641     -4.800327      0.481083
  H       0.281708      3.090999      1.637704
  H      -2.233960     -3.020643     -3.026702
  H      -3.905581     -3.622069     -3.282699
  H      -2.674505     -4.688483     -2.526389
  H      -3.217017     -1.005479     -1.780043
  H      -4.235900     -1.243820     -0.325422
  H      -4.892477     -1.632776     -1.950286
  H      -4.205597     -5.068041     -0.489327
  H      -5.460292     -4.017930     -1.229480
  H      -4.846811     -3.657933      0.422159
  H      -0.483039      0.510999      5.182873
  H      -0.520177      2.300061      5.059614
  H       0.379226      1.515190      6.399478
  H       1.662447     -0.783382      4.661653
  H       2.564045      0.185638      5.873342
  H       3.150229      0.094514      4.176620
  H       1.642902      3.585722      4.465329
  H       3.139281      2.680418      4.056646
  H       2.558218      2.739334      5.755667
  Si      2.689274     -0.747943     -2.008052
  C       4.276251     -0.433119     -3.007263
  C       3.155398     -1.475399     -0.318731
  C       1.574687     -1.943830     -2.976074
  H       4.934787      0.299801     -2.495156
  H       4.039700     -0.027795     -4.013637
  H       4.858991     -1.367077     -3.148955
  H       2.286530     -1.938747      0.194444
  H       3.545617     -0.676641      0.345044
  H       3.936371     -2.257296     -0.433328
  H       0.657619     -2.195099     -2.404831
  H       2.114534     -2.888938     -3.191734
  H       1.267124     -1.507333     -3.950068
  H      -0.256058      0.271434     -1.979703
  C       1.829204      0.956171     -1.831421
  C       0.359410      0.990983     -1.392155
  H       1.927095      1.427527     -2.838675
  H       2.446772      1.570264     -1.138268
  Si     -0.508759      2.690670     -1.546832
  H       0.255744      0.647285     -0.309188
  C       0.513362      4.078384     -0.728545
  C      -2.225097      2.626434     -0.741961
  C      -0.656110      3.081275     -3.397500
  H       0.174249      4.300853      0.304765
  H       0.394167      5.030692     -1.286255
  H       1.595375      3.841920     -0.696130
  H      -2.139448      2.441888      0.349412
  H      -2.849346      1.815779     -1.171975
  H      -2.768146      3.584931     -0.882606
  H       0.345073      3.185279     -3.866619
  H      -1.205242      4.033592     -3.557213
  H      -1.201649      2.279178     -3.937979
