69
Coordinates from ORCA-job my_molecule_initial_path E   0.000000000000
  Pt      0.376166     -0.870829      0.215123
  O       1.124523     -0.029065      1.884998
  O      -2.899522     -1.228484      0.013525
  P       2.303036      1.007785      2.174252
  P      -2.090693     -2.278899     -0.728836
  O      -1.784285     -3.578885      0.274990
  O      -0.642061     -1.849928     -1.266836
  O       1.774088      2.444571      1.492659
  O       3.706139      0.698195      1.688729
  C       2.179219      1.288312      4.008074
  C      -2.934583     -3.015522     -2.208470
  C      -2.083025     -4.156281     -2.792115
  C      -3.132284     -1.888271     -3.241077
  C      -4.299662     -3.542282     -1.722970
  C       0.754762      1.732579      4.383955
  C       2.546367     -0.034191      4.708934
  C       3.205475      2.383079      4.361015
  H      -2.330919     -3.445928      1.075042
  H       2.561144      2.863604      1.091360
  H      -1.100605     -3.787107     -3.146314
  H      -2.611416     -4.616812     -3.654207
  H      -1.901666     -4.946814     -2.037098
  H      -2.160165     -1.502627     -3.607052
  H      -3.698485     -1.041036     -2.803806
  H      -3.702999     -2.272699     -4.112942
  H      -4.175515     -4.355285     -0.979355
  H      -4.872633     -3.950170     -2.582304
  H      -4.895776     -2.733428     -1.255617
  H       0.009402      0.954367      4.128429
  H       0.473929      2.666518      3.857487
  H       0.697603      1.923628      5.476898
  H       1.823950     -0.836525      4.460404
  H       2.537105      0.110267      5.810265
  H       3.559046     -0.376120      4.415132
  H       2.954022      3.344465      3.868777
  H       4.226507      2.088835      4.046864
  H       3.210299      2.554156      5.458153
  Si      2.401045     -1.714184     -0.728797
  C       3.368579     -0.266975     -1.454308
  C       3.311364     -2.499255      0.726876
  C       1.999887     -2.997383     -2.053753
  H       3.664238      0.417534     -0.633685
  H       2.798141      0.278223     -2.232347
  H       4.291187     -0.669268     -1.926286
  H       2.679690     -3.214429      1.290666
  H       3.670835     -1.697407      1.402044
  H       4.186121     -3.057862      0.328047
  H       1.405657     -3.836038     -1.642469
  H       2.960395     -3.399610     -2.443346
  H       1.431697     -2.554678     -2.894006
  H      -2.028140      0.873216     -0.192357
  C       0.044309      0.876421     -0.837792
  C      -1.132126      1.534696     -0.191045
  H      -0.132553      0.526276     -1.874245
  H       0.989325      1.443343     -0.741517
  Si     -1.643334      3.175029     -1.073152
  H      -0.900009      1.830954      0.853680
  C      -0.165436      4.361713     -1.062740
  C      -3.080461      3.899024     -0.077033
  C      -2.190923      2.803161     -2.848514
  H       0.260363      4.433497     -0.040714
  H      -0.461407      5.379886     -1.389851
  H       0.639767      4.011696     -1.741338
  H      -2.774228      4.118959      0.966245
  H      -3.935734      3.193758     -0.038915
  H      -3.437940      4.845831     -0.532931
  H      -1.358726      2.392188     -3.456412
  H      -2.549678      3.724620     -3.352588
  H      -3.018392      2.063891     -2.863486
69
Coordinates from ORCA-job my_molecule_initial_path E   0.000000000000
  Pt      0.367506     -0.919466      0.261600
  O       0.917119     -0.048176      2.014401
  O      -2.733269     -1.724675      0.693731
  P       1.886165      1.165836      2.394976
  P      -2.100657     -2.692843     -0.286628
  O      -1.814758     -4.170526      0.427500
  O      -0.693430     -2.218977     -0.922314
  O       1.033215      2.539676      1.976282
  O       3.244778      1.165332      1.713916
  C       1.911684      1.244620      4.266671
  C      -3.075416     -3.172870     -1.793946
  C      -2.277664     -4.223725     -2.589226
  C      -3.264587     -1.882926     -2.612934
  C      -4.442419     -3.742833     -1.368470
  C       0.574061      1.761832      4.831520
  C       2.217158     -0.156410      4.832153
  C       3.052183      2.220688      4.625527
  H      -2.059700     -4.084493      1.371386
  H       1.586770      3.002898      1.310038
  H      -1.278482     -3.839449     -2.873523
  H      -2.826885     -4.489184     -3.517215
  H      -2.138112     -5.147855     -1.994098
  H      -2.285045     -1.454427     -2.904160
  H      -3.819609     -1.124023     -2.025030
  H      -3.842605     -2.100018     -3.535210
  H      -4.331490     -4.677496     -0.782980
  H      -5.032312     -3.982186     -2.279293
  H      -5.022597     -3.014785     -0.766390
  H      -0.271940      1.091994      4.579206
  H       0.337979      2.775678      4.455226
  H       0.645542      1.815576      5.940332
  H       1.393752     -0.868239      4.627043
  H       2.345718     -0.084098      5.934155
  H       3.152939     -0.576008      4.411760
  H       2.852868      3.238206      4.231958
  H       4.017962      1.874562      4.209627
  H       3.144867      2.295399      5.729961
  Si      2.314702     -1.342387     -1.115386
  C       3.388656     -0.051136     -2.032530
  C       3.367290     -1.962098      0.288097
  C       1.702295     -2.528287     -2.441185
  H       3.794735      0.751047     -1.383435
  H       2.950004      0.385915     -2.954241
  H       4.256165     -0.674674     -2.362467
  H       2.816149     -2.695257      0.902516
  H       3.586221     -1.064678      0.906785
  H       4.310601     -2.401319     -0.087082
  H       1.092756     -3.327557     -1.986601
  H       2.568057     -2.955151     -2.988086
  H       1.053970     -2.002493     -3.172193
  H      -1.654828      0.744630     -1.063079
  C       0.485361      0.711981     -1.034492
  C      -0.805725      1.385866     -0.754692
  H       0.589057      0.420478     -2.104737
  H       1.379890      1.308989     -0.749477
  Si     -1.183346      3.125942     -1.436483
  H      -0.884588      1.543949      0.337490
  C       0.232835      4.338090     -1.104294
  C      -2.696298      3.551223     -0.390116
  C      -1.578523      3.076251     -3.285063
  H       0.467337      4.387188     -0.021449
  H      -0.061304      5.358567     -1.426132
  H       1.158812      4.072103     -1.654064
  H      -2.404624      3.523425      0.680227
  H      -3.474470      2.772028     -0.525181
  H      -3.147565      4.538827     -0.604070
  H      -0.680708      2.840414     -3.892175
  H      -1.963566      4.059827     -3.625482
  H      -2.350641      2.311689     -3.508481
69
Coordinates from ORCA-job my_molecule_initial_path E   0.000000000000
  Pt      0.247982     -0.931610      0.444185
  O       0.779731     -0.045503      2.202430
  O      -2.905356     -1.824096      0.780373
  P       1.816207      1.146330      2.485985
  P      -2.208028     -2.781991     -0.181360
  O      -2.017473     -4.287233      0.476244
  O      -0.736069     -2.342915     -0.672967
  O       0.997018      2.541642      2.052085
  O       3.127228      1.068699      1.752168
  C       1.902712      1.263069      4.342720
  C      -3.097531     -3.202143     -1.756477
  C      -2.272136     -4.233717     -2.550966
  C      -3.245554     -1.892415     -2.556824
  C      -4.484497     -3.774632     -1.403211
  C       0.569961      1.780425      4.915204
  C       2.224240     -0.138662      4.898810
  C       3.053397      2.238347      4.660054
  H      -2.063771     -4.204157      1.469766
  H       1.460384      2.898195      1.271178
  H      -1.267118     -3.843013     -2.802620
  H      -2.792728     -4.480417     -3.501136
  H      -2.141309     -5.172481     -1.978243
  H      -2.255618     -1.468758     -2.822574
  H      -3.807647     -1.132375     -1.977545
  H      -3.800915     -2.089615     -3.497929
  H      -4.402220     -4.717707     -0.827045
  H      -5.040165     -3.991691     -2.340057
  H      -5.082624     -3.056680     -0.807468
  H      -0.274914      1.108074      4.663794
  H       0.334097      2.792445      4.533164
  H       0.642815      1.838581      6.021734
  H       1.402192     -0.855068      4.704800
  H       2.369256     -0.069640      5.997618
  H       3.156691     -0.548938      4.461185
  H       2.846763      3.249123      4.253809
  H       4.007708      1.876580      4.229478
  H       3.169264      2.328482      5.761039
  Si      2.207467     -1.061991     -1.277698
  C       3.529369      0.004344     -2.189746
  C       3.128999     -1.761560      0.183450
  C       1.561033     -2.334217     -2.500962
  H       3.985912      0.783973     -1.544665
  H       3.213415      0.464251     -3.151095
  H       4.338370     -0.726386     -2.432066
  H       2.520356     -2.484276      0.758580
  H       3.404219     -0.909960      0.844398
  H       4.027729     -2.256642     -0.230174
  H       0.974459     -3.085624     -1.941307
  H       2.457709     -2.804131     -2.957051
  H       0.920304     -1.932608     -3.311485
  H      -1.377648      0.578495     -1.195614
  C       0.753904      0.729249     -1.190276
  C      -0.599269      1.291870     -0.856453
  H       0.860946      0.604604     -2.302650
  H       1.592027      1.392740     -0.880922
  Si     -1.099716      3.033594     -1.448259
  H      -0.662512      1.361673      0.248463
  C       0.267781      4.303334     -1.107001
  C      -2.607084      3.406592     -0.375826
  C      -1.544615      3.038135     -3.287677
  H       0.497641      4.365436     -0.022217
  H      -0.076082      5.310211     -1.425532
  H       1.203510      4.078601     -1.660333
  H      -2.322177      3.388323      0.696590
  H      -3.399456      2.643539     -0.520581
  H      -3.037591      4.401440     -0.602480
  H      -0.664414      2.820608     -3.927559
  H      -1.940936      4.031425     -3.585855
  H      -2.325622      2.280424     -3.507399
69
Coordinates from ORCA-job my_molecule_initial_path E   0.000000000000
  Pt      0.032276     -1.266014      1.013455
  O       0.618340     -0.030055      2.398085
  O      -3.028556     -1.871140      0.807172
  P       1.750290      1.128888      2.551236
  P      -2.298840     -2.838514     -0.113641
  O      -2.105376     -4.346850      0.520243
  O      -0.766130     -2.338930     -0.417254
  O       0.969224      2.500822      2.086565
  O       3.072619      0.968433      1.783327
  C       1.900471      1.272350      4.379181
  C      -3.096899     -3.210072     -1.742850
  C      -2.260421     -4.234526     -2.534259
  C      -3.232963     -1.892901     -2.533735
  C      -4.493981     -3.781060     -1.413025
  C       0.567409      1.790384      4.949895
  C       2.226239     -0.132757      4.926085
  C       3.056420      2.246574      4.674383
  H      -2.051136     -4.262230      1.495220
  H       1.393239      2.826456      1.246632
  H      -1.255764     -3.839894     -2.783681
  H      -2.779260     -4.470466     -3.488306
  H      -2.134344     -5.179451     -1.971164
  H      -2.244477     -1.468268     -2.801030
  H      -3.798667     -1.130931     -1.961567
  H      -3.783366     -2.091649     -3.477817
  H      -4.417394     -4.725459     -0.838659
  H      -5.038168     -3.990608     -2.358102
  H      -5.091099     -3.061283     -0.818013
  H      -0.269978      1.113968      4.688883
  H       0.331780      2.798321      4.557651
  H       0.634087      1.851771      6.056945
  H       1.401947     -0.845340      4.727967
  H       2.378448     -0.074666      6.023524
  H       3.153405     -0.541694      4.474734
  H       2.851657      3.255765      4.263054
  H       4.007542      1.881580      4.237801
  H       3.185084      2.342834      5.772438
  Si      2.115361     -0.766802     -1.461457
  C       3.648191     -0.001579     -2.287560
  C       2.882188     -1.593430      0.115881
  C       1.526669     -2.236437     -2.514854
  H       4.077992      0.774737     -1.620388
  H       3.368106      0.481068     -3.247128
  H       4.429395     -0.762187     -2.487188
  H       2.324166     -2.356909      0.708371
  H       3.286887     -0.827085      0.806009
  H       3.721091     -2.153611     -0.362736
  H       0.969154     -2.969126     -1.899210
  H       2.431623     -2.741383     -2.914713
  H       0.886214     -1.949428     -3.372390
  H      -1.167952      0.439945     -1.245249
  C       1.004089      0.830924     -1.503361
  C      -0.391571      1.176351     -0.943634
  H       0.992957      0.994106     -2.607053
  H       1.726785      1.596120     -1.142135
  Si     -1.050298      2.923826     -1.418492
  H      -0.392153      1.172366      0.170292
  C       0.271772      4.258447     -1.096491
  C      -2.570855      3.336578     -0.360511
  C      -1.525794      2.996409     -3.258651
  H       0.510518      4.355551     -0.015844
  H      -0.114334      5.247430     -1.424039
  H       1.214043      4.070849     -1.652135
  H      -2.308060      3.343388      0.718234
  H      -3.388572      2.600364     -0.506889
  H      -2.964846      4.342110     -0.622824
  H      -0.659682      2.800167     -3.924535
  H      -1.918135      4.005391     -3.508872
  H      -2.318604      2.258459     -3.501823
69
Coordinates from ORCA-job my_molecule_initial_path E   0.000000000000
  Pt     -0.063107     -1.279473      1.150608
  O       0.414213      0.056143      2.495239
  O      -3.007096     -1.876483      0.868537
  P       1.630731      1.147763      2.628147
  P      -2.306611     -2.888024     -0.024880
  O      -2.242191     -4.409972      0.601605
  O      -0.732685     -2.481642     -0.254319
  O       0.886220      2.559033      2.183507
  O       2.898612      0.931890      1.849561
  C       1.830759      1.297087      4.460789
  C      -3.066479     -3.211435     -1.683866
  C      -2.228320     -4.233021     -2.476159
  C      -3.156447     -1.873468     -2.445629
  C      -4.482988     -3.763174     -1.409882
  C       0.530417      1.833124      5.084236
  C       2.158921     -0.113033      4.989733
  C       3.016655      2.253278      4.707057
  H      -2.120873     -4.348877      1.570602
  H       1.317096      2.855300      1.348896
  H      -1.215954     -3.845742     -2.703180
  H      -2.733890     -4.445465     -3.442526
  H      -2.121516     -5.189081     -1.927854
  H      -2.152973     -1.464400     -2.680629
  H      -3.721067     -1.114986     -1.867664
  H      -3.687582     -2.042038     -3.406234
  H      -4.443654     -4.725567     -0.862951
  H      -5.005596     -3.931498     -2.375221
  H      -5.083167     -3.048549     -0.812633
  H      -0.327631      1.166853      4.863740
  H       0.292031      2.840340      4.692328
  H       0.645168      1.904320      6.186380
  H       1.322681     -0.820381      4.827624
  H       2.358346     -0.064921      6.079145
  H       3.061350     -0.532014      4.503124
  H       2.808307      3.264679      4.301266
  H       3.942045      1.869078      4.231604
  H       3.187430      2.344597      5.801440
  Si      2.221964     -0.708113     -1.701765
  C       3.803785     -0.057598     -2.528132
  C       2.763120     -1.467556     -0.044558
  C       1.487283     -2.153558     -2.691975
  H       4.265698      0.725535     -1.888310
  H       3.574281      0.388055     -3.519500
  H       4.539195     -0.874520     -2.671761
  H       1.962953     -1.991930      0.569194
  H       3.217347     -0.716561      0.631630
  H       3.493243     -2.275407     -0.288884
  H       0.805245     -2.748314     -2.048697
  H       2.322634     -2.816465     -3.003871
  H       0.938051     -1.844728     -3.604237
  H      -0.991270      0.379288     -1.363341
  C       1.146261      0.899712     -1.703586
  C      -0.231329      1.130964     -1.048576
  H       1.068193      1.104337     -2.800244
  H       1.854767      1.669208     -1.316805
  Si     -0.993820      2.868660     -1.410382
  H      -0.182973      1.063626      0.065265
  C       0.283036      4.242359     -1.073642
  C      -2.501218      3.186318     -0.303750
  C      -1.518312      2.970411     -3.234959
  H       0.527296      4.325507      0.007369
  H      -0.132923      5.224756     -1.385313
  H       1.225060      4.083821     -1.637573
  H      -2.218699      3.160790      0.768525
  H      -3.304003      2.435698     -0.452698
  H      -2.935504      4.187987     -0.512421
  H      -0.660588      2.793872     -3.915945
  H      -1.930607      3.975411     -3.468852
  H      -2.299320      2.218195     -3.473748
69
Coordinates from ORCA-job my_molecule_initial_path E   0.000000000000
  Pt      0.232870     -1.485529      0.763808
  O       0.599535     -0.136048      2.284451
  O      -2.001982     -1.644657      0.806250
  P       1.639077      1.064334      2.518860
  P      -1.952637     -2.933601     -0.101191
  O      -2.404196     -4.273410      0.727448
  O      -0.414970     -3.007357     -0.514820
  O       0.834546      2.461540      2.094815
  O       2.990401      1.047762      1.807489
  C       1.798504      1.237244      4.379937
  C      -3.013277     -3.160351     -1.633328
  C      -2.248001     -4.208827     -2.478300
  C      -3.116981     -1.830092     -2.404376
  C      -4.423283     -3.700212     -1.309791
  C       0.505369      1.790722      5.005344
  C       2.138167     -0.148742      4.957294
  C       2.971366      2.210274      4.639230
  H      -1.987231     -4.280164      1.616529
  H       1.356806      2.885305      1.383547
  H      -1.236237     -3.853340     -2.748699
  H      -2.818081     -4.403126     -3.412002
  H      -2.140106     -5.167160     -1.933044
  H      -2.121915     -1.412792     -2.661273
  H      -3.689621     -1.067307     -1.840943
  H      -3.661052     -2.021249     -3.353430
  H      -4.386659     -4.668120     -0.772778
  H      -4.956233     -3.861712     -2.272377
  H      -5.029715     -2.985971     -0.718564
  H      -0.364968      1.133828      4.810789
  H       0.269641      2.801273      4.618332
  H       0.635500      1.865418      6.106507
  H       1.304521     -0.861401      4.810876
  H       2.333672     -0.062714      6.047088
  H       3.047862     -0.571750      4.483531
  H       2.763098      3.221167      4.234633
  H       3.907941      1.846592      4.173377
  H       3.132019      2.309953      5.735428
  Si      2.073960     -0.677200     -1.666216
  C       3.749241     -0.107862     -2.371543
  C       2.352863     -1.376503      0.134431
  C       1.500950     -2.140385     -2.734513
  H       4.225596      0.686007     -1.763264
  H       3.547484      0.325392     -3.376280
  H       4.480654     -0.926152     -2.514785
  H       1.788596     -2.037447      1.065195
  H       2.922673     -0.629238      0.737454
  H       2.964447     -2.285731     -0.084005
  H       0.827360     -2.800440     -2.156126
  H       2.392986     -2.732951     -3.029524
  H       0.977249     -1.832136     -3.662166
  H      -1.048005      0.416247     -1.365931
  C       1.074855      0.950640     -1.737461
  C      -0.290489      1.174882     -1.062384
  H       1.012924      1.164413     -2.832805
  H       1.809109      1.687438     -1.331693
  Si     -1.025914      2.903924     -1.413957
  H      -0.202861      1.083092      0.043050
  C       0.268412      4.258990     -1.082134
  C      -2.524496      3.213368     -0.299063
  C      -1.534341      2.996039     -3.242536
  H       0.515782      4.327728     -0.002315
  H      -0.126949      5.251329     -1.384281
  H       1.210146      4.093133     -1.644290
  H      -2.218319      3.171726      0.766816
  H      -3.316833      2.452564     -0.454900
  H      -2.968291      4.212515     -0.492355
  H      -0.671894      2.814204     -3.917113
  H      -1.949663      3.993029     -3.496458
  H      -2.310985      2.239603     -3.479496
69
Coordinates from ORCA-job my_molecule_initial_path E   0.000000000000
  Pt     -0.136933     -1.130762      1.181212
  O      -0.248896      0.264027      2.671536
  O      -2.154058     -1.621513      0.946270
  P       1.145923      1.037539      2.671617
  P      -1.890128     -2.862749     -0.026285
  O      -2.267794     -4.249774      0.752474
  O      -0.347860     -2.698277     -0.301440
  O       0.932996      2.604622      2.215423
  O       2.053036      0.294066      1.680924
  C       1.700299      1.237017      4.422057
  C      -2.936034     -3.106343     -1.565657
  C      -2.188847     -4.164341     -2.414797
  C      -3.051138     -1.785423     -2.350322
  C      -4.347797     -3.635949     -1.225797
  C       0.475630      1.822479      5.151584
  C       2.066342     -0.158434      4.961224
  C       2.912219      2.182366      4.551481
  H      -1.866233     -4.267336      1.647503
  H       1.177130      2.705389      1.267003
  H      -1.178052     -3.826057     -2.714053
  H      -2.776351     -4.347005     -3.339853
  H      -2.095738     -5.130088     -1.880749
  H      -2.060718     -1.369917     -2.621085
  H      -3.619838     -1.018247     -1.789346
  H      -3.601448     -1.987066     -3.294140
  H      -4.315004     -4.605158     -0.692881
  H      -4.889603     -3.795905     -2.183558
  H      -4.944052     -2.918384     -0.627677
  H      -0.414233      1.180087      5.009605
  H       0.235057      2.830374      4.762842
  H       0.681029      1.911536      6.236646
  H       1.231542     -0.876372      4.845791
  H       2.312871     -0.083398      6.041299
  H       2.950981     -0.571774      4.437990
  H       2.700466      3.191711      4.149959
  H       3.816424      1.783757      4.048278
  H       3.158211      2.294294      5.630150
  Si      2.204707     -0.738519     -1.730172
  C       3.808626     -0.088383     -2.512695
  C       2.757376     -1.592558     -0.120335
  C       1.504002     -2.134421     -2.815429
  H       4.265137      0.690558     -1.866309
  H       3.607696      0.363325     -3.505219
  H       4.551860     -0.899899     -2.642929
  H       1.939779     -2.012479      0.515416
  H       3.321344     -0.899686      0.527720
  H       3.394990     -2.456088     -0.405408
  H       0.822538     -2.749226     -2.194391
  H       2.355155     -2.778719     -3.124265
  H       0.972567     -1.799296     -3.728763
  H      -0.987186      0.404234     -1.445733
  C       1.151311      0.896572     -1.742679
  C      -0.232744      1.151169     -1.110164
  H       1.097147      1.112582     -2.838098
  H       1.869637      1.654607     -1.351518
  Si     -0.990582      2.881008     -1.432515
  H      -0.192312      1.014852     -0.004310
  C       0.284434      4.253047     -1.081667
  C      -2.485449      3.170186     -0.298184
  C      -1.531725      2.996827     -3.250638
  H       0.532205      4.324703     -0.000392
  H      -0.128299      5.241090     -1.377089
  H       1.226432      4.101214     -1.648131
  H      -2.183869      3.126799      0.769187
  H      -3.282249      2.413310     -0.452349
  H      -2.931005      4.170739     -0.484031
  H      -0.677529      2.817475     -3.936225
  H      -1.951868      3.996188     -3.489279
  H      -2.311530      2.239794     -3.478633
69
Coordinates from ORCA-job my_molecule_initial_path E   0.000000000000
  Pt     -0.542986     -0.981753      1.444727
  O      -0.755883      0.513599      2.884640
  O      -2.478258     -1.683429      1.051633
  P       0.762389      0.963819      2.792168
  P      -1.966822     -2.846512      0.108186
  O      -2.196461     -4.311150      0.804333
  O      -0.429315     -2.502569     -0.044011
  O       0.943973      2.465321      2.163094
  O       1.377844     -0.138877      1.846551
  C       1.531922      1.178413      4.460197
  C      -2.913648     -3.097777     -1.472373
  C      -2.153348     -4.138915     -2.323630
  C      -3.004432     -1.753831     -2.221520
  C      -4.332347     -3.613545     -1.142383
  C       0.448508      1.868651      5.318904
  C       1.857860     -0.231859      4.992124
  C       2.812414      2.037338      4.409049
  H      -1.755654     -4.336785      1.678244
  H       0.773440      2.474737      1.197081
  H      -1.138703     -3.787716     -2.596464
  H      -2.716797     -4.308599     -3.265647
  H      -2.063208     -5.111464     -1.801065
  H      -2.002114     -1.359631     -2.479902
  H      -3.543358     -0.988234     -1.628777
  H      -3.560543     -1.911960     -3.169958
  H      -4.304706     -4.589720     -0.622281
  H      -4.891300     -3.746994     -2.093890
  H      -4.900383     -2.897344     -0.515542
  H      -0.491324      1.282523      5.321051
  H       0.222386      2.885186      4.937299
  H       0.812025      1.964367      6.363036
  H       0.965998     -0.889310      4.984496
  H       2.218042     -0.149268      6.039181
  H       2.649814     -0.716183      4.386262
  H       2.612723      3.054236      4.021344
  H       3.605472      1.575821      3.785837
  H       3.213376      2.136360      5.441428
  Si      2.373054     -0.653483     -1.902673
  C       3.911856     -0.100109     -2.875308
  C       3.003732     -1.345103     -0.254924
  C       1.518521     -2.100404     -2.790680
  H       4.427705      0.718942     -2.329345
  H       3.654347      0.276194     -3.886951
  H       4.634920     -0.933707     -2.988670
  H       2.195508     -1.804918      0.344168
  H       3.492558     -0.577753      0.376825
  H       3.748069     -2.135823     -0.491555
  H       0.797071     -2.568705     -2.089407
  H       2.285093     -2.861962     -3.050439
  H       0.992333     -1.811389     -3.723685
  H      -0.784337      0.375005     -1.574877
  C       1.318283      0.963606     -1.899626
  C      -0.054715      1.137622     -1.219327
  H       1.221839      1.184470     -2.990044
  H       2.022437      1.743052     -1.524614
  Si     -0.887299      2.846386     -1.455294
  H       0.016290      0.914504     -0.129187
  C       0.342071      4.248276     -1.055869
  C      -2.380340      3.036294     -0.296621
  C      -1.458238      3.027274     -3.257740
  H       0.624093      4.286260      0.019040
  H      -0.118657      5.230562     -1.293648
  H       1.275211      4.163506     -1.650300
  H      -2.083662      2.941081      0.768839
  H      -3.159325      2.270246     -0.490462
  H      -2.849628      4.034442     -0.428810
  H      -0.613689      2.901213     -3.966461
  H      -1.907908      4.025605     -3.440688
  H      -2.223789      2.261873     -3.505085
69
Coordinates from ORCA-job my_molecule_initial_path E   0.000000000000
  Pt     -0.937323     -1.094628      1.692069
  O      -1.331937      0.439849      3.066488
  O      -2.643330     -2.307345      1.582633
  P       0.121983      1.039731      2.912225
  P      -2.008704     -3.200606      0.443840
  O      -1.992913     -4.784655      0.843460
  O      -0.545675     -2.616226      0.302123
  O       0.076916      2.615335      2.480804
  O       0.773313      0.121963      1.799049
  C       1.090665      1.106546      4.474288
  C      -2.976772     -3.221299     -1.120083
  C      -2.226497     -4.084354     -2.154982
  C      -3.081494     -1.759271     -1.600621
  C      -4.375227     -3.796286     -0.815324
  C       0.311147      1.963383      5.492143
  C       1.229460     -0.345883      4.974721
  C       2.474843      1.713902      4.168990
  H      -1.490388     -4.918113      1.673368
  H      -0.498862      2.749739      1.696404
  H      -1.210849     -3.687798     -2.355585
  H      -2.791105     -4.076839     -3.110831
  H      -2.132174     -5.135430     -1.818903
  H      -2.080738     -1.321359     -1.786295
  H      -3.601426     -1.124099     -0.856526
  H      -3.656807     -1.729572     -2.549088
  H      -4.318297     -4.847191     -0.470840
  H      -4.991156     -3.767098     -1.738456
  H      -4.895237     -3.201532     -0.037792
  H      -0.700288      1.548904      5.675981
  H       0.202077      3.009924      5.146736
  H       0.859465      1.972110      6.457290
  H       0.239413     -0.806375      5.162551
  H       1.801100     -0.349316      5.925958
  H       1.768817     -0.976932      4.241294
  H       2.393532      2.759082      3.812029
  H       3.016020      1.124196      3.401979
  H       3.086223      1.711973      5.095695
  Si      2.684733     -0.451315     -2.359707
  C       4.028270     -0.435985     -3.705356
  C       3.499519     -0.528194     -0.648424
  C       1.562079     -1.963676     -2.598322
  H       4.689805      0.449976     -3.606166
  H       3.582239     -0.410365     -4.721594
  H       4.668799     -1.340561     -3.643485
  H       2.742428     -0.455960      0.160233
  H       4.223752      0.302977     -0.516146
  H       4.052372     -1.481235     -0.513298
  H       0.868640     -2.080729     -1.739207
  H       2.167633     -2.891675     -2.667567
  H       0.963897     -1.882557     -3.530395
  H      -0.337333      0.445922     -1.956296
  C       1.663059      1.159468     -2.503388
  C       0.397585      1.211183     -1.618346
  H       1.396280      1.310935     -3.573856
  H       2.352116      1.999237     -2.253973
  Si     -0.495252      2.888370     -1.539830
  H       0.637272      0.925317     -0.569312
  C       0.647404      4.185368     -0.746792
  C      -2.075145      2.700242     -0.487506
  C      -0.992389      3.481932     -3.272797
  H       0.971373      3.886585      0.272042
  H       0.147401      5.173340     -0.670189
  H       1.566262      4.323724     -1.353641
  H      -1.909752      2.168949      0.475957
  H      -2.822661      2.084642     -1.030789
  H      -2.549603      3.679159     -0.267226
  H      -0.102329      3.597550     -3.925247
  H      -1.508769      4.463516     -3.232817
  H      -1.677461      2.759431     -3.763355
