69
Coordinates from ORCA-job my_molecule
  Pt         -0.51045855019248     -0.89937194628650      0.98325539104036
  O          -0.04695811627021      0.03477279623131      2.62152554811896
  O          -2.35576237564783     -2.76512527566029      1.42035936375761
  P           0.99495267538028      1.30609003617476      2.69406889284276
  P          -2.05100632153915     -3.08608927056590     -0.05175889180416
  O          -1.38959144082368     -4.57389480045792     -0.26532773563941
  O          -0.99204171987445     -1.98136894820364     -0.60941596292150
  O           0.00127738701214      2.60117691091905      2.44647256988529
  O           2.16170914437109      1.25837273395132      1.73589008646301
  C           1.40616840427297      1.40186552781929      4.49542570533666
  C          -3.47837291737291     -3.11477194217193     -1.21588980463841
  C          -3.02565287036176     -3.64193505927557     -2.59083258546735
  C          -3.98456892311398     -1.66155964832083     -1.32648385814866
  C          -4.55634801437611     -4.02445560973625     -0.59709688736770
  C           0.11472231616599      1.43153259633490      5.33241769010286
  C           2.25735423321851      0.16244262995441      4.83495063650751
  C           2.22600996314402      2.69150882759249      4.70144275600358
  H          -0.82261491641336     -4.79389334865228      0.50378683840839
  H           0.29240112331878      3.07139087750752      1.63582575117608
  H          -2.22031921193179     -3.01394286274522     -3.02285514440402
  H          -3.88750555593834     -3.62241551247443     -3.29009327547930
  H          -2.65725665908812     -4.68339255893215     -2.52552566839208
  H          -3.22082009578833     -1.00409909423334     -1.78377649216917
  H          -4.24607799252823     -1.24525774996110     -0.33463121683219
  H          -4.89267511141564     -1.63732693094695     -1.96239006213230
  H          -4.20214828857807     -5.07106657679628     -0.50277321780907
  H          -5.45552156232142     -4.02259778374721     -1.24809538219850
  H          -4.85332378862499     -3.66465139858322      0.40822329034516
  H          -0.47330574555553      0.50410408561086      5.19646923363045
  H          -0.52693633804995      2.29156352985213      5.05822500626603
  H           0.37527366420228      1.52649382404196      6.40753593758050
  H           1.68472514386363     -0.77483752064863      4.69026081508897
  H           2.57383041813890      0.21101964170603      5.89744234221919
  H           3.16574877310066      0.11266795735901      4.20337250522254
  H           1.62671581005244      3.59236199100555      4.46363837822996
  H           3.13257514695427      2.69793038021276      4.06417888085293
  H           2.54692665579108      2.76250809580034      5.76176093343121
  Si          2.68318367253023     -0.75070564409332     -2.01943950884317
  C           4.26866300436849     -0.43723102394457     -3.02103205683878
  C           3.15219682741799     -1.48287547765549     -0.33277514529286
  C           1.56306466149319     -1.94191772505082     -2.98607974440038
  H           4.93012920986280      0.29202632934017     -2.50757359983178
  H           4.03095291190192     -0.02752327799472     -4.02532525812759
  H           4.84849504741878     -1.37213460146299     -3.16735803972633
  H           2.28567303761330     -1.94695315767949      0.18330274719638
  H           3.54588983371576     -0.68498424375685      0.32994660387743
  H           3.93219879368379     -2.26490286632062     -0.45070342765246
  H           0.64968420892968     -2.19428355266832     -2.40957950941899
  H           2.10043200349194     -2.88652541469606     -3.20837724531556
  H           1.24979657594006     -1.50165076061352     -3.95649679986548
  H          -0.25864467423081      0.26777491190883     -1.97611950584696
  C           1.82665850479790      0.95369034671847     -1.83736253952086
  C           0.35827535581711      0.98845159865148     -1.39141120515037
  H           1.91950372076845      1.42579606137917     -2.84461382047441
  H           2.44783907648590      1.56752170968844     -1.14741083093604
  Si         -0.50792504046570      2.68944944127694     -1.54732499166709
  H           0.25849300839040      0.64632734839707     -0.30729956076790
  C           0.51502945664127      4.07307309204799     -0.72313026090164
  C          -2.22640412501582      2.62831184850105     -0.74618319656028
  C          -0.65006581097335      3.08127011050118     -3.39821444846265
  H           0.17648247374097      4.28721695152427      0.31177605828304
  H           0.39553110241162      5.02989495723871     -1.27302946004465
  H           1.59650326443162      3.83625536497575     -0.69350514105215
  H          -2.14353550829001      2.43399293350136      0.34368466581214
  H          -2.85486489719166      1.82525486936649     -1.18425602794531
  H          -2.76346563516244      3.59122920946018     -0.87956010958689
  H           0.35237585450096      3.18397977971698     -3.86531378952909
  H          -1.19741823389392      4.03438713734791     -3.55861508993187
  H          -1.19585202431112      2.28003514072032     -3.94020212858369
