66
Coordinates from ORCA-job my_molecule
  O           1.84324105156524     -0.07487761414711     -0.76304385446854
  Si          2.67526200191138      1.43682358934392     -0.51633508309411
  Si          2.38390825826291     -1.54373850630927     -1.49281409075546
  C           1.44608906835863      2.84553603699469     -0.25699090882949
  C           1.34315724881514      3.99019411301729     -1.12886105028804
  C           2.08934915089682     -1.38267390680826     -3.34695498651827
  C           1.35652193032304     -0.39462376404179     -3.90416320769664
  C           3.69345368979244      1.20587461807838      1.07059994907039
  C           3.77606583007494      1.76660866011593     -2.01136697051912
  C           4.19708348777795     -1.88957563318761     -1.08930221791312
  C           1.37046309398822     -2.95551629150793     -0.75994965454959
  H           1.11383016965194      2.99391429505061      0.78976410052554
  H           2.00642806349169      4.08362570888218     -2.00750954114464
  H           1.02749953657536      4.96265711465435     -0.71017656260897
  H           2.51805394435642     -2.15019798165468     -4.02232218320423
  H           0.90477404069402      0.41287574576589     -3.29682274661041
  H           1.18011846178644     -0.33886729014297     -4.99416049639444
  H           3.97350609089179      0.14226849172943      1.19871309311611
  H           3.10808760658902      1.49894155728633      1.96771285442431
  H           4.61591955935061      1.82207297341656      1.05836732582356
  H           3.16655642004831      2.05497549344228     -2.89000803062347
  H           4.38042060287781      0.88448234430226     -2.30013686564266
  H           4.47491513081833      2.59877163137703     -1.78553739410772
  H           4.91090800949908     -1.15912342541731     -1.51635699497873
  H           4.46190909258290     -2.89202066500576     -1.48321276987916
  H           4.35348356683298     -1.91511140472902      0.00816710430257
  H           0.29525830905328     -2.82505503780576     -0.98584629454158
  H           1.49375004324972     -2.99690796207159      0.34226552156844
  H           1.70864890780517     -3.92423718604719     -1.18275438395901
  Pt         -0.19398580193731      2.65847761661204     -1.47084413581596
  O          -2.27509549376241      1.06632005397350      0.50575104645191
  O          -2.84881315990288      0.01896268095310      1.43815080014641
  P          -2.00208875385280      0.27954020136784     -0.95437921474772
  P          -2.58726079406856      0.42120612401209      3.06193911772726
  O          -3.19728011942200     -1.01761410019891      3.58755238631727
  O          -3.31582127651573      1.62118842722739      3.57365535932128
  O          -0.74800414474813     -0.70570708392412     -0.76043546686406
  O          -1.84231092045168      1.40058946805164     -1.98985132231522
  C          -3.40595140103223     -0.83960485504005     -1.40468848917651
  C          -0.77968110931163      0.32167717223961      3.43374890266030
  C          -0.68287275318534      0.31866466656756      4.98320823330319
  C          -0.11519783293499      1.59016759528462      2.86350200716176
  C          -0.15655078814791     -0.96139176365027      2.84027288006796
  C          -3.47485923857238     -2.11994296851172     -0.54768085280561
  C          -4.70218515723594     -0.01305426512571     -1.28786699315038
  C          -3.13526484875310     -1.22304664159070     -2.88174843604264
  H          -4.08103375200593     -0.79579542392646      3.95920180600699
  H           0.18016659637314     -0.28922093449972     -0.70409121312121
  H          -0.76068899053886      1.34281851022713      5.39587172871822
  H           0.30108237986199     -0.10322362751272      5.27604361885470
  H          -1.45449551504664     -0.32395441599207      5.45335744717904
  H          -0.72027210975762      2.49603328686663      3.06341929421068
  H           0.02347566329340      1.51094632879553      1.76963497779652
  H           0.88277418378375      1.72395724796861      3.32896927605743
  H          -0.34191359967913     -1.84143908021136      3.48717288207852
  H           0.94479264669799     -0.82348351493700      2.75624723304943
  H          -0.52434033768172     -1.17745858550377      1.81729712539747
  H          -3.71789061440201     -1.90074147947125      0.50698547628116
  H          -2.52280906365107     -2.68389122908196     -0.57420858488994
  H          -4.26632695863370     -2.77540349667273     -0.96746631148062
  H          -4.93443068232218      0.23021639631797     -0.23357530333961
  H          -5.54518838490399     -0.60311223405314     -1.70140933019611
  H          -4.63453997786507      0.93493881437694     -1.85621881737895
  H          -2.14930239625373     -1.71480336410964     -2.99914216397289
  H          -3.16797077029346     -0.33998809620862     -3.54934886896783
  H          -3.91652809106161     -1.93991913520116     -3.20998875502578
