69
Coordinates from ORCA-job my_molecule E -2464.503519237756
  Pt          1.17345137998900     -1.26460563300414     -0.41531725691566
  O           1.82939469541640      0.31331172632226      0.67618885723060
  O          -0.79646281097340     -0.48198503011409     -1.31207069626566
  P           3.31179651964326      0.78331648443397      0.26745835386989
  P          -0.91803813082364     -1.80108157329710     -2.13137722421505
  O          -2.35411233860576     -2.55071684900444     -1.89764629793272
  O           0.28890443486645     -2.72032051274203     -1.64352256350751
  O           3.07990824570832      1.45657343299280     -1.24370122206190
  O           4.40826091464702     -0.26356628398439      0.22124727899219
  C           3.66471560187787      2.21468377482915      1.40849856513338
  C          -0.90402775264731     -1.58630163625459     -3.95845426791985
  C          -1.05907087193940     -2.96515225915541     -4.62994183023283
  C           0.45558306641995     -0.95137799269614     -4.31740456541319
  C          -2.05560531096130     -0.63694870683892     -4.34057177947389
  C           2.37693786478302      2.99061377129524      1.74297752054700
  C           4.29229233762570      1.61851654031463      2.68592150630201
  C           4.68616054332953      3.12544981824264      0.69585584570818
  H          -2.57971730630361     -2.55692119167830     -0.94921311129786
  H           3.85898308178414      1.20676568303860     -1.77912298746183
  H          -0.26736462323488     -3.66559686204400     -4.30030662354359
  H          -0.97775898910460     -2.85033647124432     -5.73084248282236
  H          -2.04315879767412     -3.41906650551260     -4.40246501834479
  H           1.30224515241912     -1.58587101541136     -3.98800756980048
  H           0.56841259231563      0.05318148466933     -3.86316847585880
  H           0.52041418487039     -0.83433935435466     -5.41930631912382
  H          -3.04521516053979     -1.09669262321693     -4.16128874059832
  H          -1.98310930739718     -0.38768616446825     -5.41868724297842
  H          -1.99586264843344      0.30932474385358     -3.76654517853572
  H           1.69389634002731      2.37440769040074      2.36033497957123
  H           1.83164503510203      3.31177633225438      0.83269336994766
  H           2.63706683594995      3.90221328686712      2.32329952493461
  H           3.56614492386002      0.98682816135568      3.23567265820404
  H           4.61235386031188      2.43728269032090      3.36417483742156
  H           5.17386078098862      0.99355512959747      2.44177008508005
  H           4.26482810858073      3.56169578254980     -0.23373364278206
  H           5.60934163521020      2.56758650108710      0.43406932005152
  H           4.97688152609064      3.96009751466118      1.37260196066574
  Si          1.18431610987539     -2.66858572509514      1.50346558341006
  C           2.81229113662348     -3.61577970941521      1.64073463992246
  C           0.88301432373069     -1.55470683803369      3.00784482379520
  C          -0.25814903774668     -3.86882508352344      1.24688978008407
  H           3.64951895074699     -2.91672680179634      1.84446239272665
  H           3.03961595822665     -4.16424771500136      0.70511740344521
  H           2.75085091153907     -4.35255143259691      2.47189735199917
  H          -0.13618593804475     -1.71032847648751      3.41588438730878
  H           0.99610125681267     -0.49086031477411      2.72488798010101
  H           1.61881068433042     -1.77768375909951      3.80800123126950
  H          -0.37820999964683     -4.48632135406066      2.16387075590410
  H          -0.08418066067627     -4.53320968374354      0.37993155726998
  H          -1.20966128242992     -3.32528784265599      1.07865124994986
  H           2.60344077803551     -1.82649624114664     -0.26059741810215
  C          -1.73380785792142      3.46352127222806      0.35604052447954
  C          -2.28044244819293      2.23044574044720      0.31234288457754
  H          -0.79617819818720      3.69749583225810     -0.17846148525054
  H          -2.18526628774210      4.30063978466202      0.92380863228301
  Si         -3.88004003940129      1.71423226478609      1.16509775005298
  H          -1.73353878572962      1.48237777680309     -0.29531603000806
  C          -4.59477489905081      3.19139984723861      2.11658481718109
  C          -3.53678856835600      0.25060645808822      2.34842998718171
  C          -5.12941394424950      1.12126760906767     -0.14105506022611
  H          -3.85584216460345      3.60741554679055      2.83261370420131
  H          -5.49755052752826      2.89934286461049      2.69274596551783
  H          -4.88377889384831      4.00466415485574      1.41999262544561
  H          -3.90400873146202      0.46045839458340      3.37438300794262
  H          -2.44957243900576      0.03941383292832      2.41754089003172
  H          -4.04339710346955     -0.67389266574197      1.99973912508487
  H          -5.28798985685238      1.86490328203302     -0.94931476748668
  H          -6.11510631156973      0.90629935967088      0.32252532759395
  H          -4.76804974738489      0.18240873805554     -0.60881218425951
