69
Coordinates from ORCA-job my_molecule_NEB-HEI_converged E -2464.450235797486
  Pt          0.91142649857329     -1.15985244131014     -0.32693590388013
  O           1.20839657330960      0.22351211042118      1.12323386175388
  O          -1.39115441219055     -1.18576392545829     -0.56689805717010
  P           2.60208827608859      1.03439086886826      1.09465970762912
  P          -1.24016172690566     -2.29988640651304     -1.64506237087461
  O          -1.94555211678046     -3.70088351598932     -1.15441171888881
  O           0.33437637932054     -2.49245879229270     -1.84099662492179
  O           2.39428652624106      2.21617821414378     -0.05520023007542
  O           3.86418893992178      0.23823161804979      0.80246938094861
  C           2.61745269758365      1.97520243835687      2.69839207061713
  C          -2.04981152529050     -2.05874043873430     -3.28386285587372
  C          -1.79097798298174     -3.32533115790859     -4.12891262106898
  C          -1.39977947201236     -0.82498898874555     -3.94141027609502
  C          -3.56149853555956     -1.83985646901827     -3.07588775485598
  C           1.36678812476354      2.86565160149798      2.80754630009092
  C           2.66455746354811      0.96422056767982      3.85916609574431
  C           3.89939059268639      2.83282466101114      2.68197008715120
  H          -1.74265281529040     -3.86002195693750     -0.20981497321068
  H           3.15571326855849      2.15298749113311     -0.66496195048130
  H          -0.70676047245328     -3.52551161579523     -4.24093884515676
  H          -2.22001176279259     -3.17861620796234     -5.14233285722101
  H          -2.26567169300428     -4.21885824257769     -3.67917306090788
  H          -0.31492944928882     -0.97938288494075     -4.10372740415933
  H          -1.53459163484813      0.08523668011603     -3.32277140601905
  H          -1.87512637112124     -0.64441962983123     -4.92796283500339
  H          -4.02672830088423     -2.68980977271560     -2.53933652295038
  H          -4.05384589929672     -1.74922964963071     -4.06692967420374
  H          -3.76857965518306     -0.91071425444046     -2.50866280310495
  H           0.44060607206206      2.25871234377501      2.81750660678508
  H           1.30006392283228      3.57845751360457      1.96226515207848
  H           1.41048952210679      3.44870756004114      3.75247203779750
  H           1.74962701088057      0.34030091543419      3.88866448167090
  H           2.73860415416514      1.51165564346111      4.82288035174472
  H           3.54190700196160      0.29159712425741      3.78148408365288
  H           3.87639051126856      3.56900066325678      1.85379249283340
  H           4.80099891222213      2.20052030414812      2.55927930551366
  H           3.98755672314023      3.39239965278122      3.63706630825706
  Si          2.07038902943075     -2.99965845896375      0.63458095861843
  C           3.36757127995711     -3.58782701517931     -0.60336234165051
  C           2.84296827762015     -2.51400422718696      2.27604263191603
  C           0.74477769342556     -4.33584573508649      0.89386124631453
  H           4.18658486357465     -2.84554897338983     -0.68859724291232
  H           2.91627681869266     -3.74383139231342     -1.60305883411510
  H           3.80373956763138     -4.54966427224625     -0.25881491703235
  H           2.08017189285236     -2.18484123880941      3.00835099622419
  H           3.56575572787402     -1.69034006113312      2.11015303719719
  H           3.37315324014330     -3.39804368167192      2.69140842052134
  H          -0.06246915744202     -3.98173060307642      1.56838371194715
  H           1.22120998741889     -5.21480845694970      1.37968667093955
  H           0.31701720782034     -4.66460375043640     -0.07308178483235
  H           2.43606944156022     -1.03350913384916     -0.56075085686495
  C          -0.61624131912764      3.45515696226555     -1.69502288835325
  C          -0.99845945841046      2.81294312553415     -0.54397664912284
  H          -0.46156330231666      2.98068674807907     -2.67807808519084
  H          -0.41915204368419      4.53263402237708     -1.75353415346529
  Si         -2.68103543200406      2.84763333900743      0.30413858493573
  H          -0.43153003263586      1.92394585939530     -0.23023530029328
  C          -3.27626617443358      4.61440333141153      0.52649751443910
  C          -2.58472253163614      1.92013047191981      1.94720149718878
  C          -3.93140512148847      1.89551364417471     -0.82232755529365
  H          -2.57394825804039      5.14435188807515      1.20043678440551
  H          -4.29022240842316      4.64964217362954      0.96815278148130
  H          -3.29235883566933      5.15188973491923     -0.44332422843215
  H          -1.92425598587953      2.46791303869616      2.64847278759461
  H          -2.17143664337394      0.89901188932582      1.80904757898415
  H          -3.58580129701793      1.82741710044140      2.41585641820259
  H          -3.99413053146649      2.32802604176553     -1.84292964880865
  H          -4.95672933534712      1.93247001692951     -0.38479717552969
  H          -3.65103250495522      0.82502599110940     -0.91703753715880
