69
Coordinates from ORCA-job my_molecule_initial_path E   0.000000000000
  Pt      1.054999     -1.312295     -0.375347
  O       1.380301      0.076250      1.055469
  O      -1.241021     -1.269702     -0.557483
  P       2.754910      0.911951      0.973614
  P      -1.143899     -2.295152     -1.727616
  O      -1.987680     -3.664343     -1.398887
  O       0.413479     -2.616709     -1.886564
  O       2.529702      1.972998     -0.294313
  O       4.046318      0.139283      0.774515
  C       2.707620      1.982449      2.491465
  C      -1.853998     -1.787496     -3.349096
  C      -1.534770     -2.890610     -4.379354
  C      -1.171974     -0.459817     -3.739338
  C      -3.375538     -1.596837     -3.195233
  C       1.415925      2.817499      2.526008
  C       2.794381      1.060225      3.723046
  C       3.947990      2.895635      2.418525
  H      -1.905189     -3.878950     -0.446961
  H       3.332730      1.908460     -0.848859
  H      -0.442694     -3.051509     -4.474174
  H      -1.927621     -2.585668     -5.371904
  H      -2.007261     -3.854423     -4.105053
  H      -0.074595     -0.580324     -3.837897
  H      -1.368953      0.338674     -2.996249
  H      -1.566979     -0.121864     -4.719874
  H      -3.876195     -2.541245     -2.906368
  H      -3.799581     -1.262410     -4.165183
  H      -3.615509     -0.826911     -2.435537
  H       0.518048      2.173342      2.598036
  H       1.309912      3.445520      1.619884
  H       1.433446      3.487985      3.411859
  H       1.908473      0.398587      3.792571
  H       2.836455      1.677211      4.645729
  H       3.702546      0.425661      3.692053
  H       3.898050      3.571737      1.541394
  H       4.879080      2.299306      2.345356
  H       4.002524      3.524385      3.332165
  Si      2.009614     -3.197283      0.700295
  C       3.081739     -4.112525     -0.553025
  C       2.987330     -2.654590      2.208904
  C       0.507998     -4.257016      1.180083
  H       4.001219     -3.540444     -0.788319
  H       2.517336     -4.285993     -1.490266
  H       3.383380     -5.095820     -0.132727
  H       2.330807     -2.202423      2.977784
  H       3.744018     -1.900983      1.908519
  H       3.493387     -3.540658      2.648728
  H      -0.218005     -3.685665      1.793107
  H       0.855098     -5.124355      1.782124
  H       0.006780     -4.650138      0.272853
  H       2.583782     -1.280171     -0.614360
  C      -0.603320      3.572210     -1.078257
  C      -1.189808      2.639347     -0.298406
  H       0.443974      3.465680     -1.412759
  H      -1.134498      4.485338     -1.403060
  Si     -2.942937      2.697511      0.399293
  H      -0.574192      1.761720     -0.017176
  C      -3.784733      4.332689     -0.066700
  C      -2.836926      2.536410      2.288767
  C      -3.927925      1.228196     -0.289741
  H      -3.228671      5.202407      0.340134
  H      -4.817398      4.373808      0.337643
  H      -3.850690      4.455860     -1.167590
  H      -2.268369      3.379804      2.731894
  H      -2.320619      1.595469      2.571512
  H      -3.845942      2.521651      2.751268
  H      -4.127647      1.365364     -1.372837
  H      -4.904072      1.111158      0.225456
  H      -3.344146      0.292548     -0.163538
69
Coordinates from ORCA-job my_molecule_initial_path E   0.000000000000
  Pt      0.902416     -1.247269     -0.202934
  O       1.382654      0.125527      1.178240
  O      -1.434315     -1.016272     -0.758068
  P       2.756196      0.961060      1.112196
  P      -1.229255     -2.208354     -1.727436
  O      -2.077761     -3.497687     -1.191429
  O       0.317922     -2.496337     -1.832516
  O       2.573027      2.084535     -0.110652
  O       4.047807      0.190623      0.907371
  C       2.715969      1.998367      2.651295
  C      -1.950731     -1.957001     -3.393731
  C      -1.606465     -3.204623     -4.230903
  C      -1.299911     -0.696914     -3.993000
  C      -3.475468     -1.785597     -3.266800
  C       1.435419      2.848770      2.684646
  C       2.786254      1.050576      3.863678
  C       3.961567      2.905371      2.607094
  H      -1.956479     -3.580633     -0.220117
  H       3.390446      2.062587     -0.648654
  H      -0.511977     -3.350623     -4.317365
  H      -2.016393     -3.073432     -5.253854
  H      -2.048479     -4.124649     -3.800668
  H      -0.202430     -0.807297     -4.090913
  H      -1.502735      0.201635     -3.379227
  H      -1.710636     -0.523863     -5.009133
  H      -3.963578     -2.674749     -2.823297
  H      -3.909579     -1.623701     -4.275247
  H      -3.732271     -0.903966     -2.649763
  H       0.544696      2.194681      2.739229
  H       1.329278      3.491738      1.789100
  H       1.448022      3.498513      3.585525
  H       1.897554      0.391357      3.915483
  H       2.825200      1.647952      4.799373
  H       3.691432      0.412318      3.825097
  H       3.921460      3.609104      1.751423
  H       4.887481      2.302665      2.523187
  H       4.015924      3.511954      3.535590
  Si      2.039080     -3.103002      0.633341
  C       3.235757     -3.859155     -0.613825
  C       2.913936     -2.654807      2.234898
  C       0.627297     -4.323145      0.994438
  H       4.120851     -3.207167     -0.756940
  H       2.731425     -4.033747     -1.584609
  H       3.604104     -4.839792     -0.241507
  H       2.210256     -2.273445      3.000148
  H       3.665099     -1.868966      2.019736
  H       3.424250     -3.553341      2.644885
  H      -0.132915     -3.869008      1.661173
  H       1.026595     -5.222035      1.513067
  H       0.169886     -4.668993      0.047276
  H       2.278250     -0.850841     -1.280699
  C      -0.581124      3.439320     -1.371734
  C      -1.128028      2.650113     -0.426189
  H       0.372079      3.237578     -1.893263
  H      -1.001761      4.388468     -1.749431
  Si     -2.829407      2.744673      0.381323
  H      -0.475851      1.833512     -0.060054
  C      -3.529104      4.494938      0.196166
  C      -2.787382      2.300009      2.227434
  C      -4.025894      1.521358     -0.430603
  H      -2.841289      5.227457      0.665476
  H      -4.522442      4.593882      0.682461
  H      -3.680482      4.778879     -0.865555
  H      -2.148035      3.025836      2.767481
  H      -2.382941      1.280145      2.385735
  H      -3.781075      2.330930      2.724049
  H      -4.212886      1.790052     -1.489151
  H      -5.011672      1.451049      0.075529
  H      -3.548839      0.522875     -0.383872
69
Coordinates from ORCA-job my_molecule_initial_path E   0.000000000000
  Pt      0.835183     -1.179132     -0.102031
  O       1.371629      0.160001      1.286680
  O      -1.538512     -0.737364     -1.062040
  P       2.744145      0.992922      1.229888
  P      -1.287036     -2.101588     -1.749447
  O      -2.130250     -3.262246     -0.979831
  O       0.246764     -2.382977     -1.798141
  O       2.585581      2.172713      0.049671
  O       4.025766      0.214187      1.008516
  C       2.716920      2.002963      2.789724
  C      -2.032889     -2.125745     -3.418375
  C      -1.665253     -3.483577     -4.045241
  C      -1.436400     -0.966472     -4.234979
  C      -3.559780     -1.970483     -3.297181
  C       1.448080      2.869771      2.837665
  C       2.774341      1.035030      3.986541
  C       3.968257      2.902266      2.767351
  H      -1.918879     -3.199442     -0.018370
  H       3.410243      2.155435     -0.478517
  H      -0.569357     -3.618521     -4.129068
  H      -2.092896     -3.529001     -5.068215
  H      -2.077748     -4.329522     -3.461889
  H      -0.342756     -1.077016     -4.360155
  H      -1.649630      0.014818     -3.771027
  H      -1.871640     -0.965760     -5.255974
  H      -4.024652     -2.783410     -2.707213
  H      -4.010711     -1.988475     -4.311073
  H      -3.831076     -1.003676     -2.833951
  H       0.561450      2.210804      2.879167
  H       1.342349      3.531168      1.956019
  H       1.457685      3.501333      3.751140
  H       1.883238      0.378214      4.024359
  H       2.812312      1.615057      4.933270
  H       3.677179      0.394232      3.939883
  H       3.936105      3.627940      1.929813
  H       4.887678      2.291845      2.670491
  H       4.026162      3.490183      3.707634
  Si      2.050497     -3.018959      0.593800
  C       3.355992     -3.563699     -0.651441
  C       2.834183     -2.670108      2.268474
  C       0.739551     -4.377010      0.791178
  H       4.174929     -2.818578     -0.702478
  H       2.915639     -3.709810     -1.656922
  H       3.799780     -4.535597     -0.342632
  H       2.085326     -2.356740      3.021328
  H       3.579152     -1.859508      2.146023
  H       3.347249     -3.583705      2.640307
  H      -0.051647     -4.062135      1.499743
  H       1.198913     -5.293770      1.222534
  H       0.311394     -4.659858     -0.188579
  H       1.783475     -0.396756     -1.752275
  C      -0.597629      3.325129     -1.633410
  C      -1.073424      2.664831     -0.557506
  H       0.167771      2.966846     -2.347443
  H      -0.810745      4.367176     -1.939900
  Si     -2.725919      2.772853      0.356935
  H      -0.358565      1.961725     -0.089297
  C      -3.240992      4.591577      0.454145
  C      -2.757531      2.059118      2.118951
  C      -4.074485      1.829460     -0.576980
  H      -2.454946      5.167695      0.982872
  H      -4.200154      4.725897      0.998072
  H      -3.409368      5.046729     -0.543299
  H      -2.056028      2.635573      2.750357
  H      -2.461285      0.992315      2.138990
  H      -3.733111      2.127444      2.648916
  H      -4.237587      2.228293     -1.596901
  H      -5.061347      1.799405     -0.068680
  H      -3.710693      0.787693     -0.649975
69
Coordinates from ORCA-job my_molecule_initial_path E   0.000000000000
  Pt      0.815270     -1.094511     -0.056628
  O       1.343583      0.186994      1.382249
  O      -1.605161     -0.506753     -1.381233
  P       2.724366      1.000926      1.333532
  P      -1.312250     -1.982988     -1.786751
  O      -2.128234     -3.000091     -0.816545
  O       0.221222     -2.237932     -1.791949
  O       2.577064      2.192171      0.167276
  O       4.002462      0.222247      1.094343
  C       2.711375      2.000221      2.901951
  C      -2.079684     -2.279058     -3.418796
  C      -1.685248     -3.704738     -3.843697
  C      -1.528601     -1.259449     -4.431290
  C      -3.608892     -2.140335     -3.297272
  C       1.455684      2.883458      2.977623
  C       2.760603      1.017931      4.087361
  C       3.969044      2.890073      2.885311
  H      -1.797560     -2.829567      0.102386
  H       3.383650      2.138994     -0.385600
  H      -0.587565     -3.827402     -3.921256
  H      -2.125418     -3.911087     -4.841399
  H      -2.074247     -4.458799     -3.133075
  H      -0.434670     -1.358965     -4.563524
  H      -1.788682     -0.227629     -4.131445
  H      -1.975964     -1.424553     -5.433907
  H      -4.046211     -2.866505     -2.585710
  H      -4.073577     -2.318124     -4.289402
  H      -3.898838     -1.123008     -2.975224
  H       0.565129      2.231350      3.013797
  H       1.355513      3.562178      2.109639
  H       1.466843      3.501732      3.900042
  H       1.866828      0.364128      4.115142
  H       2.801153      1.584592      5.042100
  H       3.661078      0.374657      4.032584
  H       3.941929      3.621341      2.052519
  H       4.882406      2.272464      2.778955
  H       4.034547      3.468113      3.831234
  Si      2.051746     -2.945362      0.555716
  C       3.439208     -3.302516     -0.668733
  C       2.750855     -2.690099      2.283927
  C       0.826302     -4.392237      0.588234
  H       4.196757     -2.494604     -0.629102
  H       3.054538     -3.390548     -1.703064
  H       3.936513     -4.263643     -0.412115
  H       1.960849     -2.436045      3.016592
  H       3.488753     -1.865208      2.247714
  H       3.263127     -3.617209      2.621690
  H      -0.012590     -4.203656      1.285941
  H       1.330839     -5.310198      0.963690
  H       0.446810     -4.619387     -0.424913
  H       1.114668      0.058046     -2.021827
  C      -0.605036      3.299613     -1.763811
  C      -1.034530      2.679063     -0.644213
  H      -0.761004      2.893631     -2.774985
  H      -0.199514      4.321022     -1.905707
  Si     -2.647245      2.786828      0.327778
  H      -0.236204      2.125548     -0.117548
  C      -2.955752      4.624889      0.654581
  C      -2.727047      1.850738      1.972478
  C      -4.087351      2.108498     -0.689668
  H      -2.119177      5.045432      1.248305
  H      -3.898300      4.783329      1.219525
  H      -3.065532      5.211129     -0.280712
  H      -1.953379      2.248169      2.652068
  H      -2.545386      0.766170      1.849506
  H      -3.672485      1.962599      2.547518
  H      -4.229152      2.637941     -1.651716
  H      -5.065109      2.111412     -0.163339
  H      -3.835121      1.054578     -0.907152
69
Coordinates from ORCA-job my_molecule_initial_path E   0.000000000000
  Pt      0.827430     -0.985570     -0.050079
  O       1.303384      0.213415      1.471505
  O      -1.710868     -0.316628     -1.685421
  P       2.694706      1.005935      1.438198
  P      -1.348329     -1.850417     -1.827681
  O      -2.109041     -2.707294     -0.681536
  O       0.198617     -2.067689     -1.812822
  O       2.538937      2.181786      0.263362
  O       3.976544      0.233537      1.191733
  C       2.683661      1.998908      3.010191
  C      -2.111791     -2.394113     -3.397843
  C      -1.687895     -3.858621     -3.608744
  C      -1.586180     -1.516460     -4.551818
  C      -3.642731     -2.275285     -3.272444
  C       1.438642      2.895794      3.100712
  C       2.727580      1.001715      4.183872
  C       3.947301      2.880217      2.999813
  H      -1.623215     -2.486416      0.160900
  H       3.322804      2.091001     -0.315768
  H      -0.588671     -3.968958     -3.682730
  H      -2.131643     -4.217327     -4.560540
  H      -2.055933     -4.507384     -2.790976
  H      -0.486306     -1.594406     -4.660584
  H      -1.892261     -0.459282     -4.429718
  H      -2.024650     -1.852375     -5.514582
  H      -4.052286     -2.898765     -2.454455
  H      -4.108581     -2.612050     -4.221839
  H      -3.955449     -1.228700     -3.099189
  H       0.537719      2.259153      3.140890
  H       1.345859      3.585076      2.240140
  H       1.453768      3.503254      4.030647
  H       1.832043      0.349765      4.200072
  H       2.767955      1.555224      5.146289
  H       3.625866      0.355591      4.124035
  H       3.922994      3.612906      2.168166
  H       4.857075      2.258327      2.888746
  H       4.018129      3.448385      3.951463
  Si      2.050022     -2.856280      0.499240
  C       3.513418     -3.025646     -0.679348
  C       2.649753     -2.707145      2.275962
  C       0.908722     -4.363214      0.346049
  H       4.206175     -2.172565     -0.535830
  H       3.188375     -3.050998     -1.737563
  H       4.060794     -3.969424     -0.463992
  H       1.817364     -2.515340      2.980000
  H       3.377351     -1.874899      2.337764
  H       3.158749     -3.649551      2.573440
  H       0.008149     -4.294384      0.986388
  H       1.451645     -5.274533      0.681571
  H       0.605274     -4.528828     -0.704108
  H       0.203721      0.329130     -2.057695
  C      -0.689846      3.166801     -1.995720
  C      -0.974236      2.702639     -0.754465
  H      -1.365542      3.013025     -2.857170
  H       0.172775      3.751335     -2.373172
  Si     -2.557206      2.791196      0.280963
  H      -0.106886      2.337968     -0.169799
  C      -2.636275      4.592386      0.860816
  C      -2.664001      1.645468      1.776683
  C      -4.088929      2.387548     -0.750792
  H      -1.751238      4.841156      1.480674
  H      -3.547117      4.768945      1.469546
  H      -2.680945      5.304138      0.011211
  H      -1.792793      1.798555      2.434452
  H      -2.642501      0.576944      1.489775
  H      -3.543648      1.802993      2.437425
  H      -4.240285      3.065953     -1.613678
  H      -5.037159      2.411398     -0.172779
  H      -3.958865      1.362984     -1.147816
69
Coordinates from ORCA-job my_molecule_initial_path E   0.000000000000
  Pt      0.804668     -0.812393     -0.105464
  O       1.266537      0.232425      1.536925
  O      -2.041137     -0.243564     -1.918117
  P       2.656974      1.026445      1.525985
  P      -1.412076     -1.734266     -1.873463
  O      -2.073981     -2.433452     -0.572190
  O       0.155449     -1.764961     -1.882633
  O       2.484685      2.212125      0.359677
  O       3.942436      0.262267      1.274776
  C       2.636755      1.990651      3.115866
  C      -2.156155     -2.516506     -3.347574
  C      -1.683147     -3.980506     -3.339006
  C      -1.642487     -1.783601     -4.604442
  C      -3.691023     -2.425787     -3.227200
  C       1.385988      2.879645      3.213646
  C       2.678069      0.974227      4.273144
  C       3.904361      2.867217      3.123103
  H      -1.452845     -2.176708      0.174267
  H       3.256113      2.120404     -0.234829
  H      -0.581344     -4.060940     -3.412731
  H      -2.124088     -4.489985     -4.220346
  H      -2.020366     -4.510354     -2.427318
  H      -0.536970     -1.810825     -4.676275
  H      -1.983791     -0.730377     -4.640436
  H      -2.056411     -2.279218     -5.506590
  H      -4.069843     -2.930448     -2.316968
  H      -4.141228     -2.921714     -4.111796
  H      -4.045745     -1.377283     -3.216113
  H       0.471688      2.258617      3.240785
  H       1.308931      3.580813      2.360035
  H       1.406426      3.476385      4.150850
  H       1.782015      0.322758      4.273419
  H       2.715221      1.511418      5.244940
  H       3.575768      0.327676      4.206176
  H       3.884048      3.610352      2.300620
  H       4.813901      2.245891      3.005767
  H       3.974738      3.420526      4.083603
  Si      2.033748     -2.724227      0.413752
  C       3.567233     -2.719949     -0.691546
  C       2.540288     -2.715331      2.229090
  C       0.989137     -4.272024      0.066306
  H       4.188917     -1.837723     -0.438927
  H       3.300338     -2.679788     -1.765910
  H       4.164239     -3.640994     -0.512463
  H       1.670449     -2.591952      2.902828
  H       3.250968     -1.882770      2.396089
  H       3.047830     -3.672815      2.476929
  H       0.036822     -4.304502      0.630784
  H       1.561882     -5.178021      0.363297
  H       0.768849     -4.351249     -1.014625
  H      -0.809556      0.507090     -2.005753
  C      -0.707800      3.006576     -2.169598
  C      -0.861902      2.696796     -0.855222
  H      -1.557017      3.021902     -2.878407
  H       0.239956      3.161310     -2.722533
  Si     -2.426748      2.794619      0.223423
  H       0.056768      2.365177     -0.325321
  C      -2.304172      4.501786      1.038394
  C      -2.555883      1.467077      1.557801
  C      -4.006114      2.680901     -0.815102
  H      -1.387326      4.578538      1.657167
  H      -3.178047      4.685390      1.696912
  H      -2.283974      5.313612      0.282858
  H      -1.614718      1.403051      2.133160
  H      -2.711672      0.460201      1.123253
  H      -3.367426      1.643924      2.294751
  H      -4.083250      3.485976     -1.573833
  H      -4.925639      2.748925     -0.195924
  H      -4.028312      1.711539     -1.351722
69
Coordinates from ORCA-job my_molecule_initial_path E   0.000000000000
  Pt      0.751976     -0.675657     -0.114336
  O       1.221652      0.246892      1.607774
  O      -2.173640     -0.082569     -2.230228
  P       2.610316      1.047653      1.614156
  P      -1.474617     -1.519945     -1.957424
  O      -2.018169     -2.097059     -0.538465
  O       0.079343     -1.443321     -1.973575
  O       2.413854      2.255340      0.464818
  O       3.899972      0.293954      1.356617
  C       2.584308      1.972865      3.227502
  C      -2.189272     -2.601705     -3.257765
  C      -1.674380     -4.037745     -3.040003
  C      -1.719892     -2.054287     -4.622009
  C      -3.727782     -2.549429     -3.141491
  C       1.320857      2.845462      3.327709
  C       2.622273      0.933784      4.364796
  C       3.853220      2.847337      3.258000
  H      -1.310809     -1.819015      0.127482
  H       3.182685      2.179440     -0.135184
  H      -0.572383     -4.095495     -3.134201
  H      -2.118200     -4.699959     -3.811844
  H      -1.959283     -4.428489     -2.043816
  H      -0.614531     -2.052977     -4.699725
  H      -2.083982     -1.022371     -4.792425
  H      -2.121678     -2.700728     -5.429289
  H      -4.075299     -2.917525     -2.156104
  H      -4.168204     -3.198412     -3.926623
  H      -4.112818     -1.521595     -3.286663
  H       0.401375      2.227548      3.321008
  H       1.264693      3.563537      2.485166
  H       1.338546      3.426759      4.274586
  H       1.726348      0.282204      4.346492
  H       2.655331      1.452765      5.346627
  H       3.519829      0.287846      4.287940
  H       3.836848      3.604589      2.448391
  H       4.763441      2.228276      3.132657
  H       3.919822      3.382624      4.228946
  Si      2.021282     -2.590954      0.317393
  C       3.605269     -2.396544     -0.697020
  C       2.429551     -2.722499      2.157401
  C       1.062838     -4.137911     -0.233211
  H       4.143093     -1.498304     -0.331904
  H       3.394251     -2.289340     -1.779551
  H       4.253596     -3.288036     -0.550690
  H       1.525309     -2.671450      2.794980
  H       3.115475     -1.897690      2.432816
  H       2.938884     -3.692701      2.344167
  H       0.084895     -4.236132      0.279552
  H       1.668690     -5.036124      0.015178
  H       0.887705     -4.129796     -1.326176
  H      -1.607727      0.706415     -1.988762
  C      -0.817055      2.656257     -2.346876
  C      -0.814799      2.511405     -0.999089
  H      -1.731742      2.921405     -2.908442
  H       0.099754      2.533254     -2.951493
  Si     -2.299732      2.780588      0.162677
  H       0.162951      2.282209     -0.523208
  C      -1.967159      4.356295      1.162386
  C      -2.427919      1.291992      1.324753
  C      -3.877628      2.969966     -0.869404
  H      -1.029263      4.265298      1.747102
  H      -2.795793      4.545473      1.876284
  H      -1.874341      5.241667      0.501139
  H      -1.455111      1.106154      1.826320
  H      -2.702350      0.371178      0.770656
  H      -3.198573      1.462189      2.104874
  H      -3.828792      3.851389     -1.541734
  H      -4.758472      3.104459     -0.208014
  H      -4.058836      2.069295     -1.491599
