69
Coordinates from ORCA-job my_molecule E -2464.509465724515
  Pt          1.07401725955561     -1.33223824260127     -0.42148229150583
  O           1.42014973069773      0.03033936511080      1.02631178440055
  O          -1.18932614886577     -1.23728542739656     -0.56557107689279
  P           2.88303181905019      0.70905940295208      1.08157510052805
  P          -1.14499138871268     -2.25788879520200     -1.75703874193354
  O          -1.92221043060007     -3.66604844189807     -1.41856828154481
  O           0.40305733705214     -2.55383275901003     -1.99543234958808
  O           2.94492354434382      1.67837384494345     -0.27483968264483
  O           4.07747675926368     -0.22815645792058      1.14481106176120
  C           2.79085705917466      1.93290878232056      2.49204720049382
  C          -1.99751976832692     -1.69435434103031     -3.29009519837199
  C          -1.50338551260517     -2.57812248510120     -4.45633098875491
  C          -1.60881254552020     -0.21921273454385     -3.51550300238261
  C          -3.52431460162109     -1.81430361295495     -3.10920118312018
  C           1.69201176151720      2.97515294373632      2.22395200947518
  C           2.49496085832620      1.14304889881040      3.78129953554857
  C           4.17646918480828      2.60016337052816      2.58101635133648
  H          -1.52731434266601     -4.05122972484738     -0.60273802820393
  H           3.69270973033735      1.36711400379456     -0.82389522973948
  H          -0.40992664182882     -2.48250311341567     -4.60299060408724
  H          -2.00991250213783     -2.26366486455785     -5.39233651296876
  H          -1.73735536638861     -3.64751642525660     -4.28260738356042
  H          -0.52091257607654     -0.03817262745944     -3.39628431529806
  H          -2.14877552713860      0.47505520372437     -2.84325446795475
  H          -1.87500981919223      0.06094208497218     -4.55613559988170
  H          -3.85977556098732     -2.86362449901097     -2.98464286909260
  H          -4.02112269905248     -1.39358348340814     -4.00946061726864
  H          -3.86032955925014     -1.26363366474521     -2.20864373549757
  H           0.73229286639094      2.48932462911756      1.98120446524356
  H           1.96979133251506      3.63504126919697      1.38203325389011
  H           1.53081506641639      3.60219207004940      3.12608803605232
  H           1.50343566816755      0.65035915267797      3.73659683298920
  H           2.49604829319850      1.83796928043314      4.64743071529265
  H           3.26367066888833      0.36583884234718      3.96654857858005
  H           4.40720983907575      3.16411071181646      1.65476278674876
  H           4.97459664095622      1.84786458204367      2.73853873599683
  H           4.18942632471653      3.31593703568131      3.42989221486375
  Si          2.12903194025753     -3.16267269118922      0.68189213890870
  C           3.80475748109014     -3.56885225329229     -0.08487089324162
  C           2.30114910344240     -2.73831554765935      2.50718568865321
  C           0.91761685910038     -4.61063507056968      0.44128476156173
  H           4.47435151091563     -2.69652291097762      0.05398870114099
  H           3.74831221350746     -3.82029332970113     -1.16168937656175
  H           4.23983480317776     -4.43532671943462      0.45527341728652
  H           1.37021228643086     -2.30292098394358      2.91856251121726
  H           3.12224877301469     -2.00596766702126      2.63706885275938
  H           2.53533276854133     -3.66927071263491      3.06455583499523
  H           0.01027578206081     -4.49901530008079      1.06985478553946
  H           1.42802259476819     -5.54510675252309      0.75986778165492
  H           0.63800793159465     -4.73088130744748     -0.62539503199739
  H           2.59376559594696     -1.32763475591616     -0.70668661477305
  C          -1.00901476271324      3.23945248751222     -1.65183817047309
  C          -1.51689385907158      2.41758339122508     -0.70790918941938
  H          -0.13802583609934      2.93664081827089     -2.26559032451138
  H          -1.42367994656146      4.24311148723421     -1.86838716236462
  Si         -3.02183245024761      2.72266389278226      0.38658602495168
  H          -1.00785756260872      1.44161730198614     -0.57887045340145
  C          -3.87902486251071      4.33699016783927     -0.11536057890951
  C          -2.47585203521757      2.84221142637351      2.21133000559084
  C          -4.18152954630765      1.22428083220917      0.24106815765944
  H          -3.27315390635455      5.21027701723448      0.20837906066044
  H          -4.87649791186486      4.42170918166574      0.36428115695924
  H          -4.02221013099708      4.41147118519979     -1.21429303196072
  H          -1.95268785044449      3.80422978483316      2.38769681904106
  H          -1.78768105387302      2.01981505376116      2.50489890357649
  H          -3.36793523981442      2.81112890330624      2.87101022366004
  H          -4.28537141219808      0.82284472946205     -0.78735512493543
  H          -5.17673870514959      1.50449493223610      0.64781544472707
  H          -3.77288932529640      0.40746963536313      0.86858917909724
