69
Coordinates from ORCA-job my_molecule_MEP E -2464.517687872451
  Pt      1.054999     -1.312295     -0.375347
  O       1.380301      0.076250      1.055469
  O      -1.241021     -1.269702     -0.557483
  P       2.754910      0.911951      0.973614
  P      -1.143899     -2.295152     -1.727616
  O      -1.987680     -3.664343     -1.398887
  O       0.413479     -2.616709     -1.886564
  O       2.529702      1.972998     -0.294313
  O       4.046318      0.139283      0.774515
  C       2.707620      1.982449      2.491465
  C      -1.853998     -1.787496     -3.349096
  C      -1.534770     -2.890610     -4.379354
  C      -1.171974     -0.459817     -3.739338
  C      -3.375538     -1.596837     -3.195233
  C       1.415925      2.817499      2.526008
  C       2.794381      1.060225      3.723046
  C       3.947990      2.895635      2.418525
  H      -1.905189     -3.878950     -0.446961
  H       3.332730      1.908460     -0.848859
  H      -0.442694     -3.051509     -4.474174
  H      -1.927621     -2.585668     -5.371904
  H      -2.007261     -3.854423     -4.105053
  H      -0.074595     -0.580324     -3.837897
  H      -1.368953      0.338674     -2.996249
  H      -1.566979     -0.121864     -4.719874
  H      -3.876195     -2.541245     -2.906368
  H      -3.799581     -1.262410     -4.165183
  H      -3.615509     -0.826911     -2.435537
  H       0.518048      2.173342      2.598036
  H       1.309912      3.445520      1.619884
  H       1.433446      3.487985      3.411859
  H       1.908473      0.398587      3.792571
  H       2.836455      1.677211      4.645729
  H       3.702546      0.425661      3.692053
  H       3.898050      3.571737      1.541394
  H       4.879080      2.299306      2.345356
  H       4.002524      3.524385      3.332165
  Si      2.009614     -3.197283      0.700295
  C       3.081739     -4.112525     -0.553025
  C       2.987330     -2.654590      2.208904
  C       0.507998     -4.257016      1.180083
  H       4.001219     -3.540444     -0.788319
  H       2.517336     -4.285993     -1.490266
  H       3.383380     -5.095820     -0.132727
  H       2.330807     -2.202423      2.977784
  H       3.744018     -1.900983      1.908519
  H       3.493387     -3.540658      2.648728
  H      -0.218005     -3.685665      1.793107
  H       0.855098     -5.124355      1.782124
  H       0.006780     -4.650138      0.272853
  H       2.583782     -1.280171     -0.614360
  C      -0.603320      3.572210     -1.078257
  C      -1.189808      2.639347     -0.298406
  H       0.443974      3.465680     -1.412759
  H      -1.134498      4.485338     -1.403060
  Si     -2.942937      2.697511      0.399293
  H      -0.574192      1.761720     -0.017176
  C      -3.784733      4.332689     -0.066700
  C      -2.836926      2.536410      2.288767
  C      -3.927925      1.228196     -0.289741
  H      -3.228671      5.202407      0.340134
  H      -4.817398      4.373808      0.337643
  H      -3.850690      4.455860     -1.167590
  H      -2.268369      3.379804      2.731894
  H      -2.320619      1.595469      2.571512
  H      -3.845942      2.521651      2.751268
  H      -4.127647      1.365364     -1.372837
  H      -4.904072      1.111158      0.225456
  H      -3.344146      0.292548     -0.163538
69
Coordinates from ORCA-job my_molecule_MEP E -2464.509091657220
  Pt      0.914127     -1.167661     -0.324185
  O       1.210716      0.211330      1.129011
  O      -1.386146     -1.182702     -0.568509
  P       2.599892      1.027412      1.093931
  P      -1.239288     -2.298778     -1.646263
  O      -1.950317     -3.697105     -1.157210
  O       0.334660     -2.497887     -1.839522
  O       2.387365      2.197786     -0.067494
  O       3.866278      0.235899      0.806223
  C       2.614452      1.974695      2.694302
  C      -2.047409     -2.050964     -3.283710
  C      -1.787544     -3.313197     -4.134610
  C      -1.396337     -0.814413     -3.934683
  C      -3.559343     -1.833755     -3.075880
  C       1.363797      2.865163      2.801577
  C       2.663088      0.967464      3.858491
  C       3.895885      2.833018      2.676357
  H      -1.741203     -3.865359     -0.215601
  H       3.167144      2.150874     -0.655281
  H      -0.703177     -3.512531     -4.246387
  H      -2.215263     -3.160468     -5.147638
  H      -2.262963     -4.209127     -3.690508
  H      -0.311413     -0.969440     -4.096453
  H      -1.531223      0.094480     -3.314311
  H      -1.870067     -0.630374     -4.921266
  H      -4.024815     -2.687298     -2.545237
  H      -4.049962     -1.737448     -4.067170
  H      -3.767861     -0.908148     -2.503487
  H       0.437829      2.258141      2.815539
  H       1.296362      3.574131      1.953162
  H       1.409564      3.452065      3.744082
  H       1.748766      0.342845      3.890999
  H       2.737746      1.518222      4.820296
  H       3.541025      0.295419      3.782267
  H       3.873382      3.567708      1.846767
  H       4.798036      2.201006      2.556354
  H       3.982640      3.395025      3.630190
  Si      2.071514     -3.005692      0.638940
  C       3.363809     -3.596456     -0.602036
  C       2.847665     -2.517028      2.277161
  C       0.740727     -4.335931      0.900818
  H       4.182759     -2.854505     -0.690305
  H       2.908538     -3.752006     -1.599982
  H       3.800329     -4.558376     -0.258539
  H       2.086488     -2.187189      3.010793
  H       3.568685     -1.692596      2.107065
  H       3.380099     -3.399768      2.692167
  H      -0.068630     -3.974428      1.568823
  H       1.211635     -5.213338      1.394561
  H       0.316913     -4.668856     -0.066502
  H       2.439058     -1.041067     -0.556564
  C      -0.614490      3.472997     -1.659878
  C      -1.066085      2.687278     -0.659420
  H       0.139910      3.118966     -2.380494
  H      -0.970112      4.500531     -1.843036
  Si     -2.691562      2.833842      0.288811
  H      -0.541932      1.723984     -0.507211
  C      -3.247665      4.629595      0.514430
  C      -2.566001      1.953099      1.959699
  C      -3.950718      1.889475     -0.785134
  H      -2.560530      5.174908      1.192827
  H      -4.264332      4.664966      0.957850
  H      -3.281602      5.175503     -0.450444
  H      -1.901547      2.497045      2.660671
  H      -2.155702      0.931407      1.820473
  H      -3.563885      1.860337      2.436189
  H      -4.009944      2.320302     -1.805959
  H      -4.968192      1.907421     -0.342199
  H      -3.633625      0.829552     -0.877719
69
Coordinates from ORCA-job my_molecule_MEP E -2464.450253405295
  Pt      0.911426     -1.159852     -0.326936
  O       1.208397      0.223512      1.123234
  O      -1.391154     -1.185764     -0.566898
  P       2.602088      1.034391      1.094660
  P      -1.240162     -2.299886     -1.645062
  O      -1.945552     -3.700884     -1.154412
  O       0.334376     -2.492459     -1.840997
  O       2.394287      2.216178     -0.055200
  O       3.864189      0.238232      0.802469
  C       2.617453      1.975202      2.698392
  C      -2.049812     -2.058740     -3.283863
  C      -1.790978     -3.325331     -4.128913
  C      -1.399779     -0.824989     -3.941410
  C      -3.561499     -1.839856     -3.075888
  C       1.366788      2.865652      2.807546
  C       2.664557      0.964221      3.859166
  C       3.899391      2.832825      2.681970
  H      -1.742653     -3.860022     -0.209815
  H       3.155713      2.152987     -0.664962
  H      -0.706760     -3.525512     -4.240939
  H      -2.220012     -3.178616     -5.142333
  H      -2.265672     -4.218858     -3.679173
  H      -0.314929     -0.979383     -4.103727
  H      -1.534592      0.085237     -3.322771
  H      -1.875126     -0.644420     -4.927963
  H      -4.026728     -2.689810     -2.539337
  H      -4.053846     -1.749230     -4.066930
  H      -3.768580     -0.910714     -2.508663
  H       0.440606      2.258712      2.817507
  H       1.300064      3.578458      1.962265
  H       1.410490      3.448708      3.752472
  H       1.749627      0.340301      3.888664
  H       2.738604      1.511656      4.822880
  H       3.541907      0.291597      3.781484
  H       3.876391      3.569001      1.853792
  H       4.800999      2.200520      2.559279
  H       3.987557      3.392400      3.637066
  Si      2.070389     -2.999658      0.634581
  C       3.367571     -3.587827     -0.603362
  C       2.842968     -2.514004      2.276043
  C       0.744778     -4.335846      0.893861
  H       4.186585     -2.845549     -0.688597
  H       2.916277     -3.743831     -1.603059
  H       3.803740     -4.549664     -0.258815
  H       2.080172     -2.184841      3.008351
  H       3.565756     -1.690340      2.110153
  H       3.373153     -3.398044      2.691408
  H      -0.062469     -3.981731      1.568384
  H       1.221210     -5.214808      1.379687
  H       0.317017     -4.664604     -0.073082
  H       2.436069     -1.033509     -0.560751
  C      -0.616241      3.455157     -1.695023
  C      -0.998459      2.812943     -0.543977
  H      -0.461563      2.980687     -2.678078
  H      -0.419152      4.532634     -1.753534
  Si     -2.681035      2.847633      0.304139
  H      -0.431530      1.923946     -0.230235
  C      -3.276266      4.614403      0.526498
  C      -2.584723      1.920130      1.947201
  C      -3.931405      1.895514     -0.822328
  H      -2.573948      5.144352      1.200437
  H      -4.290222      4.649642      0.968153
  H      -3.292359      5.151890     -0.443324
  H      -1.924256      2.467913      2.648473
  H      -2.171437      0.899012      1.809048
  H      -3.585801      1.827417      2.415856
  H      -3.994131      2.328026     -1.842930
  H      -4.956729      1.932470     -0.384797
  H      -3.651033      0.825026     -0.917038
69
Coordinates from ORCA-job my_molecule_MEP E -2464.452614041812
  Pt      0.910870     -1.158962     -0.327616
  O       1.208322      0.224854      1.123377
  O      -1.390668     -1.186543     -0.565571
  P       2.601678      1.033677      1.095034
  P      -1.240370     -2.299290     -1.644988
  O      -1.945429     -3.701011     -1.154746
  O       0.334674     -2.492384     -1.840292
  O       2.394875      2.218536     -0.053698
  O       3.864755      0.239572      0.802621
  C       2.617851      1.975194      2.698494
  C      -2.049764     -2.058353     -3.283854
  C      -1.790918     -3.324988     -4.128862
  C      -1.399857     -0.824409     -3.941086
  C      -3.561485     -1.839702     -3.075745
  C       1.367138      2.865464      2.808472
  C       2.664641      0.964358      3.859327
  C       3.899449      2.833004      2.681983
  H      -1.742639     -3.859864     -0.210117
  H       3.154198      2.152986     -0.665853
  H      -0.706689     -3.525095     -4.240994
  H      -2.219929     -3.178034     -5.142289
  H      -2.265647     -4.218613     -3.679330
  H      -0.315046     -0.979110     -4.103585
  H      -1.533167      0.085663     -3.321896
  H      -1.875261     -0.644138     -4.927713
  H      -4.026779     -2.689805     -2.539456
  H      -4.053681     -1.748917     -4.066870
  H      -3.768697     -0.910626     -2.508529
  H       0.440928      2.258669      2.818533
  H       1.301670      3.579318      1.964009
  H       1.410745      3.448799      3.753109
  H       1.749769      0.340365      3.888693
  H       2.738784      1.511732      4.823035
  H       3.541890      0.291681      3.781463
  H       3.876413      3.568912      1.853556
  H       4.800935      2.200596      2.559105
  H       3.987769      3.392632      3.636998
  Si      2.069522     -2.999028      0.634061
  C       3.367291     -3.587940     -0.603326
  C       2.843016     -2.514089      2.275807
  C       0.744749     -4.335901      0.894046
  H       4.186390     -2.845759     -0.688768
  H       2.915917     -3.743896     -1.603014
  H       3.803482     -4.549792     -0.258811
  H       2.080374     -2.184989      3.008346
  H       3.565896     -1.690507      2.110032
  H       3.373310     -3.398082      2.691160
  H      -0.062615     -3.981561      1.568305
  H       1.221059     -5.214821      1.380013
  H       0.317001     -4.664576     -0.072941
  H       2.435664     -1.034190     -0.561214
  C      -0.619985      3.422373     -1.715975
  C      -1.034767      2.727121     -0.609167
  H      -0.946348      3.207284     -2.740593
  H       0.068059      4.281221     -1.704799
  Si     -2.725752      2.739341      0.225681
  H      -0.262271      2.366772      0.083272
  C      -3.247186      4.571815      0.505045
  C      -2.582496      1.910257      1.928356
  C      -3.998135      1.868242     -0.837858
  H      -2.560224      5.115448      1.188249
  H      -4.262591      4.617172      0.960329
  H      -3.284746      5.139671     -0.448069
  H      -1.924797      2.473226      2.623371
  H      -2.170000      0.887077      1.816975
  H      -3.581324      1.831499      2.408068
  H      -4.017485      2.317844     -1.851359
  H      -5.014086      1.912298     -0.403819
  H      -3.678250      0.810303     -0.926121
69
Coordinates from ORCA-job my_molecule_MEP E -2464.510149301797
  Pt      0.910743     -1.153983     -0.325642
  O       1.212344      0.225163      1.128330
  O      -1.391229     -1.179861     -0.563898
  P       2.602897      1.035293      1.098824
  P      -1.241773     -2.293984     -1.642444
  O      -1.944868     -3.695281     -1.148128
  O       0.333264     -2.485289     -1.839357
  O       2.398035      2.223647     -0.050323
  O       3.867954      0.245383      0.803401
  C       2.619013      1.976182      2.702729
  C      -2.051777     -2.059526     -3.282296
  C      -1.791241     -3.330133     -4.121136
  C      -1.401556     -0.828969     -3.945497
  C      -3.564184     -1.841890     -3.078186
  C       1.369364      2.867505      2.815954
  C       2.664984      0.964216      3.862704
  C       3.900391      2.834084      2.686016
  H      -1.743970     -3.850623     -0.202532
  H       3.159498      2.155064     -0.659716
  H      -0.706719     -3.529782     -4.231228
  H      -2.219272     -3.187539     -5.135616
  H      -2.265931     -4.222084     -3.668196
  H      -0.316711     -0.984935     -4.106203
  H      -1.534202      0.085755     -3.333294
  H      -1.875817     -0.654750     -4.933777
  H      -4.029885     -2.689908     -2.538922
  H      -4.054047     -1.757023     -4.071022
  H      -3.774672     -0.910027     -2.516782
  H       0.441443      2.262941      2.819393
  H       1.310151      3.590777      1.979007
  H       1.411779      3.443483      3.765111
  H       1.749526      0.340980      3.891316
  H       2.739276      1.511121      4.826696
  H       3.541717      0.290931      3.784463
  H       3.876082      3.570240      1.857795
  H       4.801771      2.201890      2.561717
  H       3.989153      3.393388      3.641139
  Si      2.068903     -2.996203      0.632386
  C       3.370539     -3.579757     -0.603764
  C       2.837721     -2.514140      2.277467
  C       0.746838     -4.337113      0.885979
  H       4.188603     -2.835994     -0.685854
  H       2.921262     -3.734089     -1.604705
  H       3.807602     -4.541805     -0.260749
  H       2.073185     -2.187474      3.009215
  H       3.561240     -1.690203      2.116195
  H       3.367285     -3.399240      2.691499
  H      -0.063178     -3.987631      1.559710
  H       1.225626     -5.215275      1.370982
  H       0.321954     -4.665034     -0.082539
  H       2.435479     -1.030458     -0.559322
  C      -0.639026      3.388984     -1.725798
  C      -1.000737      2.866442     -0.534519
  H      -1.343392      3.603447     -2.547895
  H       0.408653      3.662266     -1.932951
  Si     -2.728689      2.756496      0.229536
  H      -0.167809      2.626634      0.151861
  C      -3.273159      4.557851      0.515881
  C      -2.593853      1.886851      1.908405
  C      -3.981272      1.858286     -0.871890
  H      -2.555273      5.076002      1.185576
  H      -4.277750      4.619605      0.982725
  H      -3.298524      5.123814     -0.438172
  H      -1.921955      2.451480      2.588025
  H      -2.183708      0.862314      1.796505
  H      -3.583823      1.814385      2.404475
  H      -4.026236      2.302923     -1.886970
  H      -5.001017      1.901085     -0.435395
  H      -3.687018      0.793094     -0.966297
69
Coordinates from ORCA-job my_molecule_MEP E -2464.515802695895
  Pt      1.063009     -1.037280     -0.132976
  O       1.492289      0.066934      1.477272
  O      -1.762739     -0.418704     -1.365264
  P       2.828276      0.944072      1.340680
  P      -1.185525     -1.864253     -1.844155
  O      -1.835886     -2.992263     -0.870436
  O       0.363786     -1.923863     -1.933143
  O       2.513162      2.028362      0.098926
  O       4.147676      0.240234      1.094956
  C       2.784876      2.002348      2.868693
  C      -2.015716     -2.141124     -3.457369
  C      -1.654055     -3.545667     -3.977274
  C      -1.483121     -1.048033     -4.410006
  C      -3.540183     -1.997323     -3.257836
  C       1.503191      2.853759      2.908879
  C       2.842374      1.057893      4.085207
  C       4.035924      2.898756      2.819051
  H      -1.309194     -3.071842     -0.042636
  H       3.263250      1.940246     -0.522707
  H      -0.558194     -3.671369     -4.083199
  H      -2.113499     -3.689918     -4.977249
  H      -2.036090     -4.339747     -3.306253
  H      -0.390377     -1.142603     -4.566824
  H      -1.692182     -0.033238     -4.016732
  H      -1.986717     -1.145653     -5.393532
  H      -3.936385     -2.759338     -2.558201
  H      -4.045088     -2.131281     -4.236832
  H      -3.808070     -0.994742     -2.870284
  H       0.596229      2.216657      2.906971
  H       1.448994      3.541467      2.041493
  H       1.491594      3.468873      3.834460
  H       1.941952      0.414396      4.134919
  H       2.898053      1.654109      5.021002
  H       3.733245      0.399673      4.042324
  H       4.003406      3.579135      1.943925
  H       4.955781      2.286225      2.743023
  H       4.095645      3.520920      3.736913
  Si      2.086242     -2.982565      0.615381
  C       3.376258     -3.468763     -0.681450
  C       2.905372     -2.688193      2.288096
  C       0.772496     -4.358468      0.777598
  H       4.154281     -2.682173     -0.748271
  H       2.920952     -3.603867     -1.682298
  H       3.867982     -4.420740     -0.384170
  H       2.166063     -2.377667      3.052279
  H       3.661800     -1.883971      2.181079
  H       3.403411     -3.621052      2.629506
  H      -0.001916     -4.094412      1.529179
  H       1.262456     -5.289188      1.138344
  H       0.285173     -4.594859     -0.189711
  H      -1.066850      0.201864     -1.032412
  C      -0.692591      2.798948     -1.744077
  C      -1.003719      2.698044     -0.431685
  H      -1.465370      2.902377     -2.528350
  H       0.357487      2.812058     -2.087158
  Si     -2.746049      2.786197      0.321378
  H      -0.143324      2.616203      0.261495
  C      -3.183842      4.607625      0.628373
  C      -2.710075      1.848466      1.966359
  C      -4.028835      2.040097     -0.859632
  H      -2.452097      5.097099      1.302744
  H      -4.188466      4.693826      1.093147
  H      -3.198662      5.174019     -0.325468
  H      -1.995057      2.327160      2.667603
  H      -2.384768      0.797083      1.825640
  H      -3.707310      1.839269      2.452297
  H      -4.026079      2.555800     -1.842478
  H      -5.049224      2.139056     -0.434534
  H      -3.825431      0.964909     -1.034591
69
Coordinates from ORCA-job my_molecule_MEP E -2464.530436854165
  Pt      0.751712     -0.675088     -0.119354
  O       1.233928      0.250087      1.597883
  O      -2.190905     -0.087455     -2.213095
  P       2.621837      1.052177      1.592420
  P      -1.488395     -1.523824     -1.943951
  O      -2.020307     -2.099660     -0.520064
  O       0.065325     -1.445745     -1.972328
  O       2.415256      2.258225      0.443131
  O       3.910172      0.299376      1.325767
  C       2.607532      1.979406      3.204762
  C      -2.212140     -2.607910     -3.237319
  C      -1.694186     -4.043187     -3.021779
  C      -1.753942     -2.061771     -4.605876
  C      -3.749753     -2.556948     -3.109104
  C       1.344060      2.850930      3.313734
  C       2.655366      0.941798      4.343032
  C       3.875811      2.855124      3.224257
  H      -1.308037     -1.820102      0.139994
  H       3.179458      2.182296     -0.162760
  H      -0.592899     -4.100009     -3.124504
  H      -2.143383     -4.706800     -3.789303
  H      -1.970934     -4.432942     -2.022906
  H      -0.649217     -2.059509     -4.692220
  H      -2.120341     -1.030415     -4.774740
  H      -2.161396     -2.709616     -5.409185
  H      -4.089219     -2.924128     -2.120570
  H      -4.195667     -3.207344     -3.889962
  H      -4.136896     -1.529662     -3.252557
  H       0.425142      2.232134      3.314985
  H       1.280636      3.567888      2.470751
  H       1.368580      3.433443      4.259716
  H       1.759946      0.289343      4.332541
  H       2.695586      1.462054      5.323926
  H       3.552917      0.296614      4.259984
  H       3.852396      3.611336      2.413848
  H       4.785623      2.236767      3.092589
  H       3.949474      3.391703      4.193983
  Si      2.026188     -2.588636      0.304860
  C       3.602032     -2.394004     -0.722135
  C       2.448929     -2.717465      2.141794
  C       1.064956     -4.137202     -0.236306
  H       4.141829     -1.494790     -0.362354
  H       3.382470     -2.288369     -1.803122
  H       4.252338     -3.284697     -0.579750
  H       1.549637     -2.666469      2.786350
  H       3.136194     -1.891655      2.410812
  H       2.960636     -3.686949      2.325797
  H       0.091134     -4.235704      0.284200
  H       1.673590     -5.034527      0.008474
  H       0.881291     -4.130636     -1.327884
  H      -1.623879      0.702373     -1.977043
  C      -0.837890      2.652516     -2.343767
  C      -0.824979      2.509371     -0.995854
  H      -1.757189      2.916085     -2.898511
  H       0.074295      2.529619     -2.955370
  Si     -2.301066      2.778613      0.177133
  H       0.156677      2.281705     -0.527330
  C      -1.962212      4.355903      1.172239
  C      -2.418757      1.291363      1.342046
  C      -3.887155      2.965187     -0.842840
  H      -1.019691      4.266536      1.749732
  H      -2.785435      4.545197      1.892349
  H      -1.875404      5.240528      0.509175
  H      -1.441883      1.107083      1.836238
  H      -2.696621      0.369586      0.791263
  H      -3.183466      1.461815      2.127947
  H      -3.844411      3.845807     -1.516639
  H      -4.762944      3.099680     -0.174761
  H      -4.072350      2.063555     -1.462472
