71
Coordinates from ORCA-job my_molecule_NEB-HEI_converged E -2465.654090765546
  Pt          0.64866304468716     -1.01122566185327      0.72542902689419
  O          -0.78118575202477      0.46741979605704      1.98404828556371
  O          -0.61470097182579      0.59422629174014     -1.28286024094175
  P          -0.18706490009078      1.88336266931485      1.85027291044826
  P          -1.63267761728396     -0.43536109671866     -1.79659250151466
  O          -1.70089697814799     -1.78306977738521     -0.91472614730857
  O          -1.28501675057870     -0.89821761375932     -3.32933582756863
  O          -0.41340825096678      2.53468980808363      0.39619579051341
  O           1.42377389623321      1.85111933617547      2.17231830368005
  C          -0.81333764028036      3.16199497788300      3.02583719152212
  C          -3.37212694491762      0.14515518463931     -1.91649603235133
  C          -4.22043002321569     -0.93974463645959     -2.60892186541665
  C          -3.39239575877596      1.46543523454169     -2.70900386352710
  C          -3.85221372689383      0.36945869309764     -0.46539157572748
  C          -2.30351461521918      3.41125046265618      2.71874913814711
  C          -0.63458887907103      2.62211964700354      4.45823950386635
  C           0.00574100757743      4.45337952966977      2.81866489925928
  H          -0.92893833800358     -1.76883789302270     -0.21893018376018
  H          -0.52414606149549      1.80062057883551     -0.31332394211557
  H          -3.89551635823392     -1.10474621084306     -3.65445387173944
  H          -5.28355459863373     -0.62092649689968     -2.61920456169140
  H          -4.15762396254908     -1.90594043851699     -2.06998282199263
  H          -3.00819645824916      1.32907742918978     -3.73940195004129
  H          -2.78192606955785      2.24458723538929     -2.21086212582517
  H          -4.43606053457214      1.83662215264809     -2.77599328966758
  H          -3.87565963207069     -0.58057369365433      0.10272286968328
  H          -4.87636698201996      0.79564253925898     -0.48189004799954
  H          -3.19213380318689      1.07145918380804      0.08237873911604
  H          -2.90355230230853      2.48639584063794      2.83591129731605
  H          -2.44513958881933      3.79187929454208      1.68821482778364
  H          -2.70143256922950      4.16970642243178      3.42545725139070
  H          -1.21422162060369      1.69089914719752      4.61582672758878
  H          -0.99286946482954      3.38054375148133      5.18551416807004
  H           0.42997444544158      2.40922167621770      4.67834364172494
  H          -0.08597422617674      4.82817774166158      1.78036581292770
  H           1.07967461287640      4.29074895289981      3.03440351612295
  H          -0.37169498657407      5.23935119225348      3.50626780353364
  Si          0.89718020680538     -2.52134017629054      2.47213038469725
  C           1.12766769642751     -4.28136826675902      1.79058374532115
  C           2.37127694592858     -2.13779557148086      3.63478452238246
  C          -0.69993925796675     -2.47025871472115      3.50086510007874
  H           2.09542573412932     -4.39761837580686      1.26055662445206
  H           0.31413651899509     -4.52848361681584      1.07872518567391
  H           1.10010687570989     -5.02247543539014      2.61654812197821
  H           2.29946693452052     -1.12553379324729      4.08263435791330
  H           3.34532542797132     -2.21409044854853      3.11030417333096
  H           2.38248651979997     -2.87070932045090      4.47360612445564
  H          -0.88238727864913     -1.44733828484602      3.88616338337011
  H          -0.64117048721298     -3.17744963223043      4.35539089313700
  H          -1.57196742309249     -2.74672247201250      2.87407246919448
  H           2.58361318569542     -0.98037578486086     -0.24185020145195
  C           1.56256182053504     -2.26423217699543     -1.30830946474115
  C           2.30180545158377     -0.99492196601701     -1.41814348075247
  H           1.82052865641291     -2.96160378297175     -0.51528705254017
  H           1.24868055902319     -2.82268685356894     -2.23097159690073
  Si          3.15690952672111     -0.50907581596453     -3.12908527620176
  H           1.68710986192178     -0.07671500737335     -1.28068233621197
  C           2.12843199974709     -1.10574682058049     -4.64798203510850
  C           4.89226647641492     -1.24060431429529     -3.25571281005369
  C           3.20985364914487      1.38554425660476     -3.20577017672508
  H           1.93829711966175     -2.19937110475500     -4.64987689235356
  H           2.67214374202254     -0.88514062492887     -5.59680842897703
  H           1.15297245567248     -0.57898775520613     -4.73294143659490
  H           4.85945641669183     -2.34787107375132     -3.20270889572154
  H           5.50966823173461     -0.87814826585633     -2.40929759603647
  H           5.39626080258335     -0.95214909766524     -4.20099940239210
  H           2.18700893553453      1.81335314104393     -3.14434331000092
  H           3.67547126064515      1.75346082888396     -4.14460000740652
  H           3.79568410726816      1.79328462164122     -2.35709606642466
  H          -0.36030270391823     -1.22082936359994     -3.38153529547463
  H           1.73470939112799      0.93809981861435      1.93984582012129
