71
Coordinates from ORCA-job my_molecule_initial_path E   0.000000000000
  Pt      0.921973     -1.809562      0.903897
  O      -1.606865      1.114695      2.228581
  O      -0.279717     -0.550238     -0.474137
  P      -0.278650      1.783267      1.940527
  P      -1.299689     -1.296814     -1.386870
  O      -1.440176     -2.825239     -0.865222
  O      -0.806251     -1.324180     -2.928599
  O       0.019912      1.993034      0.338636
  O       1.032357      0.994462      2.542860
  C      -0.069944      3.479883      2.638711
  C      -2.973116     -0.551702     -1.461784
  C      -3.839716     -1.405476     -2.411417
  C      -2.829394      0.892568     -1.988268
  C      -3.547592     -0.551350     -0.028978
  C      -1.200819      4.348697      2.050818
  C      -0.231064      3.357970      4.168054
  C       1.311406      4.051281      2.272578
  H      -0.727337     -2.947848     -0.153194
  H      -0.129682      1.110359     -0.108729
  H      -3.438877     -1.410391     -3.443957
  H      -4.863261     -0.977870     -2.438877
  H      -3.917558     -2.453246     -2.059330
  H      -2.404969      0.918784     -3.011249
  H      -2.197547      1.512324     -1.321388
  H      -3.836288      1.357171     -2.021739
  H      -3.661928     -1.582076      0.360830
  H      -4.555234     -0.087518     -0.059776
  H      -2.921901      0.030188      0.681081
  H      -2.194074      3.906376      2.265262
  H      -1.099939      4.453672      0.952304
  H      -1.164182      5.362959      2.501103
  H      -1.203824      2.895458      4.428777
  H      -0.187246      4.366676      4.630251
  H       0.573409      2.738225      4.610929
  H       1.441407      4.119687      1.174710
  H       2.127061      3.420699      2.676936
  H       1.416580      5.071966      2.698313
  Si      0.179215     -2.749009      2.901030
  C       0.238571     -4.648943      2.841444
  C       1.197162     -2.137396      4.382450
  C      -1.620842     -2.184055      3.104892
  H       1.277940     -5.025770      2.760803
  H      -0.337072     -5.050960      1.982731
  H      -0.209192     -5.063154      3.770403
  H       1.206519     -1.029670      4.428422
  H       2.246761     -2.490790      4.333275
  H       0.745734     -2.515581      5.324731
  H      -1.707297     -1.078078      3.060033
  H      -1.995126     -2.537078      4.091062
  H      -2.272916     -2.617070      2.319213
  H       2.034053     -2.665678      1.569554
  C       2.104230     -2.529780     -3.236808
  C       2.365559     -1.315525     -2.696458
  H       1.959283     -3.430480     -2.612683
  H       2.047559     -2.683487     -4.329750
  Si      2.716016      0.297613     -3.644151
  H       2.419446     -1.269924     -1.586945
  C       2.514383     -0.024858     -5.499594
  C       4.492461      0.817515     -3.241238
  C       1.500567      1.632711     -3.075572
  H       3.220370     -0.799787     -5.862730
  H       2.710900      0.902600     -6.076243
  H       1.484176     -0.356087     -5.745585
  H       5.222246      0.049458     -3.568848
  H       4.626796      0.973841     -2.151231
  H       4.744558      1.769829     -3.752741
  H       0.456366      1.346733     -3.316441
  H       1.716833      2.592430     -3.589539
  H       1.555953      1.814146     -1.982525
  H       0.163841     -1.553127     -2.993902
  H       1.057682      0.052521      2.191299
71
Coordinates from ORCA-job my_molecule_initial_path E   0.000000000000
  Pt      0.835101     -1.648335      0.868880
  O      -1.528034      0.993535      2.275507
  O      -0.385267     -0.342547     -0.595824
  P      -0.293446      1.803172      1.956198
  P      -1.404319     -1.127493     -1.457023
  O      -1.525723     -2.636924     -0.883015
  O      -0.954102     -1.207540     -3.010514
  O      -0.119432      2.121097      0.366158
  O       1.111989      1.138196      2.474971
  C      -0.257789      3.455728      2.762715
  C      -3.080934     -0.401541     -1.546987
  C      -3.948839     -1.313161     -2.438547
  C      -2.962951      1.016047     -2.142717
  C      -3.639211     -0.354189     -0.111409
  C      -1.496887      4.218505      2.254328
  C      -0.344677      3.223605      4.284681
  C       1.040238      4.194164      2.395624
  H      -0.798816     -2.735993     -0.178028
  H      -0.260156      1.256995     -0.128237
  H      -3.563948     -1.363077     -3.475743
  H      -4.977774     -0.899278     -2.471315
  H      -4.007255     -2.343024     -2.033832
  H      -2.552290      1.000487     -3.171277
  H      -2.329388      1.671445     -1.513658
  H      -3.975315      1.467851     -2.183081
  H      -3.721831     -1.363576      0.336298
  H      -4.651736      0.097637     -0.142778
  H      -3.009699      0.268533      0.554690
  H      -2.429539      3.663356      2.477368
  H      -1.448001      4.397542      1.162078
  H      -1.556488      5.202857      2.763922
  H      -1.251387      2.644744      4.550051
  H      -0.395270      4.203021      4.804998
  H       0.538499      2.673697      4.665232
  H       1.121451      4.340378      1.301348
  H       1.935539      3.640850      2.739619
  H       1.042354      5.194455      2.878373
  Si      0.329666     -2.718197      2.832648
  C       0.392121     -4.607040      2.636278
  C       1.474570     -2.176424      4.247636
  C      -1.456696     -2.223597      3.228994
  H       1.422788     -4.962089      2.436859
  H      -0.261363     -4.967049      1.815539
  H       0.042381     -5.086419      3.576016
  H       1.470119     -1.075060      4.374695
  H       2.524744     -2.499438      4.097724
  H       1.115671     -2.630143      5.196292
  H      -1.559820     -1.121699      3.289863
  H      -1.736399     -2.653413      4.215874
  H      -2.179262     -2.594666      2.474536
  H       2.423788     -2.349228      1.275033
  C       2.094515     -2.599688     -2.907372
  C       2.335699     -1.304912     -2.537175
  H       2.123313     -3.452819     -2.212385
  H       2.002402     -2.872165     -3.972964
  Si      2.840771      0.129573     -3.634986
  H       2.267543     -1.074744     -1.459727
  C       2.447172     -0.312147     -5.427411
  C       4.681086      0.369308     -3.264068
  C       1.880115      1.695917     -3.224665
  H       3.010288     -1.215781     -5.736375
  H       2.760537      0.508640     -6.105199
  H       1.368385     -0.496756     -5.609343
  H       5.257916     -0.540180     -3.527412
  H       4.890888      0.618148     -2.203416
  H       5.057981      1.206112     -3.886708
  H       0.799111      1.564684     -3.424563
  H       2.222908      2.555094     -3.837588
  H       2.027136      1.980300     -2.165574
  H       0.009515     -1.443530     -3.078810
  H       1.165745      0.198188      2.128699
71
Coordinates from ORCA-job my_molecule_initial_path E   0.000000000000
  Pt      0.783989     -1.497482      0.850637
  O      -1.431955      0.862160      2.277028
  O      -0.473878     -0.132114     -0.720591
  P      -0.314075      1.826132      1.956476
  P      -1.489021     -0.961684     -1.526797
  O      -1.587307     -2.448877     -0.898174
  O      -1.080764     -1.087540     -3.089076
  O      -0.249872      2.243801      0.388309
  O       1.168712      1.298613      2.407433
  C      -0.440672      3.410762      2.873471
  C      -3.172886     -0.259491     -1.630674
  C      -4.039556     -1.227044     -2.461263
  C      -3.081385      1.129917     -2.291540
  C      -3.713144     -0.162657     -0.192533
  C      -1.772114      4.056075      2.444897
  C      -0.445262      3.082097      4.379673
  C       0.754190      4.308985      2.513154
  H      -0.854158     -2.519076     -0.192261
  H      -0.373123      1.404000     -0.158471
  H      -3.670636     -1.320449     -3.501089
  H      -5.074408     -0.828697     -2.498313
  H      -4.076030     -2.237086     -2.007074
  H      -2.686747      1.073936     -3.324865
  H      -2.443538      1.821245     -1.707207
  H      -4.099952      1.567059     -2.335596
  H      -3.763026     -1.148005      0.309324
  H      -4.733233      0.270948     -0.224885
  H      -3.082268      0.505671      0.423414
  H      -2.630659      3.393427      2.670961
  H      -1.783809      4.299655      1.364421
  H      -1.921124      4.997691      3.013300
  H      -1.274149      2.394306      4.638908
  H      -0.583465      4.018823      4.959080
  H       0.505439      2.613540      4.701527
  H       0.780498      4.523055      1.427497
  H       1.717120      3.845443      2.802739
  H       0.658842      5.273823      3.054726
  Si      0.473063     -2.686970      2.763140
  C       0.528660     -4.557857      2.442554
  C       1.725262     -2.208030      4.109512
  C      -1.281585     -2.264708      3.339660
  H       1.543398     -4.880789      2.137075
  H      -0.193877     -4.880658      1.665517
  H       0.273763     -5.101076      3.378245
  H       1.715697     -1.118359      4.314773
  H       2.766666     -2.502499      3.866716
  H       1.456223     -2.733546      5.051049
  H      -1.387170     -1.174952      3.506007
  H      -1.473765     -2.771980      4.310593
  H      -2.064714     -2.579851      2.621557
  H       2.772413     -1.906775      1.044124
  C       2.023750     -2.605996     -2.546017
  C       2.321022     -1.263126     -2.374668
  H       2.315510     -3.392967     -1.836365
  H       1.916894     -2.997407     -3.573005
  Si      2.950020     -0.026345     -3.614635
  H       2.095430     -0.806164     -1.403114
  C       2.352569     -0.570993     -5.316711
  C       4.816860     -0.091384     -3.297516
  C       2.298721      1.720699     -3.354420
  H       2.711918     -1.592846     -5.551533
  H       2.774838      0.090919     -6.101547
  H       1.252022     -0.552534     -5.453429
  H       5.223351     -1.107960     -3.473905
  H       5.123445      0.235363     -2.282436
  H       5.295771      0.588035     -4.030941
  H       1.203184      1.770511     -3.505188
  H       2.747927      2.422422     -4.087840
  H       2.560724      2.109923     -2.352248
  H      -0.119062     -1.308811     -3.174038
  H       1.254502      0.355751      2.082468
71
Coordinates from ORCA-job my_molecule_initial_path E   0.000000000000
  Pt      0.756758     -1.344542      0.830552
  O      -1.331183      0.738712      2.247256
  O      -0.552912      0.082804     -0.851461
  P      -0.346975      1.850365      1.951026
  P      -1.558558     -0.801627     -1.595919
  O      -1.632746     -2.262804     -0.909536
  O      -1.179262     -0.980075     -3.161498
  O      -0.381459      2.357457      0.413219
  O       1.197281      1.471700      2.342470
  C      -0.614873      3.349094      2.972219
  C      -3.252076     -0.126729     -1.710784
  C      -4.113910     -1.146213     -2.480802
  C      -3.188741      1.233523     -2.431844
  C      -3.773210      0.021760     -0.270848
  C      -2.021210      3.866248      2.617982
  C      -0.533631      2.938658      4.455864
  C       0.462457      4.391763      2.628539
  H      -0.898852     -2.298814     -0.197553
  H      -0.480726      1.547651     -0.188442
  H      -3.758093     -1.281316     -3.520500
  H      -5.154884     -0.764580     -2.521288
  H      -4.127793     -2.134809     -1.980596
  H      -2.810513      1.136699     -3.468218
  H      -2.548344      1.959754     -1.894311
  H      -4.213861      1.654874     -2.477832
  H      -3.792845     -0.938221      0.279413
  H      -4.801727      0.434344     -0.303388
  H      -3.142090      0.732072      0.294186
  H      -2.794659      3.104510      2.838528
  H      -2.096593      4.164326      1.554080
  H      -2.250725      4.754655      3.242360
  H      -1.276402      2.153626      4.699204
  H      -0.749983      3.822234      5.091913
  H       0.471330      2.558880      4.725210
  H       0.432693      4.663574      1.555796
  H       1.479208      4.025805      2.870252
  H       0.278497      5.308506      3.227501
  Si      0.609679     -2.650818      2.678158
  C       0.645752     -4.503285      2.261034
  C       1.959038     -2.231241      3.947546
  C      -1.095765     -2.300618      3.430026
  H       1.637862     -4.800352      1.868447
  H      -0.136059     -4.793137      1.529896
  H       0.477032     -5.102739      3.182224
  H       1.950515     -1.159506      4.232580
  H       2.978054     -2.491554      3.596202
  H       1.783316     -2.823167      4.871981
  H      -1.194028     -1.228890      3.689769
  H      -1.207420     -2.878654      4.373726
  H      -1.932859     -2.569989      2.755632
  H       3.073036     -1.339889      0.809892
  C       1.975241     -2.532464     -2.147185
  C       2.355380     -1.175483     -2.159155
  H       2.475573     -3.247991     -1.476042
  H       1.807664     -3.026327     -3.122769
  Si      3.047392     -0.184828     -3.569370
  H       1.941567     -0.505615     -1.399919
  C       2.241581     -0.784005     -5.162149
  C       4.892904     -0.555192     -3.334322
  C       2.736040      1.675242     -3.483343
  H       2.341240     -1.880343     -5.289415
  H       2.748477     -0.334818     -6.042719
  H       1.171685     -0.516937     -5.281138
  H       5.122711     -1.637767     -3.410451
  H       5.321118     -0.171861     -2.385150
  H       5.427233     -0.060669     -4.170098
  H       1.661240      1.924023     -3.582321
  H       3.248666      2.182154     -4.327540
  H       3.136633      2.126984     -2.554658
  H      -0.217885     -1.186905     -3.255921
  H       1.318000      0.522777      2.053799
71
Coordinates from ORCA-job my_molecule_initial_path E   0.000000000000
  Pt      0.744224     -1.189007      0.806439
  O      -1.224428      0.629868      2.197233
  O      -0.616403      0.298026     -0.987627
  P      -0.385530      1.871500      1.944404
  P      -1.611991     -0.644054     -1.663420
  O      -1.661417     -2.077204     -0.920697
  O      -1.256884     -0.881948     -3.229016
  O      -0.515514      2.454987      0.443226
  O       1.201331      1.644237      2.282197
  C      -0.778996      3.271990      3.059561
  C      -3.318407     -0.001083     -1.785303
  C      -4.173828     -1.067395     -2.495632
  C      -3.286060      1.328524     -2.563329
  C      -3.819958      0.202172     -0.345170
  C      -2.242540      3.651917      2.770379
  C      -0.611263      2.794239      4.515618
  C       0.170557      4.441788      2.745487
  H      -0.928472     -2.077896     -0.202406
  H      -0.582353      1.678249     -0.211333
  H      -3.829447     -1.242929     -3.533103
  H      -5.220975     -0.703251     -2.538564
  H      -4.164819     -2.032914     -1.952250
  H      -2.923191      1.190847     -3.600523
  H      -2.646102      2.087380     -2.071747
  H      -4.317762      1.733579     -2.610345
  H      -3.810641     -0.731455      0.248694
  H      -4.857474      0.591433     -0.376896
  H      -3.191305      0.950910      0.170288
  H      -2.922557      2.800832      2.971834
  H      -2.380922      3.996342      1.727098
  H      -2.544767      4.477709      3.447474
  H      -1.262177      1.924944      4.734453
  H      -0.896590      3.616553      5.204347
  H       0.434893      2.507725      4.739343
  H       0.083502      4.763821      1.689673
  H       1.227340      4.177641      2.945209
  H      -0.092907      5.300188      3.398584
  Si      0.736734     -2.609993      2.582615
  C       0.745294     -4.445907      2.088802
  C       2.183258     -2.238924      3.756010
  C      -0.902017     -2.329113      3.499676
  H       1.706553     -4.732743      1.619463
  H      -0.087460     -4.703817      1.403324
  H       0.653087     -5.091758      2.989883
  H       2.181188     -1.189601      4.114976
  H       3.165400     -2.447184      3.286132
  H       2.103723     -2.889905      4.653872
  H      -0.984712     -1.278329      3.838082
  H      -0.938810     -2.968372      4.409175
  H      -1.787617     -2.560626      2.874897
  H       3.284441     -0.718280      0.512774
  C       1.976878     -2.352729     -1.733455
  C       2.431950     -0.999031     -1.905336
  H       2.612131     -3.000071     -1.103406
  H       1.717107     -2.945788     -2.632454
  Si      3.135500     -0.341981     -3.498621
  H       1.825412     -0.209995     -1.448518
  C       2.128638     -0.952056     -4.970359
  C       4.903206     -1.019375     -3.352522
  C       3.162108      1.547937     -3.614958
  H       1.971642     -2.049147     -4.953598
  H       2.660668     -0.745910     -5.923961
  H       1.148892     -0.444882     -5.088736
  H       4.946285     -2.127638     -3.317954
  H       5.474335     -0.620898     -2.488279
  H       5.444328     -0.721344     -4.273028
  H       2.149512      1.995193     -3.675382
  H       3.691962      1.849545     -4.542601
  H       3.703827      2.007718     -2.764117
  H      -0.299657     -1.095551     -3.329915
  H       1.370049      0.692286      2.033341
71
Coordinates from ORCA-job my_molecule_initial_path E   0.000000000000
  Pt      0.736386     -1.030630      0.785519
  O      -1.101036      0.537131      2.131174
  O      -0.656682      0.512302     -1.125896
  P      -0.414833      1.886245      1.935989
  P      -1.647216     -0.481474     -1.729809
  O      -1.672469     -1.886895     -0.935831
  O      -1.316127     -0.786177     -3.292335
  O      -0.647473      2.531481      0.476701
  O       1.195279      1.806499      2.228089
  C      -0.931533      3.175580      3.133388
  C      -3.370141      0.123873     -1.853757
  C      -4.219894     -0.984127     -2.504024
  C      -3.372150      1.419463     -2.688371
  C      -3.851924      0.386420     -0.415883
  C      -2.434877      3.410266      2.898231
  C      -0.677238      2.644889      4.558237
  C      -0.120458      4.456548      2.863925
  H      -0.938648     -1.856931     -0.214685
  H      -0.672436      1.791217     -0.228323
  H      -3.886267     -1.200761     -3.537263
  H      -5.273158     -0.637949     -2.548385
  H      -4.188097     -1.924341     -1.918902
  H      -3.023405      1.240357     -3.724065
  H      -2.734565      2.208105     -2.241997
  H      -4.410208      1.808235     -2.735978
  H      -3.813678     -0.519701      0.218115
  H      -4.898762      0.750459     -0.445905
  H      -3.229368      1.170557      0.052811
  H      -3.014406      2.480402      3.063268
  H      -2.635462      3.794755      1.879333
  H      -2.804350      4.162496      3.625788
  H      -1.231009      1.703625      4.744337
  H      -1.024413      3.398129      5.295770
  H       0.398302      2.455831      4.742486
  H      -0.267748      4.822408      1.829133
  H       0.963352      4.297229      3.027210
  H      -0.456142      5.246562      3.568061
  Si      0.860940     -2.561644      2.484472
  C       0.844893     -4.374351      1.903440
  C       2.397833     -2.228043      3.551093
  C      -0.697305     -2.349581      3.550718
  H       1.760418     -4.647450      1.342582
  H      -0.037386     -4.599924      1.270078
  H       0.828629     -5.062926      2.777263
  H       2.409154     -1.201254      3.970222
  H       3.336526     -2.376397      2.980663
  H       2.407201     -2.930464      4.412859
  H      -0.757503     -1.321406      3.956540
  H      -0.663297     -3.044334      4.418441
  H      -1.626423     -2.548076      2.980067
  H       3.382008     -0.125859      0.099221
  C       2.011152     -2.080679     -1.320969
  C       2.504196     -0.742828     -1.689386
  H       2.747979     -2.644940     -0.717652
  H       1.665168     -2.765563     -2.122462
  Si      3.210011     -0.493464     -3.403586
  H       1.764649      0.055675     -1.526030
  C       2.024107     -1.085736     -4.749196
  C       4.832617     -1.470957     -3.300155
  C       3.549748      1.338499     -3.747469
  H       1.680085     -2.124059     -4.567536
  H       2.511822     -1.107385     -5.746990
  H       1.161163     -0.399565     -4.876776
  H       4.677661     -2.558708     -3.144185
  H       5.528627     -1.105519     -2.516334
  H       5.350370     -1.372095     -4.275625
  H       2.630174      1.957172     -3.791332
  H       4.052358      1.438698     -4.731868
  H       4.221873      1.774193     -2.980854
  H      -0.366320     -1.020543     -3.399949
  H       1.439730      0.867436      1.994538
71
Coordinates from ORCA-job my_molecule_initial_path E   0.000000000000
  Pt      0.736808     -0.873469      0.769470
  O      -0.959530      0.466464      2.052247
  O      -0.678141      0.728190     -1.258038
  P      -0.434319      1.901932      1.923204
  P      -1.666872     -0.307890     -1.797611
  O      -1.666811     -1.685581     -0.955788
  O      -1.356167     -0.686173     -3.351934
  O      -0.776541      2.591587      0.509651
  O       1.184973      1.970259      2.169382
  C      -1.077412      3.062140      3.192776
  C      -3.409513      0.255781     -1.917513
  C      -4.255419     -0.889826     -2.505345
  C      -3.449986      1.511354     -2.811039
  C      -3.871782      0.583311     -0.485175
  C      -2.603791      3.142457      3.001239
  C      -0.734564      2.490182      4.582737
  C      -0.418766      4.439216      2.983369
  H      -0.926961     -1.631862     -0.237736
  H      -0.752615      1.894087     -0.244900
  H      -3.931784     -1.150478     -3.531656
  H      -5.314833     -0.562333     -2.550340
  H      -4.200873     -1.801355     -1.878161
  H      -3.114745      1.288400     -3.842726
  H      -2.815569      2.327295     -2.411064
  H      -4.494132      1.883950     -2.859415
  H      -3.804113     -0.294167      0.186213
  H      -4.927826      0.921235     -0.512965
  H      -3.259512      1.399664     -0.057726
  H      -3.075211      2.145708      3.112703
  H      -2.868502      3.559761      2.010161
  H      -3.035601      3.807753      3.777611
  H      -1.183407      1.487799      4.728279
  H      -1.138042      3.164487      5.366542
  H       0.359584      2.404983      4.731361
  H      -0.631208      4.842646      1.974062
  H       0.679995      4.389555      3.114306
  H      -0.820799      5.149057      3.736405
  Si      0.993084     -2.495332      2.386759
  C       0.966003     -4.265483      1.685310
  C       2.608163     -2.202541      3.348883
  C      -0.473062     -2.360460      3.587416
  H       1.822398     -4.477770      1.014568
  H       0.032792     -4.465277      1.119752
  H       1.037051     -5.004752      2.513120
  H       2.636385     -1.199229      3.820998
  H       3.502009     -2.295769      2.699864
  H       2.697173     -2.954795      4.162581
  H      -0.507781     -1.357259      4.054634
  H      -0.369536     -3.110976      4.401013
  H      -1.440665     -2.530182      3.074505
  H       3.379980      0.265956     -0.392054
  C       2.066185     -1.767237     -0.922620
  C       2.558579     -0.482872     -1.536986
  H       2.882573     -2.266776     -0.361879
  H       1.638346     -2.514225     -1.626585
  Si      3.266913     -0.639312     -3.277834
  H       1.747319      0.269083     -1.605252
  C       1.926249     -1.195956     -4.498899
  C       4.690893     -1.883537     -3.162117
  C       3.888887      1.050256     -3.866367
  H       1.440233     -2.131281     -4.151653
  H       2.333891     -1.423187     -5.506096
  H       1.184864     -0.384389     -4.657164
  H       4.348619     -2.895167     -2.860858
  H       5.479666     -1.560887     -2.450918
  H       5.159956     -1.991063     -4.161352
  H       3.081072      1.808999     -3.917184
  H       4.328191      0.961079     -4.881540
  H       4.678376      1.439450     -3.191670
  H      -0.411554     -0.929751     -3.471617
  H       1.520738      1.064525      1.918659
71
Coordinates from ORCA-job my_molecule_initial_path E   0.000000000000
  Pt      0.766513     -0.714731      0.750730
  O      -0.809145      0.421831      1.959138
  O      -0.687069      0.945669     -1.374834
  P      -0.462133      1.925287      1.907903
  P      -1.674684     -0.122525     -1.868418
  O      -1.647763     -1.466060     -0.970710
  O      -1.369726     -0.580590     -3.406136
  O      -0.904627      2.642974      0.539918
  O       1.151227      2.144343      2.114233
  C      -1.227737      2.937868      3.240410
  C      -3.438831      0.400420     -1.977493
  C      -4.284053     -0.778771     -2.498803
  C      -3.521481      1.607003     -2.934062
  C      -3.883293      0.799463     -0.555055
  C      -2.758759      2.855123      3.077697
  C      -0.794530      2.333904      4.591624
  C      -0.737218      4.393451      3.105837
  H      -0.892257     -1.395009     -0.265344
  H      -0.824339      1.997437     -0.263743
  H      -3.969017     -1.088097     -3.514324
  H      -5.349495     -0.470185     -2.543981
  H      -4.207198     -1.657004     -1.828016
  H      -3.198905      1.335177     -3.958175
  H      -2.889982      2.447557     -2.583273
  H      -4.571150      1.964402     -2.984234
  H      -3.788387     -0.048585      0.151466
  H      -4.947468      1.113326     -0.580835
  H      -3.284408      1.642919     -0.158897
  H      -3.113613      1.806002      3.123225
  H      -3.088889      3.293331      2.115401
  H      -3.246049      3.419977      3.899647
  H      -1.127396      1.281350      4.688308
  H      -1.248758      2.918283      5.418681
  H       0.306298      2.361833      4.711634
  H      -1.018748      4.826816      2.126135
  H       0.363533      4.460345      3.210561
  H      -1.199180      5.010301      3.905109
  Si      1.140950     -2.400730      2.285681
  C       1.109012     -4.107756      1.445914
  C       2.830231     -2.160313      3.132327
  C      -0.218434     -2.354183      3.613110
  H       1.900314     -4.201203      0.675328
  H       0.131378     -4.293272      0.956357
  H       1.270036     -4.905716      2.202470
  H       2.879506     -1.186573      3.661068
  H       3.664098     -2.194698      2.402314
  H       2.997575     -2.963349      3.882455
  H      -0.228403     -1.378767      4.138035
  H      -0.045610     -3.159330      4.359440
  H      -1.220419     -2.501732      3.163098
  H       3.362031      0.329523     -0.884950
  C       2.127453     -1.458211     -0.559051
  C       2.606902     -0.278889     -1.428510
  H       2.994760     -1.958292     -0.075205
  H       1.618057     -2.245353     -1.165878
  Si      3.307612     -0.784430     -3.131416
  H       1.763185      0.414994     -1.657751
  C       1.826566     -1.288784     -4.224769
  C       4.509127     -2.242098     -2.976304
  C       4.176371      0.693943     -3.941459
  H       1.208228     -2.069476     -3.730503
  H       2.144433     -1.702143     -5.204049
  H       1.203597     -0.393276     -4.441181
  H       4.016627     -3.123748     -2.517346
  H       5.377840     -1.973379     -2.339954
  H       4.900510     -2.549128     -3.968365
  H       3.490995      1.562409     -4.028422
  H       4.537492      0.443368     -4.960707
  H       5.053802      1.017137     -3.343857
  H      -0.430699     -0.834994     -3.545958
  H       1.573593      1.283612      1.836716
