71
Coordinates from ORCA-job my_molecule E -2465.730368080543
  Pt          0.44176906495938     -0.47138134539317      0.41398618483194
  O          -1.15903620571329      0.34320546755772      2.04146505319799
  O          -1.04429818308730      1.00444736041168     -1.00315442468927
  P          -0.61454731863716      1.79648522158284      2.20490538126857
  P          -2.27238805150248      0.06494207042649     -1.12290814812770
  O          -3.04795764727202     -0.09556624607595      0.27458361858982
  O          -1.85602503391388     -1.40239598318047     -1.69424823118392
  O          -1.06005411638211      2.71858317140082      0.96278558524687
  O           1.00321092215741      1.79839881236575      2.34364907895122
  C          -1.18292162154686      2.66418144117571      3.72097144769929
  C          -3.52959048283855      0.61672282840631     -2.35175650147645
  C          -4.65046061116619     -0.43768637110065     -2.44765710305819
  C          -2.80221211890660      0.76617452580532     -3.70566300413147
  C          -4.09274044053356      1.97757998580893     -1.89160637979488
  C          -2.72078136602206      2.56894211475764      3.75868814095850
  C          -0.56464785656984      1.95811722135532      4.94442193950726
  C          -0.71851535970581      4.13337539808734      3.64805633421233
  H          -2.39113873742958      0.00305436632609      1.05851317472407
  H          -1.11319149742706      2.13683064378534      0.11748637073529
  H          -4.25332095084837     -1.41827250366430     -2.76965291035002
  H          -5.39765310389686     -0.10389783421196     -3.19839924233126
  H          -5.16934310722312     -0.57343949640020     -1.47912621033661
  H          -2.37802253371695     -0.19676933019812     -4.04733807892978
  H          -1.97942077040597      1.50485726954452     -3.64139865928312
  H          -3.52327569088368      1.11426262940315     -4.47360720078655
  H          -4.61925427168713      1.89458852190975     -0.91687119537457
  H          -4.81744129955784      2.34731055848062     -2.64685531931523
  H          -3.29306466604986      2.74045863453338     -1.79378620502439
  H          -3.05610492499851      1.51542082104117      3.83400091779201
  H          -3.17985309156006      3.01781141822756      2.85596680178707
  H          -3.09938226038788      3.11595016430415      4.64632370840661
  H          -0.86281738854441      0.89190567030756      4.99711199663885
  H          -0.91853224359880      2.45929191281761      5.86870244519136
  H           0.54055641896002      2.00839780529181      4.92594352486153
  H          -1.13154518830521      4.64725788506973      2.75806676531443
  H           0.38656155707231      4.20599453165616      3.60885623354574
  H          -1.06584591183848      4.66967557196934      4.55583579049037
  Si          1.67462847282720     -1.94873681199858      1.70327983196958
  C           1.85726217458674     -3.71581716911839      0.99009731054061
  C           3.42249033006931     -1.32997203534474      2.19370381926681
  C           0.71400481970741     -2.15290690098180      3.34329635432610
  H           2.30554085387743     -3.79535023726486     -0.02268821735516
  H           0.86606150223666     -4.21437182757472      0.96458328622155
  H           2.49888580968344     -4.30494988958896      1.68201372819250
  H           3.45888329410691     -0.23221509634723      2.34622929117565
  H           4.19867035894169     -1.60523779137439      1.45191426304712
  H           3.70543440854232     -1.80913522425442      3.15573012273820
  H           0.72708573877133     -1.20755913609864      3.92407199632660
  H           1.18597286146830     -2.94608221271392      3.96135556810434
  H          -0.34417063550384     -2.42681637748406      3.16834526486115
  H           1.37427733115367     -0.80706464859536     -0.76888143019731
  C           0.85136103116176     -2.84526623731669     -2.46257377939151
  C           1.35614589288879     -1.64746668422428     -2.82519800017148
  H           1.42898197920687     -3.49533888114058     -1.79158596992927
  H          -0.20105695735616     -3.13861920874046     -2.65001764254936
  Si          3.16131652850988     -1.06558815944271     -2.93710474144417
  H           0.67359597670194     -0.94774842390929     -3.35418117330031
  C           3.66058838066448     -1.50386974262181     -4.72247364589919
  C           4.35089830290913     -1.87419068303224     -1.70508444026737
  C           3.18595643360994      0.81412635665869     -2.69004079419942
  H           3.73592957654952     -2.60350836469375     -4.85008203766183
  H           4.63760276083551     -1.05373214994071     -4.99976149776445
  H           2.89422805279182     -1.13010021090704     -5.43362972455666
  H           4.37870534364314     -2.97991188568164     -1.78841118374748
  H           4.07720535747623     -1.60506437294696     -0.66531170510913
  H           5.38119834577917     -1.49649534151089     -1.88902766378250
  H           2.53826633971661      1.32569775186274     -3.43137945834009
  H           4.21731903718202      1.21537926939908     -2.79879593351932
  H           2.82271723362151      1.08293235200979     -1.67433212801906
  H          -0.92811455152712     -1.65659828699125     -1.44149202553522
  H           1.32541370417486      1.11676334832526      1.66114067621228
