26
image5
O    -1.4732178236    0.1733468056    1.8260285605
Si   -0.1811399600    0.7633851473    2.7102269813
Si   -3.0202810831   -0.3673903254    2.1128269032
C     0.8612958278    1.6344897952    1.6391912272
C     2.0440778644    1.1638619327    0.8144737246
H     1.1621648410    2.8555484082    2.0859376146
H     2.1684470404    1.6612998979   -0.0927780959
H     2.6125233665    0.4470827159    1.3223287543
Si    0.2116452924   -1.3945449572   -2.0261582731
O    -0.5508100429   -0.1986100247   -1.5674518503
O     1.7573261450   -1.3519505187   -2.1880147040
Si    3.2081263431   -0.6404696172   -2.3248403294
Si   -2.0220470888    0.3760315559   -1.9037899932
H     0.2055778666    1.8818887668    0.6366907295
H    -3.7769342820    0.7227027304    2.7686293531
H    -0.7104223673    1.4383168856    3.8299455288
H    -3.0359892984   -1.5836211091    2.9401961597
H     0.5226919717   -0.4482454701    3.1655169035
H    -2.0329780458    0.6126321467   -3.3414871035
H    -2.9356117684   -0.7218618165   -1.6134791117
H    -2.3177681185    1.5677246830   -1.1546380574
H     3.0119788363    0.8150202819   -2.4646367793
H     4.0096712537   -0.9152163545   -1.1115420908
H     3.8220430083   -1.2258092572   -3.5272557823
H     0.6708956449   -2.3691489431   -0.1002172487
H    -3.5201083727   -0.6053913215    0.7558062631
