26
image3
O    -1.6895075858    0.3210648032    1.8910012334
Si   -0.2044193512    0.6237761788    2.6435807736
Si   -3.2997537512   -0.0989268486    2.3587738666
C     0.8151989471    0.5547195215    1.2590039269
C     1.9557631956    1.0955020225    0.9796769769
H     0.7823483272    3.4128795594    1.4968242474
H     2.3560180160    1.6809090947    0.0314699651
H     2.6870945244    0.4719264594    1.4999627429
Si    8.4197534179    3.2754890203   -7.5009861390
O    -0.5086653333   -0.3437617971   -1.7009901036
O     1.8403135658   -1.0055916460   -2.1741647746
Si    3.4597963391   -0.4485128966   -2.2500771346
Si   -2.0695421917    0.1984993418   -1.6901352152
H     0.6542167492    0.5468090524    0.4176372271
H    -3.7919940958    1.0728603894    3.0902289722
H    -0.3956495957    1.2213265956    3.9043419937
H    -3.2633153967   -1.3186039521    3.1322727861
H     0.3204603342   -0.8080480955    2.8930556014
H    -2.4041794089    0.1557641793   -3.1001319846
H    -2.7206311458   -0.9296035039   -1.0856604819
H    -2.3079546627    1.4799750511   -1.0559828753
H     3.3784105908    1.0205829155   -2.3851316662
H     4.1363028824   -0.8035410410   -0.9811366821
H     4.0533481248   -1.1052957070   -3.4138339269
H     0.9564783972   -3.6664335977   -0.5745237766
H    -3.8697790996   -0.2193673586    1.0236809040
