26
image1
O    -1.8835249888    0.5189589236    2.0465422560
Si   -0.2799338453    0.3980523519    2.4543250814
Si   -3.3749062515    0.1844419388    2.5270975190
C     0.7606307931    1.1647513406    1.3618007809
C     2.0927041761    1.1167906220    1.0097768032
H     0.3897850942    2.5393445653    0.9175542814
H     2.5238274860    1.6857960011    0.2090822927
H     2.6496544469    0.4406492161    1.5712972305
Si    0.7505000580   -1.0042420783   -1.4284462764
O    -0.4925374133   -0.4043562226   -1.9423375057
O     2.0416146166   -0.6579171235   -2.1980489636
Si    3.6173491459   -0.2981646212   -2.1664165503
Si   -2.0589932140   -0.0118968364   -1.5582850750
H     0.8254088060   -0.5696562155    0.1021141889
H    -3.7735490000    1.3466309439    3.3469966021
H    -0.2129778400    0.9315840267    3.8601341820
H    -3.4623017966   -1.0658822720    3.2910490302
H     0.1340837953   -0.9616571597    2.5519561318
H    -2.7240416354   -0.2548077391   -2.8118401520
H    -2.4424080295   -1.0842685209   -0.6040287801
H    -2.2954649348    1.2917766183   -1.0288600663
H     3.6853568581    1.1666679983   -2.3158539445
H     4.2293296241   -0.7028584622   -0.8857253850
H     4.2424024771   -0.9974853325   -3.3061208612
H     0.8064240467   -2.9502856664   -1.8716782212
H    -4.1347240048    0.1269742718    1.2778351807
