26
image2
O    -1.7752149000    0.3994702773    1.9363135234
Si   -0.2452020181    0.5213326330    2.5656637536
Si   -3.2816384444   -0.1044367344    2.3553997944
C     0.9202606028    0.7767738292    1.4069570699
C     2.0278183463    1.1355820448    0.9679864972
H     0.8036778583    3.4348132511    1.5569904838
H     2.3491832244    1.6764744064    0.0617718622
H     2.6721765112    0.4685622863    1.4569815387
Si    0.5433758767   -0.4176228395   -1.3666076803
O    -0.5071252788   -0.3629210052   -1.8816589957
O     1.9620192288   -0.8202096263   -2.1804257039
Si    3.4609646783   -0.4573878719   -2.2445589647
Si   -2.1213785687    0.1458826106   -1.7358805161
H     0.6511088551    0.4440480712    0.3351437095
H    -3.7837366662    1.0605896044    3.0793991815
H    -0.4514096391    1.2075657243    3.8809661880
H    -3.2597749448   -1.3246386125    3.1233512236
H     0.3214194802   -0.7710340849    2.8564352789
H    -2.4150885721    0.1718679436   -3.1270659429
H    -2.6835654540   -0.9557661962   -1.0282776501
H    -2.2985485847    1.4718174747   -1.0698772240
H     3.3649527477    1.0081406997   -2.3898478153
H     4.1289925776   -0.8053565868   -0.9889593856
H     4.0422882963   -1.1075795761   -3.4130515020
H     0.9409169132   -3.6131947573   -0.6098483161
H    -3.8580566659   -0.2298649289    1.0157081203
