26
image4
O    -1.5957037646    0.2256224664    1.8621122824
Si   -0.1885943615    0.6602494443    2.6858704031
Si   -3.2255294489   -0.1628877186    2.2986626658
C     1.0531394522    0.8087441063    1.7338789275
C     1.9660401217    1.1690432137    0.8979886922
H     0.8480484560    3.3512175919    1.6200324670
H     2.3331747899    1.6718748468    0.0135654158
H     2.6916041026    0.4144103031    1.4790413630
Si    1.1354230677   -1.6980427010   -3.0452958593
O    -0.5078902551   -0.2402015181   -1.6158759240
O     1.8214873937   -1.0718482886   -2.1631321263
Si    3.4087781999   -0.4867872730   -2.2601552392
Si   -2.0317940155    0.3224745108   -1.8131478352
H     0.3594083532    0.8131150552   -0.2833651813
H    -3.7867868918    1.0023627225    3.0232784043
H    -0.5031576437    1.2606959892    3.8716514033
H    -3.2180409541   -1.3737984237    3.0946284247
H     0.3810479812   -0.7047035579    2.9186612628
H    -2.3141576234    0.2728340325   -3.1739483842
H    -2.7577162076   -0.9189466637   -1.1496094422
H    -2.3094801821    1.4933260113   -1.0690473120
H     3.2956488601    0.9760660271   -2.4007057248
H     4.1081612503   -0.8248355735   -1.0120410027
H     4.0042872975   -1.1293546253   -3.4380354152
H     0.9084419381   -3.4268064526   -0.4544985729
H    -3.7903406569   -0.3041732796    0.9644920437
