55
.geom to .xyz and scaled by factor of 0.529177
Pt -0.1839096167 0.7434450715 -0.0987904635
O 1.2815410834 1.9638268621 -0.5309376642
O -1.7446225443 -0.5164198357 0.0354349048
O 0.7338885571 -1.0066358398 -0.5354891384
P -2.5731065600 -0.3559412679 -1.3617293321
P 1.7554162903 -1.4304565136 0.6545268551
O -1.5254058763 -0.9310157359 -2.5045167775
O -2.9961915058 1.0508769705 -1.7532995672
O 2.7952149412 -0.4305047247 1.0218576719
O 2.5237525313 -2.7173339286 0.0103670571
H -1.1281994535 -1.8081253728 -2.3054016817
H 1.8854315389 -3.3505404777 -0.3787439240
C 0.9079761025 -1.9265452922 2.2168450352
C -3.9919093941 -1.5542296776 -1.2383399556
C -4.9154185628 -1.1959548363 -0.0648871867
C -4.7681060141 -1.5528926786 -2.5674900773
C -3.4567876118 -2.9763512550 -1.0197770238
C -0.2320201904 -2.9336044682 2.0243312495
C 0.3611180111 -0.6380195383 2.8578494784
C 1.9607039871 -2.5161748776 3.1754052152
H -5.2884559281 -0.1620368391 -0.1213633610
H -4.3831833994 -1.3458997797 0.8822841708
H -5.7969592089 -1.8593873964 -0.1014234110
H -5.2658143603 -0.6094290704 -2.8216236177
H -5.5523251318 -2.3322222267 -2.5488940413
H -4.0959600627 -1.8280979077 -3.3866350944
H -2.8474013867 -3.0736211894 -0.1157216028
H -2.8714050072 -3.3474813346 -1.8684626055
H -4.3260466445 -3.6359462094 -0.8880153232
H -1.0545851984 -2.5773728342 1.3857528671
H -0.6341597069 -3.1296024591 3.0321106965
H 0.1328312813 -3.8837057191 1.6156907470
H -0.3779740240 -0.1369242521 2.2135110912
H 1.1421350717 0.0970544034 3.0772538517
H -0.1345291471 -0.8806101038 3.8109372361
H 2.3372813220 -3.4993907731 2.8539441512
H 1.4240944862 -2.6339680110 4.1255418863
H 2.8206479908 -1.8514852958 3.3311088264
P 0.7360329008 3.3948261801 -0.0081341174
O -0.9512723551 2.9570620871 0.2878099953
O 1.2768950148 3.7576371350 1.3173319003
C 0.9586679910 4.7469043573 -1.2580544393
C 0.4363106792 4.4483122175 -2.6616676073
C 0.2370309190 5.9827790318 -0.6883387841
C 2.4820359140 4.9983279690 -1.3052970360
H -1.4274808405 2.8765196717 -0.5857866878
H 0.8861504160 3.5589147361 -3.1059444576
H 0.6340132071 5.3096458250 -3.3221340346
H -0.6484549036 4.3192723877 -2.6397826053
H -0.8475956938 5.8267586234 -0.6156935158
H 0.3878344152 6.8237362659 -1.3764261007
H 0.6113261972 6.2874308779 0.3009208546
H 3.0613707045 4.1156084640 -1.6156506801
H 2.8636518568 5.3409577297 -0.3429434244
H 2.6274891639 5.7939627933 -2.0573974396
