51
Coordinates from ORCA-job my_molecule_reactant E -1977.868384759055
  Pt     -0.457856     -0.348224      0.590210
  O       1.088884     -1.246472      1.516485
  O      -2.217172      0.264668     -0.444163
  P       2.473274     -0.429336      1.481316
  P      -2.476942     -1.210056     -0.945037
  O      -3.946727     -1.763639     -0.506905
  O      -1.315348     -2.045075     -0.252618
  O       2.909214     -0.231827     -0.099001
  O       3.554548     -1.023012      2.352003
  C       1.951748      1.310885      1.900712
  C      -2.526752     -1.396773     -2.771820
  C      -2.705955     -2.892024     -3.104485
  C      -1.177225     -0.875464     -3.308459
  C      -3.696210     -0.552940     -3.317999
  C       0.679972      1.602660      1.090320
  C       1.666820      1.347133      3.414108
  C       3.056925      2.313690      1.528372
  H      -4.046196     -1.752891      0.467425
  H       3.453457     -1.006815     -0.387463
  H      -1.890661     -3.503643     -2.668948
  H      -2.682517     -3.023495     -4.206299
  H      -3.672872     -3.281759     -2.730658
  H      -0.325450     -1.452402     -2.897191
  H      -1.026285      0.192685     -3.056762
  H      -1.162735     -0.976967     -4.413235
  H      -4.672933     -0.916643     -2.943795
  H      -3.703950     -0.617265     -4.425992
  H      -3.590081      0.514566     -3.038620
  H      -0.288752      1.000918      1.586640
  H       0.849414      1.640658     -0.003835
  H       0.212653      2.575194      1.371551
  H       0.861696      0.638592      3.696403
  H       1.359959      2.369074      3.722785
  H       2.573168      1.063222      3.983190
  H       3.279894      2.289420      0.444408
  H       3.990118      2.067357      2.073767
  H       2.757969      3.345999      1.810263
  Si      5.295940     -3.196925      0.049974
  C       6.467465     -1.960793      0.864455
  C       4.352725     -4.199180      1.338467
  C       6.200217     -4.305110     -1.195634
  H       5.873160     -1.312523      1.541212
  H       6.991571     -1.327780      0.119469
  H       7.235337     -2.486830      1.469148
  H       3.619129     -4.887279      0.871690
  H       3.812911     -3.495086      2.004617
  H       5.049995     -4.803904      1.955046
  H       5.501134     -5.008856     -1.692230
  H       6.980504     -4.907446     -0.684824
  H       6.698559     -3.704760     -1.984349
  H       4.270191     -2.406061     -0.761904
51
Coordinates from ORCA-job my_molecule_reactant E -1977.868364005185
  Pt     -0.467478     -0.347836      0.609586
  O       1.083753     -1.241178      1.532684
  O      -2.219236      0.261522     -0.441752
  P       2.467838     -0.423931      1.487685
  P      -2.471391     -1.214198     -0.943622
  O      -3.943269     -1.771134     -0.516896
  O      -1.313597     -2.046215     -0.241265
  O       2.893253     -0.228378     -0.095744
  O       3.554658     -1.016786      2.351948
  C       1.949502      1.316910      1.908672
  C      -2.505859     -1.402255     -2.770597
  C      -2.675701     -2.898484     -3.103766
  C      -1.154436     -0.875339     -3.296949
  C      -3.674655     -0.563966     -3.326730
  C       0.672826      1.608473      1.106044
  C       1.674479      1.354437      3.423859
  C       3.052640      2.318940      1.528382
  H      -4.050264     -1.760401      0.456637
  H       3.433806     -1.004855     -0.387064
  H      -1.860327     -3.505730     -2.662489
  H      -2.644205     -3.030265     -4.205348
  H      -3.643139     -3.292792     -2.736239
  H      -0.303243     -1.447985     -2.878487
  H      -1.010314      0.193674     -3.044902
  H      -1.130789     -0.977528     -4.401480
  H      -4.652636     -0.932041     -2.960251
  H      -3.673088     -0.628803     -4.434764
  H      -3.575744      0.504090     -3.046898
  H      -0.293329      1.008812      1.609926
  H       0.835256      1.644139      0.010789
  H       0.208431      2.582066      1.388372
  H       0.871426      0.645936      3.712187
  H       1.369453      2.376600      3.733955
  H       2.584687      1.071153      3.987109
  H       3.267204      2.295217      0.442684
  H       3.989969      2.071411      2.066316
  H       2.756908      3.351364      1.813392
  Si      5.275363     -3.197176      0.040017
  C       6.457818     -1.961611      0.839454
  C       4.341733     -4.192710      1.340669
  C       6.164859     -4.311747     -1.210525
  H       5.872013     -1.310965      1.521326
  H       6.975197     -1.331268      0.087546
  H       7.231188     -2.487858      1.436914
  H       3.601504     -4.879885      0.883034
  H       3.810508     -3.484928      2.009844
  H       5.043120     -4.797585      1.952428
  H       5.458944     -5.013783     -1.699805
  H       6.946833     -4.916165     -0.704816
  H       6.659395     -3.715240     -2.004437
  H       4.244069     -2.406256     -0.764825
51
Coordinates from ORCA-job my_molecule_reactant E -1977.868340585225
  Pt     -0.466497     -0.352322      0.615548
  O       1.087538     -1.245306      1.533538
  O      -2.224912      0.255160     -0.427563
  P       2.469963     -0.425469      1.485575
  P      -2.469056     -1.218464     -0.939493
  O      -3.937061     -1.787077     -0.514792
  O      -1.305832     -2.048935     -0.244279
  O       2.894205     -0.233678     -0.098635
  O       3.558182     -1.013148      2.351539
  C       1.946586      1.314989      1.901343
  C      -2.504484     -1.393968     -2.767664
  C      -2.662232     -2.889179     -3.111192
  C      -1.158218     -0.852194     -3.292219
  C      -3.680957     -0.561565     -3.316519
  C       0.671148      1.600432      1.094541
  C       1.668118      1.354795      3.415830
  C       3.047807      2.319186      1.521332
  H      -4.042439     -1.784313      0.458973
  H       3.434322     -1.011141     -0.388062
  H      -1.840116     -3.492053     -2.676720
  H      -2.632829     -3.012635     -4.213804
  H      -3.624959     -3.294760     -2.743693
  H      -0.301508     -1.420325     -2.878827
  H      -1.022743      0.216251     -3.033041
  H      -1.135330     -0.946525     -4.397435
  H      -4.655255     -0.940682     -2.951603
  H      -3.680089     -0.618342     -4.425052
  H      -3.590881      0.505175     -3.028911
  H      -0.293758      0.996103      1.595188
  H       0.837086      1.636064     -0.000134
  H       0.201213      2.571912      1.374894
  H       0.867015      0.644022      3.704112
  H       1.358839      2.376547      3.723474
  H       2.578206      1.075853      3.981493
  H       3.263105      2.295614      0.435740
  H       3.985534      2.073802      2.059831
  H       2.749859      3.351115      1.806010
  Si      5.275846     -3.201607      0.044427
  C       6.461733     -1.963208      0.834379
  C       4.345251     -4.189887      1.352792
  C       6.160634     -4.323022     -1.203329
  H       5.878979     -1.310515      1.516913
  H       6.975676     -1.335523      0.077920
  H       7.237990     -2.487325      1.429963
  H       3.602518     -4.878065      0.900679
  H       3.817134     -3.478233      2.020364
  H       5.047834     -4.792716      1.965218
  H       5.452267     -5.024970     -1.689156
  H       6.941610     -4.927777     -0.696525
  H       6.656050     -3.730800     -1.999778
  H       4.242839     -2.413822     -0.761383
51
Coordinates from ORCA-job my_molecule_reactant E -1977.866514801169
  Pt     -0.351069     -0.331046      0.417641
  O       1.137786     -1.248141      1.414112
  O      -2.179731      0.285418     -0.485813
  P       2.521406     -0.430458      1.453835
  P      -2.473275     -1.189732     -0.966511
  O      -3.919440     -1.734726     -0.446439
  O      -1.281152     -2.028813     -0.333432
  O       3.024038     -0.203672     -0.102607
  O       3.564390     -1.036474      2.361608
  C       1.970070      1.298135      1.880997
  C      -2.621744     -1.384038     -2.786955
  C      -2.810795     -2.881501     -3.103962
  C      -1.306251     -0.858580     -3.399045
  C      -3.823474     -0.548175     -3.272483
  C       0.726662      1.587303      1.026650
  C       1.628671      1.305024      3.383005
  C       3.077682      2.317530      1.565948
  H      -3.963716     -1.721955      0.531927
  H       3.573064     -0.978321     -0.382617
  H      -1.965213     -3.484570     -2.718085
  H      -2.854445     -3.015869     -4.204841
  H      -3.749509     -3.277259     -2.669941
  H      -0.429373     -1.428052     -3.032245
  H      -1.147785      0.211642     -3.161000
  H      -1.351861     -0.965148     -4.502371
  H      -4.776206     -0.916693     -2.845333
  H      -3.889964     -0.615866     -4.378522
  H      -3.709085      0.520504     -3.001460
  H      -0.250956      0.958806      1.470435
  H       0.939181      1.649017     -0.058569
  H       0.232357      2.546220      1.308213
  H       0.823766      0.581025      3.624172
  H       1.296604      2.317429      3.698636
  H       2.517653      1.023075      3.980007
  H       3.332649      2.322050      0.488645
  H       3.997266      2.064248      2.131996
  H       2.763159      3.340517      1.865091
  Si      5.369939     -3.193923      0.095544
  C       6.519634     -1.985173      0.979483
  C       4.363289     -4.206520      1.326781
  C       6.313198     -4.291132     -1.130701
  H       5.906137     -1.350031      1.651548
  H       7.073160     -1.338956      0.267934
  H       7.263605     -2.530310      1.597004
  H       3.639948     -4.875597      0.817944
  H       3.805968     -3.506974      1.983429
  H       5.027345     -4.830926      1.960258
  H       5.626628     -4.969540     -1.677381
  H       7.055701     -4.920688     -0.597065
  H       6.862461     -3.683541     -1.878519
  H       4.387559     -2.378075     -0.745130
51
Coordinates from ORCA-job my_molecule_reactant E -1977.868359422351
  Pt     -0.443989     -0.343229      0.574971
  O       1.102467     -1.237462      1.505907
  O      -2.205585      0.265682     -0.454478
  P       2.485049     -0.416461      1.479377
  P      -2.470017     -1.211310     -0.946084
  O      -3.938272     -1.761057     -0.498037
  O      -1.306560     -2.044323     -0.254429
  O       2.926197     -0.211009     -0.098506
  O       3.564017     -1.012195      2.351381
  C       1.959743      1.321382      1.904901
  C      -2.527959     -1.407833     -2.771534
  C      -2.701936     -2.905650     -3.095457
  C      -1.183519     -0.883430     -3.317908
  C      -3.703781     -0.572130     -3.316739
  C       0.694665      1.618828      1.086195
  C       1.664255      1.347629      3.416417
  C       3.067845      2.326315      1.547562
  H      -4.031964     -1.746833      0.476819
  H       3.466463     -0.987777     -0.389831
  H      -1.878711     -3.509989     -2.664969
  H      -2.688424     -3.042060     -4.196843
  H      -3.662828     -3.299215     -2.710386
  H      -0.326711     -1.453418     -2.907316
  H      -1.036494      0.186963     -3.073443
  H      -1.174021     -0.991486     -4.422085
  H      -4.676962     -0.939088     -2.936644
  H      -3.715797     -0.641539     -4.424427
  H      -3.601867      0.497074     -3.042433
  H      -0.277349      1.010735      1.567756
  H       0.874160      1.667117     -0.005953
  H       0.223305      2.588003      1.372117
  H       0.858810      0.635626      3.689011
  H       1.353238      2.366925      3.730034
  H       2.567411      1.061854      3.989694
  H       3.293935      2.314580      0.463998
  H       3.999315      2.071735      2.092404
  H       2.770280      3.355827      1.841055
  Si      5.286548     -3.194892      0.045488
  C       6.458539     -1.974183      0.882353
  C       4.325357     -4.203030      1.316009
  C       6.194736     -4.297030     -1.202615
  H       5.863449     -1.333733      1.565817
  H       6.988116     -1.332910      0.148415
  H       7.222197     -2.511128      1.482800
  H       3.590026     -4.880198      0.836093
  H       3.785581     -3.501505      1.984940
  H       5.012857     -4.819317      1.932124
  H       5.494404     -4.985454     -1.718511
  H       6.960324     -4.915908     -0.689347
  H       6.711987     -3.692389     -1.975621
  H       4.273403     -2.389639     -0.768230
51
Coordinates from ORCA-job my_molecule_reactant E -1977.867983993342
  Pt     -0.481685     -0.355922      0.644459
  O       1.068771     -1.261392      1.555681
  O      -2.219627      0.271195     -0.433745
  P       2.451023     -0.442389      1.500524
  P      -2.470682     -1.201337     -0.945236
  O      -3.949399     -1.755608     -0.539169
  O      -1.324774     -2.041959     -0.233191
  O       2.867349     -0.254753     -0.086344
  O       3.543506     -1.025764      2.363985
  C       1.925063      1.298011      1.910986
  C      -2.483374     -1.380354     -2.773322
  C      -2.648377     -2.875077     -3.115703
  C      -1.126130     -0.850248     -3.281219
  C      -3.645812     -0.539839     -3.339514
  C       0.626131      1.561440      1.134578
  C       1.684192      1.354215      3.431352
  C       3.007699      2.305634      1.488891
  H      -4.067097     -1.751129      0.433193
  H       3.407740     -1.032116     -0.375981
  H      -1.835670     -3.483065     -2.670694
  H      -2.607488     -3.000886     -4.217669
  H      -3.618318     -3.272726     -2.758507
  H      -0.279340     -1.423693     -2.854940
  H      -0.985909      0.217824     -3.023044
  H      -1.089238     -0.947823     -4.385791
  H      -4.627886     -0.910800     -2.987222
  H      -3.630257     -0.598597     -4.447782
  H      -3.551381      0.526714     -3.052509
  H      -0.321653      0.968217      1.677250
  H       0.759699      1.570670      0.035172
  H       0.162103      2.538548      1.404994
  H       0.897590      0.639569      3.748419
  H       1.372833      2.376674      3.734235
  H       2.610860      1.090942      3.977225
  H       3.192234      2.271702      0.397909
  H       3.962149      2.072686      2.002832
  H       2.710470      3.338513      1.770670
  Si      5.276172     -3.203612      0.042998
  C       6.479166     -1.946225      0.774847
  C       4.386620     -4.169554      1.395913
  C       6.129682     -4.345908     -1.207582
  H       5.913894     -1.284147      1.463005
  H       6.966788     -1.329797     -0.007851
  H       7.275773     -2.456260      1.355687
  H       3.633343     -4.867974      0.978357
  H       3.875537     -3.446863      2.064827
  H       5.108308     -4.758743      1.999261
  H       5.409763     -5.056323     -1.663190
  H       6.923741     -4.941705     -0.710527
  H       6.604322     -3.767227     -2.026397
  H       4.217507     -2.435269     -0.748311
51
Coordinates from ORCA-job my_molecule_reactant E -1977.868177303749
  Pt     -0.464121     -0.365408      0.596640
  O       1.083102     -1.253196      1.531562
  O      -2.259051      0.220809     -0.395387
  P       2.467519     -0.436267      1.487094
  P      -2.470655     -1.243686     -0.946333
  O      -3.916567     -1.864348     -0.518673
  O      -1.275962     -2.061533     -0.290571
  O       2.901513     -0.255411     -0.095825
  O       3.548974     -1.021521      2.363073
  C       1.948302      1.308992      1.888227
  C      -2.526975     -1.368139     -2.778118
  C      -2.648097     -2.856946     -3.162069
  C      -1.203791     -0.774087     -3.304743
  C      -3.733556     -0.553821     -3.287376
  C       0.675037      1.592921      1.077687
  C       1.667971      1.362227      3.401916
  C       3.053747      2.305979      1.501451
  H      -4.007437     -1.893593      0.456127
  H       3.442078     -1.035712     -0.377052
  H      -1.802753     -3.448211     -2.757093
  H      -2.632414     -2.948192     -4.268079
  H      -3.593449     -3.299894     -2.792444
  H      -0.325875     -1.328901     -2.918669
  H      -1.094631      0.290176     -3.017485
  H      -1.193542     -0.837208     -4.412389
  H      -4.691874     -0.970550     -2.921089
  H      -3.746201     -0.578773     -4.396946
  H      -3.669223      0.506406     -2.970170
  H      -0.294210      1.003448      1.586396
  H       0.841133      1.612472     -0.017360
  H       0.212732      2.571810      1.344643
  H       0.864925      0.655723      3.695133
  H       1.360669      2.387119      3.700604
  H       2.576676      1.085955      3.971062
  H       3.268909      2.274256      0.416062
  H       3.990481      2.060316      2.041361
  H       2.760103      3.341025      1.778999
  Si      5.293074     -3.215853      0.072232
  C       6.487274     -1.962851      0.825729
  C       4.377424     -4.180012      1.408873
  C       6.164152     -4.359903     -1.164548
  H       5.912249     -1.299149      1.504177
  H       6.990565     -1.347621      0.052072
  H       7.271826     -2.475791      1.420235
  H       3.629298     -4.875797      0.977873
  H       3.857080     -3.456233      2.069435
  H       5.086802     -4.771940      2.024038
  H       5.449774     -5.067472     -1.633118
  H       6.947543     -4.958808     -0.654462
  H       6.654675     -3.782110     -1.974612
  H       4.250707     -2.443231     -0.736278
51
Coordinates from ORCA-job my_molecule_reactant E -1977.868172284108
  Pt     -0.447148     -0.335930      0.564521
  O       1.099206     -1.231851      1.495568
  O      -2.172398      0.285905     -0.483553
  P       2.484906     -0.415248      1.474200
  P      -2.471065     -1.193111     -0.948723
  O      -3.952521     -1.701000     -0.494712
  O      -1.327797     -2.038299     -0.239193
  O       2.931068     -0.199856     -0.100932
  O       3.559872     -1.019105      2.345583
  C       1.960606      1.319543      1.913542
  C      -2.529341     -1.421663     -2.770430
  C      -2.739811     -2.920520     -3.067054
  C      -1.171148     -0.940888     -3.322706
  C      -3.682696     -0.567268     -3.334300
  C       0.700902      1.626001      1.090278
  C       1.657536      1.328126      3.423723
  C       3.071076      2.328621      1.575689
  H      -4.047740     -1.667440      0.479520
  H       3.471949     -0.975012     -0.395011
  H      -1.933338     -3.537244     -2.622612
  H      -2.726750     -3.077913     -4.165672
  H      -3.711440     -3.282305     -2.677827
  H      -0.329724     -1.523994     -2.898957
  H      -0.998191      0.130010     -3.098112
  H      -1.161695     -1.070140     -4.424612
  H      -4.665665     -0.902794     -2.950328
  H      -3.693680     -0.656822     -4.440537
  H      -3.554796      0.503953     -3.079456
  H      -0.273382      1.006913      1.555154
  H       0.889132      1.687812     -0.000076
  H       0.224835      2.590238      1.385312
  H       0.850485      0.613248      3.683857
  H       1.345173      2.343733      3.747648
  H       2.557622      1.035289      3.998260
  H       3.305055      2.329226      0.493802
  H       3.998605      2.068071      2.124310
  H       2.771070      3.354697      1.878579
  Si      5.289703     -3.183937      0.034139
  C       6.454821     -1.965418      0.883930
  C       4.323609     -4.200194      1.294252
  C       6.206003     -4.278183     -1.214938
  H       5.854676     -1.329127      1.566876
  H       6.987549     -1.319523      0.156413
  H       7.215690     -2.503846      1.486491
  H       3.591866     -4.875929      0.806861
  H       3.778948     -3.502949      1.963791
  H       5.008835     -4.818806      1.910658
  H       5.509084     -4.963927     -1.738929
  H       6.968876     -4.899672     -0.700751
  H       6.727371     -3.668831     -1.981521
  H       4.280130     -2.375170     -0.780203
51
Coordinates from ORCA-job my_molecule_reactant E -1977.867993672045
  Pt     -0.431890     -0.319823      0.585074
  O       1.115010     -1.221708      1.505447
  O      -2.221461      0.289437     -0.480068
  P       2.499353     -0.403922      1.475188
  P      -2.479125     -1.196951     -0.946273
  O      -3.948819     -1.741458     -0.496554
  O      -1.317985     -2.020496     -0.237830
  O       2.936344     -0.193221     -0.103141
  O       3.580254     -1.003161      2.342441
  C       1.975394      1.332351      1.909546
  C      -2.530472     -1.423631     -2.768383
  C      -2.707634     -2.926298     -3.067449
  C      -1.182534     -0.912270     -3.318357
  C      -3.701725     -0.593826     -3.332199
  C       0.707612      1.633166      1.096134
  C       1.685220      1.350645      3.422235
  C       3.081561      2.340157      1.554366
  H      -4.046738     -1.712822      0.477592
  H       3.475297     -0.969324     -0.398454
  H      -1.888320     -3.525828     -2.622974
  H      -2.689870     -3.081720     -4.166266
  H      -3.671525     -3.309968     -2.679944
  H      -0.328934     -1.477351     -2.894528
  H      -1.033409      0.161818     -3.091998
  H      -1.169014     -1.039614     -4.420439
  H      -4.677546     -0.951369     -2.949862
  H      -3.709545     -0.681854     -4.438584
  H      -3.597587      0.479552     -3.075601
  H      -0.263749      1.025887      1.580070
  H       0.883513      1.680262      0.003254
  H       0.239452      2.603426      1.383655
  H       0.881447      0.636447      3.693997
  H       1.374296      2.368000      3.742145
  H       2.590618      1.062755      3.990858
  H       3.305760      2.333290      0.470358
  H       4.014324      2.084453      2.096379
  H       2.783184      3.368073      1.852567
  Si      5.276580     -3.192457      0.034172
  C       6.424148     -1.987526      0.926139
  C       4.287708     -4.230374      1.258471
  C       6.217606     -4.265060     -1.215294
  H       5.810427     -1.363190      1.608050
  H       6.969893     -1.329171      0.219713
  H       7.174038     -2.535386      1.533978
  H       3.566317     -4.898634      0.745970
  H       3.729399     -3.544814      1.928803
  H       4.961696     -4.858451      1.877650
  H       5.531436     -4.942204     -1.764086
  H       6.970911     -4.894781     -0.697050
  H       6.753147     -3.642657     -1.961322
  H       4.281867     -2.370932     -0.785786
51
Coordinates from ORCA-job my_molecule_reactant E -1977.868190809125
  Pt     -0.471919     -0.368630      0.619441
  O       1.072797     -1.263229      1.545061
  O      -2.232235      0.247399     -0.408313
  P       2.455026     -0.443645      1.494349
  P      -2.471073     -1.219385     -0.941462
  O      -3.934689     -1.802242     -0.520716
  O      -1.301462     -2.054567     -0.262708
  O       2.883115     -0.265181     -0.090370
  O       3.541010     -1.022955      2.368673
  C       1.929590      1.300697      1.891412
  C      -2.511837     -1.367648     -2.771921
  C      -2.668949     -2.857959     -3.136649
  C      -1.167950     -0.816476     -3.292597
  C      -3.690830     -0.528515     -3.304969
  C       0.646923      1.573586      1.091317
  C       1.662242      1.361376      3.407307
  C       3.025711      2.301215      1.487805
  H      -4.035969     -1.816632      0.453398
  H       3.426449     -1.043348     -0.372867
  H      -1.844294     -3.466068     -2.714256
  H      -2.644137     -2.965438     -4.241042
  H      -3.629777     -3.269954     -2.771196
  H      -0.309248     -1.389104     -2.889694
  H      -1.033166      0.248409     -3.018867
  H      -1.148078     -0.895377     -4.399118
  H      -4.663816     -0.914171     -2.943291
  H      -3.692741     -0.568492     -4.414167
  H      -3.601107      0.533889     -3.001521
  H      -0.316258      0.992445      1.618913
  H       0.800274      1.577481     -0.005551
  H       0.188264      2.556412      1.349443
  H       0.865849      0.652141      3.711692
  H       1.351816      2.386292      3.702647
  H       2.577450      1.093523      3.969942
  H       3.231592      2.263084      0.400727
  H       3.968505      2.064732      2.021161
  H       2.728450      3.336480      1.760482
  Si      5.298908     -3.214955      0.062030
  C       6.486597     -1.954831      0.813890
  C       4.399340     -4.193016      1.399515
  C       6.172955     -4.346213     -1.184341
  H       5.909559     -1.298548      1.497771
  H       6.980420     -1.332387      0.039849
  H       7.278678     -2.463295      1.402284
  H       3.655303     -4.893906      0.969676
  H       3.875908     -3.476891      2.065879
  H       5.117345     -4.781020      2.008325
  H       5.462036     -5.057757     -1.652198
  H       6.964072     -4.940663     -0.681026
  H       6.654104     -3.760826     -1.994577
  H       4.245182     -2.448370     -0.737763
51
Coordinates from ORCA-job my_molecule_reactant E -1977.868240365163
  Pt     -0.471857     -0.334360      0.575952
  O       1.066320     -1.242189      1.518540
  O      -2.218919      0.274949     -0.470214
  P       2.458424     -0.437055      1.495201
  P      -2.484290     -1.201669     -0.961856
  O      -3.958240     -1.745955     -0.525750
  O      -1.330153     -2.036746     -0.257547
  O       2.902403     -0.231485     -0.081851
  O       3.529687     -1.047671      2.366326
  C       1.951303      1.304259      1.925834
  C      -2.526191     -1.401822     -2.787325
  C      -2.705877     -2.899347     -3.109517
  C      -1.173655     -0.886468     -3.322161
  C      -3.691957     -0.560490     -3.345382
  C       0.691327      1.613802      1.104976
  C       1.651913      1.328102      3.436679
  C       3.069851      2.299501      1.573794
  H      -4.060086     -1.730364      0.448279
  H       3.442229     -1.008562     -0.372681
  H      -1.890668     -3.507486     -2.669300
  H      -2.682209     -3.038567     -4.210382
  H      -3.672972     -3.286185     -2.733291
  H      -0.324024     -1.460215     -2.901979
  H      -1.022864      0.183684     -3.078986
  H      -1.154249     -0.997383     -4.425923
  H      -4.670838     -0.921001     -2.973846
  H      -3.693790     -0.632095     -4.453003
  H      -3.586435      0.508656     -3.072230
  H      -0.284171      1.006039      1.578065
  H       0.874840      1.667895      0.013861
  H       0.222655      2.582687      1.396056
  H       0.839516      0.622297      3.704712
  H       1.349046      2.349041      3.753011
  H       2.550980      1.032378      4.011329
  H       3.298961      2.288101      0.490819
  H       3.997471      2.035075      2.120590
  H       2.781042      3.331147      1.868569
  Si      5.294644     -3.188061      0.045953
  C       6.499742     -1.941840      0.793248
  C       4.388113     -4.154335      1.387338
  C       6.150536     -4.330037     -1.203249
  H       5.932985     -1.278621      1.479125
  H       6.997991     -1.325470      0.017226
  H       7.287981     -2.459428      1.378803
  H       3.634083     -4.846377      0.960620
  H       3.875661     -3.431491      2.055118
  H       5.101097     -4.750497      1.994131
  H       5.429315     -5.032503     -1.669031
  H       6.935651     -4.934515     -0.702487
  H       6.636632     -3.750620     -2.014783
  H       4.246976     -2.409237     -0.749571
51
Coordinates from ORCA-job my_molecule_reactant E -1977.868241833089
  Pt     -0.432734     -0.346179      0.583948
  O       1.121825     -1.231169      1.505816
  O      -2.193707      0.258737     -0.438478
  P       2.500862     -0.404827      1.465008
  P      -2.456473     -1.218287     -0.930652
  O      -3.922425     -1.771633     -0.479295
  O      -1.289641     -2.049138     -0.242165
  O       2.928808     -0.202072     -0.116782
  O       3.589639     -0.992705      2.330136
  C       1.970636      1.331781      1.889708
  C      -2.518459     -1.413776     -2.756046
  C      -2.693398     -2.911420     -3.080278
  C      -1.175160     -0.889242     -3.305030
  C      -3.695412     -0.577641     -3.298141
  C       0.697471      1.620463      1.080305
  C       1.687104      1.360638      3.403429
  C       3.070735      2.341382      1.520981
  H      -4.013286     -1.759031      0.495854
  H       3.469868     -0.977506     -0.409518
  H      -1.869960     -3.516262     -2.650874
  H      -2.681263     -3.047523     -4.181718
  H      -3.654101     -3.304625     -2.694358
  H      -0.317526     -1.459361     -2.896361
  H      -1.027608      0.181078     -3.060559
  H      -1.167911     -0.996989     -4.409261
  H      -4.667842     -0.944715     -2.916195
  H      -3.709783     -0.646329     -4.405829
  H      -3.592763      0.491382     -3.023378
  H      -0.267460      1.009049      1.571073
  H       0.868039      1.664977     -0.013485
  H       0.223826      2.588542      1.366286
  H       0.887885      0.644861      3.684316
  H       1.372881      2.379015      3.716737
  H       2.596394      1.081464      3.970233
  H       3.289550      2.326719      0.435989
  H       4.007294      2.094086      2.060386
  H       2.769409      3.370408      1.812336
  Si      5.266230     -3.195793      0.039019
  C       6.400744     -1.989584      0.945842
  C       4.266278     -4.238052      1.250567
  C       6.223642     -4.263916     -1.201789
  H       5.777951     -1.367601      1.621677
  H       6.952831     -1.328857      0.246644
  H       7.144980     -2.536561      1.561311
  H       3.552755     -4.907672      0.728915
  H       3.698114     -3.554963      1.915219
  H       4.934805     -4.865059      1.876764
  H       5.545114     -4.941081     -1.759957
  H       6.972037     -4.893432     -0.676229
  H       6.766639     -3.638924     -1.940231
  H       4.278500     -2.375189     -0.790082
51
Coordinates from ORCA-job my_molecule_reactant E -1977.868250060322
  Pt     -0.457249     -0.348210      0.600183
  O       1.078658     -1.246540      1.530270
  O      -2.212842      0.281317     -0.457244
  P       2.461291     -0.426393      1.499934
  P      -2.479505     -1.195437     -0.948364
  O      -3.955764     -1.735874     -0.515428
  O      -1.328795     -2.036022     -0.243596
  O       2.904935     -0.231096     -0.078604
  O       3.538903     -1.014917      2.378403
  C       1.933723      1.314523      1.912036
  C      -2.519960     -1.394681     -2.773934
  C      -2.703943     -2.891536     -3.096837
  C      -1.165235     -0.883242     -3.306971
  C      -3.682524     -0.549550     -3.332889
  C       0.668554      1.607575      1.090650
  C       1.637309      1.352466      3.423087
  C       3.041846      2.316933      1.547907
  H      -4.059426     -1.720480      0.458412
  H       3.444652     -1.009702     -0.367301
  H      -1.891539     -3.502602     -2.655366
  H      -2.678768     -3.030445     -4.197702
  H      -3.673034     -3.275262     -2.722508
  H      -0.317915     -1.459892     -2.886141
  H      -1.011363      0.186328     -3.063117
  H      -1.144932     -0.993733     -4.410768
  H      -4.662928     -0.907022     -2.962382
  H      -3.683515     -0.620935     -4.440492
  H      -3.573847      0.519234     -3.059504
  H      -0.307284      1.015428      1.583257
  H       0.846368      1.636228     -0.002449
  H       0.205811      2.585417      1.360772
  H       0.832058      0.642171      3.700599
  H       1.325602      2.373980      3.728555
  H       2.540215      1.071542      3.999137
  H       3.270146      2.295634      0.464973
  H       3.972349      2.067841      2.096816
  H       2.742977      3.348871      1.831324
  Si      5.305204     -3.208402      0.043301
  C       6.495683     -1.969148      0.825028
  C       4.391551     -4.204854      1.357305
  C       6.180358     -4.322764     -1.217423
  H       5.918470     -1.321593      1.516953
  H       6.998134     -1.335964      0.065436
  H       7.280849     -2.492787      1.409231
  H       3.646662     -4.893957      0.910139
  H       3.867200     -3.497684      2.032536
  H       5.102288     -4.807644      1.960328
  H       5.467886     -5.020649     -1.703110
  H       6.963759     -4.931856     -0.719546
  H       6.671269     -3.726149     -2.013556
  H       4.261589     -2.420999     -0.749530
51
Coordinates from ORCA-job my_molecule_reactant E -1977.868284075975
  Pt     -0.472815     -0.341059      0.607297
  O       1.078254     -1.240659      1.540216
  O      -2.234122      0.254223     -0.434514
  P       2.465428     -0.428338      1.495564
  P      -2.470809     -1.219107     -0.950041
  O      -3.934829     -1.798004     -0.525259
  O      -1.302133     -2.044107     -0.257532
  O       2.893132     -0.236817     -0.087810
  O       3.548995     -1.021556      2.363422
  C       1.948813      1.313537      1.911078
  C      -2.506571     -1.390390     -2.778552
  C      -2.656263     -2.885720     -3.125348
  C      -1.163821     -0.839790     -3.302824
  C      -3.688014     -0.563186     -3.324625
  C       0.666742      1.594417      1.114286
  C       1.682408      1.358329      3.427574
  C       3.047510      2.315321      1.517516
  H      -4.038175     -1.800094      0.448735
  H       3.430931     -1.015727     -0.377264
  H      -1.829900     -3.484800     -2.693582
  H      -2.628163     -3.006406     -4.228296
  H      -3.616142     -3.297618     -2.757318
  H      -0.303532     -1.403569     -2.890924
  H      -1.034434      0.228953     -3.041789
  H      -1.140966     -0.932056     -4.408238
  H      -4.660029     -0.948831     -2.960382
  H      -3.687164     -0.616892     -4.433257
  H      -3.603846      0.503280     -3.034129
  H      -0.292451      0.992647      1.626355
  H       0.822494      1.622299      0.017982
  H       0.198814      2.567324      1.392893
  H       0.884394      0.647758      3.724664
  H       1.374628      2.380719      3.734285
  H       2.597263      1.082146      3.986824
  H       3.252278      2.288498      0.429939
  H       3.990190      2.070423      2.047350
  H       2.753461      3.348411      1.801849
  Si      5.275564     -3.203310      0.048267
  C       6.472138     -1.961685      0.816694
  C       4.356307     -4.179741      1.373482
  C       6.144817     -4.335824     -1.200311
  H       5.898086     -1.303554      1.501395
  H       6.977783     -1.339464      0.050196
  H       7.254715     -2.482854      1.406629
  H       3.607983     -4.870069      0.934098
  H       3.835229     -3.462174      2.040333
  H       5.063614     -4.778884      1.983984
  H       5.428634     -5.034787     -1.678961
  H       6.924622     -4.944045     -0.695793
  H       6.639418     -3.750382     -2.002342
  H       4.235470     -2.419321     -0.752002
51
Coordinates from ORCA-job my_molecule_reactant E -1977.868361053599
  Pt     -0.450127     -0.350681      0.579232
  O       1.095208     -1.249439      1.506256
  O      -2.205703      0.264650     -0.449372
  P       2.479365     -0.431250      1.476557
  P      -2.472442     -1.209916     -0.946759
  O      -3.942107     -1.758668     -0.501935
  O      -1.311488     -2.047366     -0.256281
  O       2.916964     -0.226469     -0.102419
  O       3.559204     -1.029086      2.345955
  C       1.958027      1.307478      1.902976
  C      -2.528876     -1.400028     -2.772887
  C      -2.709499     -2.895932     -3.101972
  C      -1.181232     -0.880117     -3.315600
  C      -3.700010     -0.556924     -3.316836
  C       0.692905      1.607410      1.085342
  C       1.663362      1.334206      3.414642
  C       3.068014      2.310055      1.544839
  H      -4.036134     -1.748566      0.472952
  H       3.460077     -1.001229     -0.392588
  H      -1.890547     -3.505750     -2.671062
  H      -2.693691     -3.028943     -4.203739
  H      -3.673512     -3.285792     -2.720933
  H      -0.327683     -1.455385     -2.905580
  H      -1.029622      0.188785     -3.067482
  H      -1.170563     -0.984702     -4.420105
  H      -4.675455     -0.920420     -2.939211
  H      -3.710868     -0.622634     -4.424753
  H      -3.593288      0.510889     -3.038937
  H      -0.280353      1.003662      1.569015
  H       0.871046      1.652372     -0.007122
  H       0.225223      2.578825      1.369575
  H       0.856967      0.623414      3.687571
  H       1.354055      2.353957      3.728431
  H       2.566348      1.046991      3.987453
  H       3.294672      2.296525      0.461403
  H       3.998795      2.054627      2.090431
  H       2.771986      3.340495      1.836624
  Si      5.289842     -3.189099      0.048666
  C       6.463859     -1.955395      0.863271
  C       4.339124     -4.183728      1.337639
  C       6.192517     -4.303947     -1.192072
  H       5.871076     -1.306748      1.541089
  H       6.987955     -1.322737      0.118007
  H       7.231864     -2.482708      1.466712
  H       3.603505     -4.869594      0.870721
  H       3.800015     -3.475498      2.000125
  H       5.031863     -4.789465      1.958241
  H       5.490045     -4.998200     -1.697159
  H       6.960964     -4.916939     -0.676022
  H       6.705443     -3.707367     -1.974166
  H       4.268842     -2.396156     -0.766919
51
Coordinates from ORCA-job my_molecule_reactant E -1977.868377154229
  Pt     -0.453053     -0.340634      0.596816
  O       1.093810     -1.232545      1.527105
  O      -2.211875      0.266312     -0.446111
  P       2.476175     -0.411826      1.489921
  P      -2.466430     -1.210883     -0.942152
  O      -3.935741     -1.767422     -0.505948
  O      -1.305146     -2.041066     -0.243143
  O       2.910109     -0.214387     -0.091029
  O       3.559217     -1.001509      2.360927
  C       1.949929      1.327365      1.908017
  C      -2.510228     -1.404425     -2.768248
  C      -2.678646     -2.902084     -3.095870
  C      -1.162807     -0.876284     -3.303546
  C      -3.683689     -0.570248     -3.320873
  C       0.678335      1.615212      1.095997
  C       1.664184      1.362731      3.421214
  C       3.052848      2.332822      1.536394
  H      -4.036060     -1.756366      0.468300
  H       3.447332     -0.993432     -0.382779
  H      -1.858124     -3.505548     -2.659055
  H      -2.655314     -3.036776     -4.197302
  H      -3.642227     -3.297910     -2.719952
  H      -0.307898     -1.444957     -2.887213
  H      -1.020024      0.194070     -3.056427
  H      -1.144600     -0.982733     -4.407769
  H      -4.658939     -0.939792     -2.948654
  H      -3.687227     -0.637893     -4.428725
  H      -3.585994      0.498727     -3.044146
  H      -0.289208      1.011130      1.590746
  H       0.849338      1.651515      0.002052
  H       0.208299      2.587012      1.375121
  H       0.862920      0.649866      3.703699
  H       1.351797      2.383026      3.730170
  H       2.571980      1.083698      3.990473
  H       3.272789      2.313261      0.451681
  H       3.988252      2.085418      2.077784
  H       2.753728      3.363739      1.823317
  Si      5.278208     -3.205444      0.038516
  C       6.456623     -1.981776      0.861962
  C       4.331846     -4.214166      1.319636
  C       6.175431     -4.307402     -1.217578
  H       5.867319     -1.341079      1.550135
  H       6.977717     -1.340731      0.121749
  H       7.227099     -2.516430      1.455662
  H       3.593512     -4.893729      0.847696
  H       3.796609     -3.513125      1.992656
  H       5.026604     -4.828042      1.929996
  H       5.470443     -4.995172     -1.727973
  H       6.944807     -4.927016     -0.710916
  H       6.686534     -3.702797     -1.994701
  H       4.255366     -2.402810     -0.765821
51
Coordinates from ORCA-job my_molecule_reactant E -1977.868384505653
  Pt     -0.457038     -0.349535      0.596657
  O       1.089603     -1.247711      1.522483
  O      -2.216148      0.263848     -0.442690
  P       2.473614     -0.429853      1.483915
  P      -2.472276     -1.210661     -0.945830
  O      -3.941784     -1.768113     -0.511465
  O      -1.311265     -2.045244     -0.251587
  O       2.904960     -0.231733     -0.097655
  O       3.557074     -1.022954      2.352082
  C       1.951539      1.309927      1.904578
  C      -2.517331     -1.395190     -2.772833
  C      -2.687662     -2.891028     -3.107706
  C      -1.169611     -0.865970     -3.306312
  C      -3.690126     -0.556946     -3.320691
  C       0.677806      1.600221      1.096747
  C       1.670472      1.345144      3.418651
  C       3.054984      2.313623      1.529791
  H      -4.041481     -1.761759      0.462889
  H       3.446082     -1.008312     -0.387432
  H      -1.867638     -3.497584     -2.674245
  H      -2.665027     -3.020351     -4.209796
  H      -3.651530     -3.287554     -2.733256
  H      -0.315124     -1.437730     -2.893351
  H      -1.025406      0.202966     -3.053945
  H      -1.152197     -0.966937     -4.411066
  H      -4.665598     -0.927154     -2.949712
  H      -3.694380     -0.619179     -4.428856
  H      -3.591003      0.510549     -3.038809
  H      -0.289535      0.999267      1.595641
  H       0.844952      1.635098      0.002197
  H       0.211271      2.573486      1.376600
  H       0.868876      0.633513      3.703281
  H       1.360733      2.365834      3.728944
  H       2.579522      1.064361      3.985034
  H       3.271460      2.294053      0.444371
  H       3.991654      2.064397      2.068125
  H       2.758549      3.344950      1.818001
  Si      5.284188     -3.197087      0.047264
  C       6.464056     -1.958476      0.845868
  C       4.347530     -4.188614      1.348824
  C       6.176719     -4.315250     -1.197814
  H       5.876835     -1.308584      1.527279
  H       6.979718     -1.327588      0.093251
  H       7.238893     -2.482315      1.443545
  H       3.608021     -4.876736      0.891437
  H       3.814561     -3.478753      2.014446
  H       5.047167     -4.791676      1.964325
  H       5.470453     -5.012159     -1.693856
  H       6.950655     -4.925471     -0.686709
  H       6.681652     -3.720872     -1.986764
  H       4.254494     -2.408693     -0.762036
51
Coordinates from ORCA-job my_molecule_reactant E -1977.868388014737
  Pt     -0.455864     -0.346459      0.592425
  O       1.090712     -1.243038      1.521290
  O      -2.213839      0.263678     -0.444312
  P       2.474631     -0.424828      1.484987
  P      -2.470799     -1.211373     -0.945431
  O      -3.939877     -1.768114     -0.508696
  O      -1.309117     -2.044759     -0.251053
  O       2.908115     -0.226080     -0.095929
  O       3.556910     -1.018298      2.354378
  C       1.952281      1.314826      1.905710
  C      -2.517641     -1.398386     -2.772142
  C      -2.688418     -2.894659     -3.104827
  C      -1.170380     -0.870014     -3.307618
  C      -3.690893     -0.560797     -3.320022
  C       0.681190      1.606498      1.094362
  C       1.666704      1.348809      3.418976
  C       3.057390      2.318261      1.535132
  H      -4.038518     -1.760400      0.465757
  H       3.448169     -1.003362     -0.386194
  H      -1.868104     -3.500722     -2.671220
  H      -2.666707     -3.025475     -4.206757
  H      -3.652026     -3.290573     -2.729047
  H      -0.315553     -1.441267     -2.894659
  H      -1.025869      0.199259     -3.056876
  H      -1.153997     -0.972529     -4.412246
  H      -4.666037     -0.930406     -2.947588
  H      -3.696228     -0.624567     -4.428093
  H      -3.591408      0.507085     -3.039725
  H      -0.287504      1.003771      1.588644
  H       0.851975      1.644352      0.000473
  H       0.213116      2.578728      1.375182
  H       0.863801      0.637433      3.700538
  H       1.356687      2.369409      3.729283
  H       2.573866      1.066920      3.987826
  H       3.277227      2.299413      0.450372
  H       3.992258      2.068177      2.076192
  H       2.760558      3.349511      1.823199
  Si      5.283556     -3.198762      0.045609
  C       6.462772     -1.964250      0.851487
  C       4.343849     -4.195236      1.341179
  C       6.177813     -4.312312     -1.202361
  H       5.874719     -1.316909      1.534574
  H       6.980199     -1.330549      0.102438
  H       7.236225     -2.491092      1.448334
  H       3.604700     -4.880882      0.879512
  H       3.810277     -3.487850      2.008914
  H       5.041987     -4.801424      1.955303
  H       5.472104     -5.006853     -1.702506
  H       6.950506     -4.924986     -0.692312
  H       6.684466     -3.714992     -1.987979
  H       4.255947     -2.406458     -0.762671
51
Coordinates from ORCA-job my_molecule_reactant E -1977.868388579451
  Pt     -0.455408     -0.346506      0.594329
  O       1.091237     -1.242594      1.522448
  O      -2.213674      0.264081     -0.444164
  P       2.474866     -0.423963      1.485190
  P      -2.469997     -1.211213     -0.944948
  O      -3.939318     -1.768010     -0.509118
  O      -1.308715     -2.044415     -0.249617
  O       2.907424     -0.225302     -0.096002
  O       3.557867     -1.016815      2.354113
  C       1.951917      1.315509      1.905975
  C      -2.515596     -1.398724     -2.771636
  C      -2.685579     -2.895154     -3.104030
  C      -1.168197     -0.869979     -3.306398
  C      -3.688826     -0.561745     -3.320499
  C       0.679944      1.606287      1.095633
  C       1.667633      1.349591      3.419477
  C       3.056110      2.319542      1.534297
  H      -4.038611     -1.760106      0.465268
  H       3.447055     -1.002781     -0.386558
  H      -1.865275     -3.500763     -2.669781
  H      -2.663159     -3.026240     -4.205915
  H      -3.649246     -3.291356     -2.728715
  H      -0.313404     -1.440774     -2.892732
  H      -1.024262      0.199423     -3.055866
  H      -1.151073     -0.972797     -4.410984
  H      -4.664057     -0.931648     -2.948589
  H      -3.693420     -0.625818     -4.428558
  H      -3.589952      0.506250     -3.040423
  H      -0.288104      1.003309      1.591088
  H       0.849759      1.643763      0.001571
  H       0.211701      2.578442      1.376472
  H       0.865395      0.637788      3.701861
  H       1.357282      2.370064      3.729888
  H       2.575456      1.068336      3.987593
  H       3.274986      2.300693      0.449344
  H       3.991612      2.070060      2.074551
  H       2.758946      3.350657      1.822517
  Si      5.281632     -3.199180      0.044666
  C       6.461102     -1.964967      0.850658
  C       4.342075     -4.195907      1.340135
  C       6.175565     -4.312512     -1.203734
  H       5.873249     -1.317912      1.534179
  H       6.978325     -1.330998      0.101698
  H       7.234730     -2.492018      1.447083
  H       3.602671     -4.881249      0.878419
  H       3.808843     -3.488593      2.008228
  H       5.040277     -4.802431      1.953873
  H       5.469675     -5.006784     -1.703992
  H       6.948204     -4.925476     -0.693953
  H       6.682239     -3.715060     -1.989234
  H       4.254029     -2.406537     -0.763300
