51
Coordinates from ORCA-job my_molecule_product E -1977.927367896085
  Pt          1.57995748433934     -1.34586600073526     -0.64994226566701
  O           1.67666095615314      0.00378955852565      0.84038637777308
  O          -0.61420873096546     -2.00527283169806     -0.51228600437615
  P           2.99491799611054      0.89756196780333      1.06529006646924
  P          -0.44199457674985     -2.77502243229955     -1.85560265849855
  O          -0.80312855041071     -4.36865248824798     -1.75147697836047
  O           1.09662827071512     -2.60136362462030     -2.25567075442941
  O           3.09332126916294      1.86077148568746     -0.29083126603264
  O           4.31205829976251      0.18427775400043      1.30489134099266
  C           2.46989314213966      2.06255390644772      2.41429173846400
  C          -1.57167252800129     -2.22807672010311     -3.20320701000416
  C          -1.24050908444120     -3.01501658361650     -4.48632570306099
  C          -1.32309579144734     -0.71980498534027     -3.40853400986454
  C          -3.02247519105548     -2.48254018202778     -2.74636960678087
  C           1.18216644772750      2.79890272533490      2.00256661985591
  C           2.24561162446101      1.23655916415113      3.69530922681545
  C           3.62871172387606      3.05958492097747      2.61543755564599
  H          -0.19949113897476     -4.80816468008584     -1.11616227766181
  H           4.02177356726876      1.81911156590221     -0.59436431746777
  H          -0.18555995533612     -2.86377826606199     -4.79050878163593
  H          -1.89147013633419     -2.66023771376989     -5.31267657972212
  H          -1.41164436373677     -4.10099449822633     -4.35320385607358
  H          -0.27859379879928     -0.51904532273128     -3.72087950056631
  H          -1.52775980230023     -0.14449993525519     -2.48382071595234
  H          -1.99640751995924     -0.34277465601678     -4.20593211309076
  H          -3.21836060125290     -3.56239576575009     -2.59767858535593
  H          -3.72293403814266     -2.10663247240516     -3.52133865504333
  H          -3.24433977804995     -1.95527094788258     -1.79695031788884
  H           0.34263385856646      2.09185054442080      1.85639593122580
  H           1.32706252486165      3.36251531906713      1.05961929903643
  H           0.89711625774493      3.52144415410696      2.79695311222754
  H           1.42999658110972      0.49837717203601      3.56369661672925
  H           1.96855213417881      1.91364072869863      4.53119373835377
  H           3.16495460854350      0.69071344712477      3.98803831510342
  H           3.79934430859850      3.66551393137122      1.70293289616079
  H           4.57132349855584      2.53234232756480      2.86381931215446
  H           3.38428116819837      3.75330071905365      3.44729853784497
  Si          2.91395751365230     -2.98562253587127      0.44268335494117
  C           4.68482741487012     -2.90288464898882     -0.19112880606388
  C           2.82772167359471     -2.67106661942717      2.29471827276542
  C           2.09847570176148     -4.65270570490464      0.02611688388696
  H           5.10184970939923     -1.91413402971172      0.08923255986215
  H           4.74801662123782     -3.04030147195590     -1.28868193502968
  H           5.28811715408452     -3.69765104133076      0.29825510475930
  H           1.78738658560238     -2.53473317082257      2.64880773993818
  H           3.41885914941753     -1.76479825082858      2.53131200056372
  H           3.27012773322755     -3.54564499494064      2.81946562465633
  H           1.08577652441439     -4.70345348943625      0.48007585063305
  H           2.70290087617807     -5.47182956538341      0.47131756451886
  H           2.04276674997216     -4.80941818859119     -1.06891686035408
  H           2.99738033737060     -0.92596631770725     -1.09283582849673
