51
Coordinates from ORCA-job my_molecule E -1977.927367588900
  Pt          1.57927570156594     -1.34527824998157     -0.65002285967508
  O           1.67612175889804      0.00442564301011      0.84010617693696
  O          -0.61495185338732     -2.00511864623626     -0.51283904199155
  P           2.99468368031676      0.89777491818520      1.06501163915081
  P          -0.44225967115344     -2.77507262258832     -1.85600184506873
  O          -0.80280498601806     -4.36882944572789     -1.75149502531348
  O           1.09626867664670     -2.60081265939785     -2.25596990600284
  O           3.09264702513029      1.86170605425633     -0.29063526351936
  O           4.31176381692411      0.18408069972066      1.30357498117587
  C           2.47049100247527      2.06220444479944      2.41484893548441
  C          -1.57181680153722     -2.22877224713959     -3.20392073979459
  C          -1.24116025526842     -3.01677376398350     -4.48654323732002
  C          -1.32247394958436     -0.72076615705504     -3.41036052884877
  C          -3.02268963671996     -2.48222573804926     -2.74670626596874
  C           1.18268647357883      2.79898968216338      2.00406575970787
  C           2.24665597708762      1.23571552204517      3.69559060961424
  C           3.62957831476694      3.05896084361644      2.61598965103028
  H          -0.19926483031223     -4.80795476820722     -1.11583515810457
  H           4.02103409561706      1.82027113457068     -0.59440674000660
  H          -0.18618639011545     -2.86621517620532     -4.79097272830093
  H          -1.89205111736937     -2.66234597570485     -5.31308186475765
  H          -1.41271229243216     -4.10257915225668     -4.35254620411762
  H          -0.27806281814376     -0.52081473830678     -3.72336223070453
  H          -1.52628181760366     -0.14482294831349     -2.48585828014592
  H          -1.99599898240916     -0.34382759584766     -4.20761913070696
  H          -3.21911028874946     -3.56184826873987     -2.59706136264506
  H          -3.72309788006883     -2.10665082577564     -3.52188676626919
  H          -3.24415846650826     -1.95403981771509     -1.79770574806363
  H           0.34293289489741      2.09218454406568      1.85800977485446
  H           1.32721304167056      3.36297212045517      1.06128535860946
  H           0.89818879337522      3.52124451125142      2.79891040924493
  H           1.43080894712754      0.49778928046850      3.56397201278055
  H           1.97010944822818      1.91248756895922      4.53188706659612
  H           3.16598640899180      0.68950177592651      3.98765839331080
  H           3.79983315797718      3.66536476689896      1.70372973685632
  H           4.57222532886235      2.53142504145336      2.86359076274634
  H           3.38568429158331      3.75226921437095      3.44834176488279
  Si          2.91344760324320     -2.98476274209108      0.44281497726896
  C           4.68433769010427     -2.90133546000237     -0.19084418877232
  C           2.82689596364555     -2.67034512728428      2.29484761678836
  C           2.09860057301593     -4.65213701059317      0.02621406488321
  H           5.10089065034669     -1.91236667131044      0.08947666821735
  H           4.74766537451799     -3.03876122401689     -1.28838315744262
  H           5.28789327208852     -3.69582344497410      0.29865961385156
  H           1.78648642620420     -2.53410292676276      2.64874093416038
  H           3.41790659699104     -1.76405593115549      2.53160967237883
  H           3.26922161362966     -3.54491482384825      2.81967449028211
  H           1.08589024394994     -4.70317475824129      0.48009091160865
  H           2.70334198705065     -5.47098081241532      0.47150271866768
  H           2.04307391677697     -4.80900881259891     -1.06879750852174
  H           2.99672517099523     -0.92565796819081     -1.09256866512680
