51
Coordinates from ORCA-job my_molecule_initial_path E   0.000000000000
  Pt     -1.778662      0.712563      0.762921
  O      -0.232016     -0.183525      1.691040
  O      -3.536927      1.323150     -0.275572
  P       1.151613      0.635107      1.653782
  P      -3.793250     -0.152144     -0.776356
  O      -5.262572     -0.708940     -0.340526
  O      -2.631969     -0.985345     -0.081025
  O       1.584171      0.833767      0.072590
  O       2.234614      0.042254      2.522705
  C       0.628663      2.374578      2.074567
  C      -3.838850     -0.339654     -2.603044
  C      -4.008833     -1.836085     -2.935438
  C      -2.491450      0.189090     -3.137806
  C      -5.012080      0.497325     -3.151907
  C      -0.643309      2.665357      1.264225
  C       0.344379      2.408661      3.588068
  C       1.732857      3.378611      1.702888
  H      -5.361865     -0.701037      0.633860
  H       2.123801      0.056288     -0.217966
  H      -3.188529     -2.441694     -2.501189
  H      -3.986413     -1.967170     -4.037323
  H      -4.972500     -2.232286     -2.560123
  H      -1.636658     -0.381705     -2.724140
  H      -2.347516      1.258493     -2.887274
  H      -2.474327      0.086272     -4.242392
  H      -5.987310      0.127421     -2.779997
  H      -5.016674      0.433251     -4.259966
  H      -4.913205      1.565319     -2.871831
  H      -1.611358      2.062379      1.759680
  H      -0.473494      2.702832      0.170163
  H      -1.111553      3.637511      1.545064
  H      -0.457859      1.696857      3.870453
  H       0.034029      3.429133      3.898480
  H       1.252203      2.127405      4.156185
  H       1.951733      3.359762      0.617936
  H       2.668358      3.129129      2.243143
  H       1.435692      4.409727      1.991109
  Si      3.958378     -2.140110      0.213258
  C       5.137848     -0.905898      1.019250
  C       3.018821     -3.136838      1.508727
  C       4.852311     -3.253443     -1.035142
  H       4.549996     -0.258843      1.702771
  H       5.655071     -0.271929      0.270290
  H       5.911477     -1.432949      1.615675
  H       2.279417     -3.822180      1.047011
  H       2.485590     -2.429524      2.176820
  H       3.717023     -3.743362      2.122465
  H       4.146421     -3.947714     -1.535400
  H       5.624950     -3.866407     -0.525361
  H       5.358986     -2.655991     -1.820642
  H       2.930775     -1.347467     -0.594708
51
Coordinates from ORCA-job my_molecule_initial_path E   0.000000000000
  Pt     -1.663167      0.598291      0.641848
  O      -0.104306     -0.024064      1.661919
  O      -3.532322      1.061345     -0.235048
  P       1.242229      0.840584      1.601806
  P      -3.625503     -0.388122     -0.850681
  O      -4.968956     -1.189892     -0.390556
  O      -2.337733     -1.132284     -0.302418
  O       1.593707      1.186841      0.030951
  O       2.371136      0.250743      2.407219
  C       0.696641      2.523080      2.177188
  C      -3.745116     -0.430812     -2.681320
  C      -3.778759     -1.897863     -3.153675
  C      -2.497865      0.295589     -3.225294
  C      -5.037206      0.310911     -3.077946
  C      -0.584092      2.875648      1.407321
  C       0.431123      2.418831      3.690263
  C       1.800630      3.552698      1.882470
  H      -4.998718     -1.285077      0.584052
  H       2.185752      0.497160     -0.345949
  H      -2.872137     -2.444031     -2.826740
  H      -3.813101     -1.921803     -4.262763
  H      -4.665614     -2.437314     -2.767744
  H      -1.563653     -0.212087     -2.914105
  H      -2.449998      1.346047     -2.877056
  H      -2.538404      0.298577     -4.333902
  H      -5.938619     -0.201964     -2.689432
  H      -5.106087      0.349336     -4.184894
  H      -5.037500      1.354097     -2.703267
  H      -1.524567      2.216035      1.834668
  H      -0.425060      3.007700      0.319115
  H      -1.040787      3.823648      1.774563
  H      -0.363912      1.680493      3.918980
  H       0.116327      3.407006      4.087962
  H       1.346547      2.102439      4.227204
  H       2.004941      3.636736      0.797562
  H       2.744708      3.259869      2.384704
  H       1.503136      4.552065      2.265499
  Si      3.717461     -2.187900      0.226261
  C       5.061905     -1.008380      0.821644
  C       2.826407     -2.997881      1.669724
  C       4.372364     -3.470126     -1.008556
  H       4.597239     -0.262360      1.498898
  H       5.574133     -0.484026     -0.010488
  H       5.830894     -1.567267      1.394872
  H       1.989475     -3.646115      1.341631
  H       2.425254     -2.200841      2.327361
  H       3.527620     -3.622912      2.261964
  H       3.563867     -4.138044     -1.370693
  H       5.135682     -4.105537     -0.512776
  H       4.848653     -2.989213     -1.887137
  H       2.705353     -1.199851     -0.625209
51
Coordinates from ORCA-job my_molecule_initial_path E   0.000000000000
  Pt     -1.481761      0.482802      0.467188
  O       0.021776      0.136438      1.622835
  O      -3.462647      0.764185     -0.193449
  P       1.336049      1.039814      1.540031
  P      -3.428571     -0.623261     -0.938201
  O      -4.623768     -1.632855     -0.479249
  O      -2.031925     -1.252478     -0.554256
  O       1.610669      1.510618     -0.010169
  O       2.512957      0.452878      2.272565
  C       0.768631      2.649111      2.272115
  C      -3.655257     -0.521689     -2.754677
  C      -3.581145     -1.932290     -3.369949
  C      -2.528196      0.381651     -3.294731
  C      -5.043041      0.106830     -2.989612
  C      -0.522360      3.058326      1.550075
  C       0.521854      2.409178      3.772685
  C       1.870429      3.700211      2.054641
  H      -4.567090     -1.820455      0.480772
  H       2.282744      0.949966     -0.453475
  H      -2.602426     -2.405358     -3.159734
  H      -3.693019     -1.855732     -4.471497
  H      -4.376112     -2.599918     -2.984431
  H      -1.527182     -0.049595     -3.096304
  H      -2.559816      1.394672     -2.847619
  H      -2.648546      0.484131     -4.392675
  H      -5.855748     -0.535214     -2.597050
  H      -5.195411      0.240866     -4.080509
  H      -5.122858      1.105489     -2.515514
  H      -1.436790      2.347805      1.894166
  H      -0.377574      3.278666      0.474493
  H      -0.966453      3.974324      2.002259
  H      -0.268039      1.650917      3.946764
  H       0.205371      3.358159      4.255278
  H       1.444226      2.057491      4.274949
  H       2.059297      3.883331      0.978993
  H       2.822821      3.371125      2.517166
  H       1.572987      4.660120      2.527400
  Si      3.439322     -2.204056      0.244059
  C       4.941100     -1.128856      0.627823
  C       2.650946     -2.837710      1.827502
  C       3.865201     -3.628379     -0.934255
  H       4.613455     -0.297019      1.284822
  H       5.431130     -0.718554     -0.278365
  H       5.701907     -1.721646      1.178077
  H       1.734736     -3.433046      1.644934
  H       2.393250     -1.968612      2.464518
  H       3.353859     -3.489225      2.389617
  H       2.977529     -4.258628     -1.148116
  H       4.625093     -4.284656     -0.460252
  H       4.281455     -3.263022     -1.894895
  H       2.516941     -0.986853     -0.666747
51
Coordinates from ORCA-job my_molecule_initial_path E   0.000000000000
  Pt     -1.243921      0.342666      0.260351
  O       0.140038      0.304063      1.565627
  O      -3.318836      0.430543     -0.151073
  P       1.430305      1.236527      1.478938
  P      -3.213090     -0.858367     -1.042381
  O      -4.257117     -2.035865     -0.617810
  O      -1.734654     -1.357908     -0.840578
  O       1.637498      1.813927     -0.046689
  O       2.660631      0.651002      2.118675
  C       0.841322      2.758824      2.359588
  C      -3.573284     -0.607376     -2.821829
  C      -3.415461     -1.936075     -3.584441
  C      -2.582294      0.454499     -3.339537
  C      -5.029566     -0.107467     -2.891955
  C      -0.461074      3.216989      1.690089
  C       0.614068      2.388390      3.836551
  C       1.936163      3.830733      2.222242
  H      -4.106439     -2.313748      0.309475
  H       2.390145      1.386724     -0.506781
  H      -2.380902     -2.320048     -3.498928
  H      -3.621861     -1.766651     -4.661708
  H      -4.106954     -2.718206     -3.215443
  H      -1.530830      0.114118     -3.260035
  H      -2.676586      1.410950     -2.788552
  H      -2.799334      0.649971     -4.409658
  H      -5.743790     -0.865003     -2.513833
  H      -5.279302      0.114533     -3.949977
  H      -5.166681      0.827038     -2.312094
  H      -1.350572      2.466713      1.942421
  H      -0.331084      3.514811      0.631686
  H      -0.891239      4.096098      2.220500
  H      -0.171089      1.614898      3.955434
  H       0.295919      3.290558      4.400889
  H       1.544265      2.003417      4.298615
  H       2.109435      4.107600      1.164027
  H       2.896620      3.473013      2.645111
  H       1.636424      4.743885      2.778453
  Si      3.148210     -2.202327      0.268570
  C       4.780900     -1.265274      0.432152
  C       2.499524     -2.656525      1.975943
  C       3.357357     -3.750505     -0.809847
  H       4.596216     -0.362249      1.049531
  H       5.220806     -0.972392     -0.542686
  H       5.534303     -1.888909      0.958785
  H       1.523373     -3.179337      1.957949
  H       2.394787     -1.725431      2.567004
  H       3.201642     -3.336924      2.505213
  H       2.420869     -4.343523     -0.858889
  H       4.124624     -4.421256     -0.367516
  H       3.678409     -3.495330     -1.839918
  H       2.372106     -0.755797     -0.721660
51
Coordinates from ORCA-job my_molecule_initial_path E   0.000000000000
  Pt     -0.975470      0.185548      0.057451
  O       0.235022      0.487640      1.477689
  O      -3.112229      0.087343     -0.127558
  P       1.516873      1.429925      1.422504
  P      -2.980832     -1.083756     -1.158933
  O      -3.868568     -2.401613     -0.798045
  O      -1.450285     -1.431572     -1.146760
  O       1.661759      2.106421     -0.072809
  O       2.794091      0.833191      1.952580
  C       0.918241      2.858302      2.442393
  C      -3.486579     -0.695693     -2.879072
  C      -3.260934     -1.920923     -3.784637
  C      -2.645942      0.507027     -3.354009
  C      -4.984332     -0.342801     -2.793105
  C      -0.395525      3.368751      1.834665
  C       0.712690      2.362143      3.885448
  C       2.006657      3.944488      2.387339
  H      -3.625007     -2.761803      0.079448
  H       2.471833      1.788971     -0.523715
  H      -2.189862     -2.198088     -3.820646
  H      -3.570894     -1.673345     -4.821316
  H      -3.840566     -2.803051     -3.450354
  H      -1.563072      0.273470     -3.388904
  H      -2.786655      1.390219     -2.700064
  H      -2.967269      0.781296     -4.379798
  H      -5.591909     -1.202177     -2.447663
  H      -5.337700     -0.047811     -3.802642
  H      -5.161697      0.512224     -2.110530
  H      -1.264059      2.595677      1.995295
  H      -0.279939      3.738460      0.797535
  H      -0.804883      4.208135      2.439424
  H      -0.068637      1.578419      3.947774
  H       0.396337      3.210074      4.529377
  H       1.651373      1.945282      4.300541
  H       2.163171      4.311611      1.354138
  H       2.973864      3.557196      2.766270
  H       1.709232      4.804569      3.023617
  Si      2.854522     -2.193505      0.298050
  C       4.570620     -1.402337      0.235640
  C       2.350224     -2.461719      2.094915
  C       2.850603     -3.840146     -0.655307
  H       4.523830     -0.446671      0.797031
  H       4.935877     -1.218491     -0.795061
  H       5.317291     -2.054745      0.737178
  H       1.337358     -2.884184      2.243999
  H       2.401880     -1.484920      2.615245
  H       3.044146     -3.174512      2.592712
  H       1.894496     -4.391817     -0.537835
  H       3.627130     -4.525001     -0.250010
  H       3.061396     -3.686491     -1.732912
  H       2.232332     -0.539213     -0.776576
51
Coordinates from ORCA-job my_molecule_initial_path E   0.000000000000
  Pt     -0.514424     -0.082754     -0.270768
  O       0.246848      0.630196      1.327251
  O      -2.682144     -0.230940     -0.189446
  P       1.542639      1.555232      1.329458
  P      -2.624069     -1.289800     -1.332320
  O      -3.431504     -2.652140     -0.960194
  O      -1.096871     -1.534882     -1.619799
  O       1.671969      2.336486     -0.123353
  O       2.845950      0.957236      1.792334
  C       0.972555      2.885827      2.484895
  C      -3.398688     -0.776952     -2.910054
  C      -3.211595     -1.902983     -3.943605
  C      -2.692973      0.525782     -3.337573
  C      -4.891516     -0.540217     -2.611755
  C      -0.338670      3.463771      1.935398
  C       0.771062      2.266962      3.879875
  C       2.087071      3.947210      2.499801
  H      -3.040716     -3.081211     -0.172158
  H       2.551978      2.170232     -0.521737
  H      -2.140404     -2.103223     -4.141012
  H      -3.661977     -1.581940     -4.905658
  H      -3.696912     -2.846015     -3.624830
  H      -1.610797      0.383427     -3.530942
  H      -2.808913      1.324841     -2.578509
  H      -3.154350      0.874974     -4.283633
  H      -5.403950     -1.466543     -2.286115
  H      -5.378637     -0.177190     -3.540217
  H      -5.033302      0.228631     -1.826403
  H      -1.206992      2.704378      2.024504
  H      -0.230048      3.887708      0.918458
  H      -0.697081      4.279521      2.600461
  H      -0.020884      1.491774      3.886825
  H       0.473680      3.064835      4.593002
  H       1.707383      1.812403      4.259221
  H       2.240430      4.399449      1.500023
  H       3.051004      3.521617      2.844617
  H       1.809954      4.760117      3.203224
  Si      2.545588     -2.095108      0.374495
  C       4.310889     -1.472217      0.127044
  C       2.164050     -2.246613      2.221391
  C       2.375066     -3.793444     -0.469942
  H       4.392820     -0.489268      0.633477
  H       4.609965     -1.371109     -0.936108
  H       5.039025     -2.154911      0.615887
  H       1.126548     -2.527921      2.489767
  H       2.385258     -1.266226      2.687348
  H       2.809950     -3.022375      2.688585
  H       1.429568     -4.305768     -0.193684
  H       3.167222     -4.488238     -0.114752
  H       2.476716     -3.695835     -1.569312
  H       2.162231     -0.276785     -0.923459
51
Coordinates from ORCA-job my_molecule_initial_path E   0.000000000000
  Pt     -0.521941      0.045824     -0.188305
  O       0.355455      0.798718      1.326311
  O      -2.705982     -0.459971     -0.123487
  P       1.650442      1.733383      1.347310
  P      -2.507603     -1.408130     -1.346690
  O      -3.037186     -2.943958     -1.204073
  O      -0.954911     -1.360756     -1.603288
  O       1.685778      2.582338     -0.074817
  O       2.977125      1.082998      1.659119
  C       1.090143      3.006777      2.576655
  C      -3.275547     -0.891446     -2.942769
  C      -2.904658     -1.873192     -4.072521
  C      -2.776809      0.529995     -3.278809
  C      -4.789766     -0.903963     -2.657855
  C      -0.243304      3.617771      2.116084
  C       0.943181      2.313764      3.944062
  C       2.187173      4.085882      2.632306
  H      -2.667466     -3.384069     -0.412433
  H       2.535392      2.398145     -0.524292
  H      -1.812624     -1.889396     -4.258038
  H      -3.387680     -1.548282     -5.018089
  H      -3.243245     -2.905599     -3.859485
  H      -1.683818      0.559061     -3.463819
  H      -3.008082      1.248738     -2.467852
  H      -3.277777      0.876725     -4.206301
  H      -5.157093     -1.922258     -2.422807
  H      -5.322532     -0.546477     -3.563238
  H      -5.053705     -0.228428     -1.819514
  H      -1.080819      2.843710      2.127987
  H      -0.158700      4.112627      1.128824
  H      -0.593515      4.378087      2.847649
  H       0.160991      1.528978      3.925387
  H       0.656350      3.063860      4.711477
  H       1.896319      1.841774      4.254863
  H       2.301537      4.595358      1.654979
  H       3.164026      3.639240      2.905367
  H       1.923952      4.848974      3.394825
  Si      2.267041     -2.140001      0.339736
  C       4.020678     -1.623467     -0.122794
  C       2.029423     -2.095375      2.205110
  C       1.865419     -3.864551     -0.368929
  H       4.214289     -0.625250      0.320987
  H       4.202150     -1.590764     -1.215800
  H       4.746828     -2.341146      0.317174
  H       0.998885     -2.278693      2.567055
  H       2.354884     -1.105438      2.581484
  H       2.666651     -2.889474      2.653335
  H       0.895725     -4.258699      0.002387
  H       2.607910     -4.611415     -0.009732
  H       1.892650     -3.871643     -1.476946
  H       1.874366     -0.170887     -0.837794
51
Coordinates from ORCA-job my_molecule_initial_path E   0.000000000000
  Pt     -0.003779     -0.218391     -0.489219
  O       0.336208      0.899812      1.093997
  O      -2.169498     -0.758906     -0.266049
  P       1.638784      1.816850      1.240198
  P      -2.075475     -1.565985     -1.593898
  O      -2.619190     -3.093743     -1.412407
  O      -0.559696     -1.459613     -2.076345
  O       1.680470      2.764001     -0.126821
  O       2.985580      1.174153      1.490772
  C       1.117950      2.981833      2.585756
  C      -3.178488     -0.969443     -2.938871
  C      -2.940122     -1.843533     -4.185503
  C      -2.785865      0.498765     -3.199201
  C      -4.639547     -1.067890     -2.456229
  C      -0.203495      3.660323      2.189395
  C       0.956025      2.179548      3.889698
  C       2.250794      4.017781      2.720539
  H      -2.068471     -3.580978     -0.768209
  H       2.590793      2.732148     -0.485106
  H      -1.883613     -1.803324     -4.517411
  H      -3.566934     -1.464678     -5.019493
  H      -3.211932     -2.901458     -4.002242
  H      -1.732476      0.598106     -3.529704
  H      -2.928217      1.122852     -2.294651
  H      -3.428358      0.903244     -4.008079
  H      -4.938338     -2.115582     -2.257283
  H      -5.307959     -0.660991     -3.243638
  H      -4.800122     -0.482334     -1.529050
  H      -1.045932      2.918846      2.131565
  H      -0.114009      4.205853      1.229542
  H      -0.494799      4.393659      2.971788
  H       0.159636      1.414307      3.803976
  H       0.685214      2.868947      4.717543
  H       1.901523      1.674826      4.171077
  H       2.376231      4.605775      1.789384
  H       3.217571      3.532009      2.961311
  H       2.010008      4.726345      3.540696
  Si      1.990417     -1.987020      0.418191
  C       3.748041     -1.659175     -0.167459
  C       1.851752     -1.868241      2.293915
  C       1.435956     -3.715808     -0.155801
  H       4.047872     -0.658298      0.203752
  H       3.851441     -1.700362     -1.270033
  H       4.441744     -2.405802      0.276401
  H       0.814450     -1.900943      2.680685
  H       2.323530     -0.915650      2.602963
  H       2.407475     -2.714870      2.753202
  H       0.488943     -3.998629      0.349047
  H       2.172878     -4.481378      0.171694
  H       1.354853     -3.776947     -1.258140
  H       1.860175      0.079990     -1.026243
51
Coordinates from ORCA-job my_molecule_initial_path E   0.000000000000
  Pt      0.233709     -0.251069     -0.530294
  O       0.384325      1.031134      1.013997
  O      -1.933257     -0.972755     -0.301674
  P       1.692585      1.946910      1.206536
  P      -1.819848     -1.675788     -1.687177
  O      -2.136903     -3.281409     -1.637837
  O      -0.311127     -1.443877     -2.164030
  O       1.690621      2.974021     -0.105553
  O       3.037286      1.257194      1.337076
  C       1.219608      3.034523      2.636965
  C      -3.036904     -1.097685     -2.942486
  C      -2.761955     -1.817443     -4.277308
  C      -2.834684      0.424102     -3.091298
  C      -4.453035     -1.409042     -2.417181
  C      -0.106249      3.755926      2.334116
  C       1.088482      2.144850      3.887875
  C       2.364948      4.050545      2.819607
  H      -1.488039     -3.733458     -1.058369
  H       2.600843      2.970430     -0.462457
  H      -1.729862     -1.626016     -4.632913
  H      -3.467028     -1.442465     -5.048481
  H      -2.900429     -2.912295     -4.185213
  H      -1.814765      0.664974     -3.452533
  H      -2.998588      0.951733     -2.130729
  H      -3.561195      0.819637     -3.830941
  H      -4.615580     -2.499075     -2.307795
  H      -5.205086     -1.016569     -3.133363
  H      -4.632064     -0.930676     -1.433440
  H      -0.936416      3.035157      2.202186
  H      -0.028902      4.365959      1.412337
  H      -0.361480      4.433519      3.176786
  H       0.283720      1.392958      3.767539
  H       0.844607      2.775333      4.769298
  H       2.035377      1.609699      4.101941
  H       2.468737      4.702208      1.928824
  H       3.332143      3.536680      2.988900
  H       2.153056      4.698562      3.696046
  Si      1.665681     -1.903921      0.407660
  C       3.395068     -1.746051     -0.319549
  C       1.677853     -1.676846      2.274386
  C       0.867113     -3.570925     -0.040734
  H       3.803990     -0.760539     -0.016721
  H       3.398737     -1.831473     -1.424165
  H       4.043808     -2.546290      0.097414
  H       0.656495     -1.583754      2.692016
  H       2.260323     -0.767418      2.520106
  H       2.169539     -2.562822      2.731834
  H      -0.116557     -3.668713      0.466238
  H       1.515073     -4.393434      0.330918
  H       0.752748     -3.678941     -1.137090
  H       1.613478      0.224695     -1.031271
