51
Coordinates from ORCA-job my_molecule E -1977.844823504920
  Pt     -1.301755     -0.114186      0.624508
  O       0.132074      0.235151      1.864761
  O      -3.220850      0.279856     -0.116602
  P       1.412055      1.257195      1.644963
  P      -3.205145     -0.950581     -1.106149
  O      -4.323775     -2.069804     -0.721530
  O      -1.728283     -1.479088     -0.859973
  O       1.483975      1.581313      0.029956
  O       2.693127      0.710558      2.223645
  C       0.811217      2.845439      2.388794
  C      -3.587501     -0.605879     -2.865472
  C      -3.383545     -1.925509     -3.640646
  C      -2.594947      0.472672     -3.346744
  C      -5.041760     -0.103937     -2.970724
  C      -0.483905      3.331292      1.717472
  C       0.583858      2.542295      3.885053
  C       1.938208      3.883301      2.214752
  H      -4.227069     -2.342016      0.215646
  H       1.942286      0.825566     -0.403547
  H      -2.348965     -2.306301     -3.524538
  H      -3.560881     -1.741645     -4.720306
  H      -4.085872     -2.711802     -3.302223
  H      -1.544644      0.135350     -3.247127
  H      -2.709842      1.417052     -2.779589
  H      -2.790169      0.685470     -4.418181
  H      -5.766373     -0.865156     -2.622247
  H      -5.265256      0.126232     -4.033128
  H      -5.196775      0.823606     -2.383595
  H      -1.303425      2.589676      1.811167
  H      -0.331552      3.537407      0.639874
  H      -0.824467      4.267818      2.207624
  H      -0.222210      1.795946      4.030437
  H       0.295899      3.475250      4.412710
  H       1.506384      2.144126      4.352382
  H       2.116080      4.112525      1.145235
  H       2.887131      3.519987      2.655858
  H       1.650275      4.824879      2.728404
  Si      3.256206     -2.134088      0.243382
  C       4.924686     -1.275212      0.470155
  C       2.502607     -2.618857      1.904643
  C       3.409088     -3.657362     -0.880355
  H       4.767644     -0.364544      1.083590
  H       5.374319     -0.983060     -0.501079
  H       5.646358     -1.933393      0.997173
  H       1.495632     -3.067167      1.781724
  H       2.411888     -1.713987      2.537960
  H       3.149728     -3.356663      2.423790
  H       2.426360     -4.155338     -1.012616
  H       4.102993     -4.398952     -0.430859
  H       3.798724     -3.396730     -1.885616
  H       2.330164     -1.148707     -0.462811
51
Coordinates from ORCA-job my_molecule E -1977.844844550897
  Pt     -1.336716     -0.093571      0.653044
  O       0.120240      0.226751      1.872523
  O      -3.247374      0.290093     -0.104428
  P       1.398124      1.247731      1.648414
  P      -3.226944     -0.950011     -1.079808
  O      -4.370098     -2.050771     -0.712096
  O      -1.763084     -1.497560     -0.794316
  O       1.466161      1.572174      0.033095
  O       2.681284      0.704642      2.225529
  C       0.803368      2.841418      2.387771
  C      -3.565707     -0.613869     -2.849861
  C      -3.375607     -1.941827     -3.614126
  C      -2.541641      0.440644     -3.317802
  C      -5.006818     -0.081669     -2.986035
  C      -0.491813      3.326825      1.717360
  C       0.580166      2.549238      3.886905
  C       1.932918      3.875027      2.203899
  H      -4.298520     -2.317305      0.229156
  H       1.919778      0.815981     -0.403937
  H      -2.352167     -2.344863     -3.476139
  H      -3.527550     -1.759627     -4.698072
  H      -4.101791     -2.710660     -3.286199
  H      -1.500882      0.081517     -3.196375
  H      -2.647193      1.390206     -2.757435
  H      -2.711958      0.651928     -4.393712
  H      -5.754099     -0.825793     -2.648614
  H      -5.204596      0.148153     -4.053645
  H      -5.153538      0.851614     -2.405877
  H      -1.314558      2.587294      1.817200
  H      -0.343117      3.526973      0.638365
  H      -0.831421      4.264847      2.203287
  H      -0.229502      1.808557      4.040715
  H       0.299780      3.487263      4.409912
  H       1.502365      2.148949      4.352968
  H       2.109019      4.096725      1.132499
  H       2.881594      3.510023      2.644302
  H       1.651061      4.821035      2.712807
  Si      3.251390     -2.125287      0.224948
  C       4.915867     -1.260015      0.457197
  C       2.500502     -2.626066      1.882647
  C       3.411377     -3.638467     -0.911440
  H       4.754825     -0.354070      1.076397
  H       5.364194     -0.959490     -0.512103
  H       5.640629     -1.918140      0.980025
  H       1.495119     -3.077071      1.756572
  H       2.406676     -1.726147      2.522833
  H       3.150737     -3.365429      2.395639
  H       2.430915     -4.139562     -1.048609
  H       4.108235     -4.380745     -0.467778
  H       3.800592     -3.367735     -1.914254
  H       2.319779     -1.139856     -0.473346
51
Coordinates from ORCA-job my_molecule E -1977.845349171113
  Pt     -1.335943     -0.140960      0.649765
  O       0.111123      0.220121      1.875183
  O      -3.269861      0.220078     -0.056964
  P       1.389466      1.241716      1.642680
  P      -3.248624     -0.992952     -1.067415
  O      -4.401537     -2.095172     -0.738513
  O      -1.790158     -1.554240     -0.784607
  O       1.459599      1.552307      0.024765
  O       2.672027      0.701932      2.224406
  C       0.797955      2.843831      2.366162
  C      -3.568544     -0.605853     -2.830400
  C      -3.383825     -1.915673     -3.626830
  C      -2.529114      0.449806     -3.260443
  C      -5.002601     -0.055500     -2.966692
  C      -0.489548      3.335313      1.684405
  C       0.563817      2.565891      3.866365
  C       1.936428      3.867542      2.181071
  H      -4.339587     -2.387294      0.195510
  H       1.921488      0.797437     -0.406643
  H      -2.366162     -2.332745     -3.488218
  H      -3.521908     -1.704044     -4.707218
  H      -4.121464     -2.685004     -3.326755
  H      -1.493355      0.076227     -3.139908
  H      -2.629346      1.384709     -2.675003
  H      -2.687557      0.692325     -4.331525
  H      -5.760815     -0.801523     -2.659259
  H      -5.186225      0.207484     -4.029116
  H      -5.146597      0.861855     -2.361033
  H      -1.320001      2.607739      1.790562
  H      -0.333188      3.519650      0.603405
  H      -0.817230      4.285780      2.156483
  H      -0.254561      1.835213      4.021566
  H       0.290378      3.511088      4.380057
  H       1.479138      2.159929      4.341020
  H       2.121065      4.078377      1.108941
  H       2.879848      3.500626      2.631033
  H       1.657142      4.819960      2.679208
  Si      3.263142     -2.125584      0.228708
  C       4.922229     -1.253270      0.473038
  C       2.504424     -2.632929      1.880813
  C       3.437135     -3.635032     -0.910486
  H       4.753509     -0.348357      1.091631
  H       5.376005     -0.950341     -0.492955
  H       5.646058     -1.908806      1.000407
  H       1.501421     -3.087327      1.747975
  H       2.403736     -1.734449      2.521971
  H       3.154299     -3.370968      2.396127
  H       2.459321     -4.138465     -1.057509
  H       4.132464     -4.376575     -0.463289
  H       3.833960     -3.360010     -1.909163
  H       2.330573     -1.143863     -0.473314
51
Coordinates from ORCA-job my_molecule E -1977.845310891416
  Pt     -1.366129     -0.136641      0.680663
  O       0.109124      0.203284      1.881822
  O      -3.323144      0.192112     -0.028429
  P       1.384433      1.224722      1.640643
  P      -3.264845     -1.003870     -1.056182
  O      -4.401797     -2.132954     -0.763748
  O      -1.799676     -1.545795     -0.763724
  O       1.455643      1.521450      0.019997
  O       2.667718      0.694878      2.229663
  C       0.794250      2.837185      2.344317
  C      -3.570251     -0.590187     -2.815939
  C      -3.365436     -1.881478     -3.637051
  C      -2.538068      0.484471     -3.215175
  C      -5.008729     -0.051622     -2.954547
  C      -0.490882      3.323103      1.655034
  C       0.558728      2.581666      3.848201
  C       1.936028      3.855057      2.146028
  H      -4.347095     -2.442025      0.165273
  H       1.915162      0.762602     -0.406904
  H      -2.345067     -2.291782     -3.497955
  H      -3.495659     -1.648780     -4.714134
  H      -4.098421     -2.663795     -3.360060
  H      -1.499688      0.118672     -3.093423
  H      -2.652643      1.405824     -2.611141
  H      -2.689977      0.747857     -4.282224
  H      -5.761881     -0.811688     -2.669785
  H      -5.185402      0.231483     -4.012989
  H      -5.167715      0.851283     -2.331209
  H      -1.323795      2.598305      1.767957
  H      -0.333194      3.495324      0.572310
  H      -0.819582      4.278499      2.116005
  H      -0.262922      1.857009      4.013970
  H       0.289504      3.535276      4.348521
  H       1.472327      2.178667      4.328652
  H       2.122767      4.050215      1.071320
  H       2.877628      3.490413      2.601670
  H       1.660369      4.815317      2.630920
  Si      3.273048     -2.132345      0.236857
  C       4.926920     -1.251499      0.486045
  C       2.511427     -2.643304      1.886426
  C       3.458262     -3.639889     -0.903123
  H       4.751845     -0.346759      1.103160
  H       5.382628     -0.947286     -0.478641
  H       5.652053     -1.903023      1.016586
  H       1.510515     -3.101338      1.750398
  H       2.405498     -1.745178      2.527315
  H       3.162616     -3.378989      2.403389
  H       2.483441     -4.147882     -1.054323
  H       4.155569     -4.378498     -0.454216
  H       3.857437     -3.361889     -1.900066
  H       2.337061     -1.156179     -0.468156
51
Coordinates from ORCA-job my_molecule E -1977.845623310954
  Pt     -1.409063     -0.186878      0.735444
  O       0.088457      0.169789      1.895496
  O      -3.358173      0.096550      0.057554
  P       1.353178      1.195458      1.623218
  P      -3.267172     -1.049941     -1.021976
  O      -4.395773     -2.204750     -0.808497
  O      -1.801544     -1.586866     -0.720786
  O       1.412283      1.456704     -0.004104
  O       2.643274      0.687988      2.217533
  C       0.765074      2.826135      2.288130
  C      -3.541090     -0.553703     -2.765896
  C      -3.324613     -1.801388     -3.648731
  C      -2.501845      0.538312     -3.093431
  C      -4.976766     -0.006258     -2.899929
  C      -0.516976      3.300402      1.586026
  C       0.528267      2.612148      3.798142
  C       1.912147      3.833421      2.064398
  H      -4.357336     -2.557999      0.105459
  H       1.873378      0.693132     -0.420197
  H      -2.307367     -2.220962     -3.514430
  H      -3.436241     -1.512841     -4.714366
  H      -4.063562     -2.595062     -3.425172
  H      -1.465869      0.164518     -2.975809
  H      -2.624041      1.426733     -2.443287
  H      -2.637867      0.857953     -4.147141
  H      -5.735031     -0.779319     -2.668464
  H      -5.135880      0.333027     -3.944557
  H      -5.145145      0.862187     -2.231797
  H      -1.354837      2.583905      1.718261
  H      -0.358528      3.442808      0.499151
  H      -0.840959      4.269544      2.020940
  H      -0.299430      1.899194      3.983564
  H       0.267150      3.580792      4.273341
  H       1.438863      2.214848      4.288953
  H       2.101609      3.998847      0.985209
  H       2.851266      3.475786      2.530564
  H       1.641205      4.807662      2.523364
  Si      3.277061     -2.148444      0.243565
  C       4.917955     -1.242510      0.488495
  C       2.522050     -2.660789      1.895366
  C       3.483468     -3.656888     -0.891516
  H       4.730367     -0.335678      1.099398
  H       5.370834     -0.938966     -0.477741
  H       5.651109     -1.880606      1.024309
  H       1.526457     -3.130930      1.761774
  H       2.406165     -1.760303      2.531536
  H       3.181848     -3.386310      2.415671
  H       2.515457     -4.177447     -1.043732
  H       4.189044     -4.385443     -0.439197
  H       3.881402     -3.376390     -1.888276
  H       2.325741     -1.191171     -0.465830
51
Coordinates from ORCA-job my_molecule E -1977.845865651638
  Pt     -1.435994     -0.216429      0.770377
  O       0.078252      0.152548      1.906806
  O      -3.406963      0.028408      0.107564
  P       1.338283      1.178237      1.614863
  P      -3.283303     -1.082963     -1.004700
  O      -4.401464     -2.256576     -0.848505
  O      -1.816418     -1.612773     -0.694584
  O       1.391573      1.413981     -0.016566
  O       2.630815      0.682351      2.214105
  C       0.754072      2.821582      2.252214
  C      -3.534270     -0.531915     -2.735842
  C      -3.300054     -1.746677     -3.658731
  C      -2.496094      0.575641     -3.010891
  C      -4.970655      0.013896     -2.870175
  C      -0.521851      3.291132      1.536355
  C       0.509089      2.634743      3.764396
  C       1.908210      3.818635      2.017133
  H      -4.375934     -2.638448      0.054317
  H       1.854536      0.646904     -0.424267
  H      -2.283060     -2.167087     -3.524997
  H      -3.397490     -1.420619     -4.714885
  H      -4.038897     -2.550513     -3.474566
  H      -1.459944      0.202508     -2.893079
  H      -2.630839      1.439665     -2.330993
  H      -2.620196      0.932303     -4.054139
  H      -5.728399     -0.770071     -2.676563
  H      -5.117554      0.389459     -3.904112
  H      -5.151630      0.857137     -2.173724
  H      -1.364852      2.582257      1.677502
  H      -0.357701      3.413157      0.447857
  H      -0.841637      4.270028      1.952344
  H      -0.325441      1.932050      3.958265
  H       0.253932      3.613305      4.222244
  H       1.414277      2.238567      4.266023
  H       2.104176      3.964248      0.936242
  H       2.842887      3.463445      2.493887
  H       1.640786      4.802235      2.457858
  Si      3.286810     -2.159115      0.250592
  C       4.918073     -1.237000      0.499036
  C       2.530856     -2.674655      1.900691
  C       3.510634     -3.665810     -0.883430
  H       4.720529     -0.329816      1.106454
  H       5.372205     -0.932663     -0.466369
  H       5.654619     -1.867086      1.039689
  H       1.538887     -3.151759      1.764991
  H       2.407188     -1.773655      2.534843
  H       3.194133     -3.394765      2.424036
  H       2.547530     -4.193810     -1.040971
  H       4.219610     -4.388990     -0.427849
  H       3.911486     -3.381658     -1.877998
  H       2.327193     -1.213569     -0.462750
51
Coordinates from ORCA-job my_molecule E -1977.846076373193
  Pt     -1.458065     -0.232982      0.789777
  O       0.061888      0.144600      1.915405
  O      -3.433715     -0.009430      0.139016
  P       1.323915      1.165129      1.614569
  P      -3.294993     -1.104881     -0.987119
  O      -4.410699     -2.283856     -0.860058
  O      -1.829584     -1.634930     -0.668906
  O       1.380221      1.382025     -0.019342
  O       2.613314      0.671124      2.222195
  C       0.749067      2.820508      2.229391
  C      -3.530439     -0.526449     -2.711862
  C      -3.294981     -1.725225     -3.654752
  C      -2.486325      0.581828     -2.960691
  C      -4.963711      0.027764     -2.846062
  C      -0.510782      3.298150      1.490847
  C       0.480698      2.652970      3.739791
  C       1.918912      3.800844      2.000378
  H      -4.395406     -2.677907      0.037678
  H       1.845160      0.612143     -0.420446
  H      -2.280899     -2.152776     -3.521526
  H      -3.382985     -1.379441     -4.705493
  H      -4.038838     -2.528926     -3.491178
  H      -1.452319      0.202846     -2.843049
  H      -2.621932      1.434053     -2.266187
  H      -2.602656      0.957605     -3.998107
  H      -5.726026     -0.756643     -2.673105
  H      -5.101829      0.423952     -3.873473
  H      -5.145893      0.857878     -2.134368
  H      -1.364083      2.600648      1.626456
  H      -0.329376      3.407493      0.403744
  H      -0.824561      4.285068      1.892595
  H      -0.366968      1.965042      3.929495
  H       0.233879      3.639907      4.184086
  H       1.372917      2.249079      4.258270
  H       2.132086      3.932170      0.920910
  H       2.842218      3.439117      2.493981
  H       1.657578      4.792441      2.426570
  Si      3.293972     -2.158093      0.248350
  C       4.916162     -1.226538      0.519273
  C       2.525574     -2.691404      1.886810
  C       3.538566     -3.651912     -0.898217
  H       4.707140     -0.324478      1.130295
  H       5.378478     -0.913445     -0.439429
  H       5.650903     -1.855688      1.063505
  H       1.536650     -3.170944      1.738207
  H       2.392957     -1.796000      2.526956
  H       3.186902     -3.413292      2.410121
  H       2.579981     -4.182535     -1.073403
  H       4.245408     -4.376678     -0.441895
  H       3.950175     -3.354991     -1.884649
  H       2.332341     -1.214940     -0.465351
51
Coordinates from ORCA-job my_molecule E -1977.846230910128
  Pt     -1.482114     -0.235573      0.808157
  O       0.047580      0.137547      1.923828
  O      -3.463174     -0.038191      0.159902
  P       1.314540      1.149793      1.617804
  P      -3.305801     -1.118254     -0.977989
  O      -4.407589     -2.311954     -0.872261
  O      -1.835722     -1.636209     -0.658399
  O       1.379083      1.347406     -0.018150
  O       2.597875      0.655902      2.238469
  C       0.749631      2.817792      2.207946
  C      -3.539683     -0.517923     -2.695790
  C      -3.296528     -1.699831     -3.657410
  C      -2.501697      0.600219     -2.925896
  C      -4.975914      0.030606     -2.823247
  C      -0.494322      3.301416      1.446721
  C       0.459118      2.672189      3.716438
  C       1.934402      3.781217      1.982969
  H      -4.394098     -2.716667      0.020694
  H       1.845255      0.573452     -0.410664
  H      -2.279953     -2.123453     -3.530671
  H      -3.385939     -1.337788     -4.702578
  H      -4.035595     -2.510593     -3.507551
  H      -1.465558      0.225589     -2.813332
  H      -2.642618      1.440412     -2.217897
  H      -2.619485      0.991918     -3.957233
  H      -5.734241     -0.760972     -2.665895
  H      -5.114243      0.444196     -3.843720
  H      -5.163836      0.846791     -2.097099
  H      -1.356415      2.613246      1.575138
  H      -0.295582      3.399624      0.361636
  H      -0.804688      4.294708      1.835436
  H      -0.400847      1.998927      3.903282
  H       0.220606      3.667784      4.145765
  H       1.338577      2.262360      4.251858
  H       2.163784      3.896316      0.904962
  H       2.846383      3.414141      2.493247
  H       1.679540      4.781206      2.393137
  Si      3.308493     -2.159947      0.253136
  C       4.920294     -1.219689      0.553288
  C       2.521420     -2.711948      1.876230
  C       3.577739     -3.639333     -0.906391
  H       4.697666     -0.323412      1.168100
  H       5.394162     -0.896844     -0.396498
  H       5.651051     -1.848782      1.102970
  H       1.536033     -3.193120      1.710508
  H       2.377875     -1.822618      2.522652
  H       3.178368     -3.436439      2.401385
  H       2.624773     -4.172845     -1.102123
  H       4.281867     -4.365684     -0.448455
  H       4.002109     -3.328279     -1.883036
  H       2.347418     -1.218413     -0.463379
51
Coordinates from ORCA-job my_molecule E -1977.846393279473
  Pt     -1.525774     -0.223748      0.840711
  O       0.020750      0.130514      1.939019
  O      -3.512387     -0.058360      0.182121
  P       1.296902      1.127146      1.625323
  P      -3.318346     -1.123430     -0.962930
  O      -4.391861     -2.344134     -0.882258
  O      -1.839106     -1.614273     -0.636238
  O       1.371394      1.297759     -0.012994
  O       2.570477      0.629684      2.264093
  C       0.752382      2.814200      2.181215
  C      -3.551573     -0.506281     -2.675228
  C      -3.287149     -1.668814     -3.654073
  C      -2.530964      0.631743     -2.884854
  C      -4.996111      0.021643     -2.799272
  C      -0.468995      3.308428      1.390966
  C       0.433958      2.701002      3.686632
  C       1.959368      3.751034      1.960219
  H      -4.379793     -2.758267      0.006334
  H       1.836812      0.516994     -0.392836
  H      -2.263834     -2.077416     -3.532244
  H      -3.380801     -1.292477     -4.693851
  H      -4.012758     -2.494059     -3.518244
  H      -1.489195      0.272480     -2.774204
  H      -2.687432      1.458938     -2.164846
  H      -2.651852      1.036920     -3.910594
  H      -5.742381     -0.784611     -2.659504
  H      -5.136830      0.451058     -3.812844
  H      -5.199701      0.821526     -2.059352
  H      -1.345404      2.636540      1.512462
  H      -0.249043      3.387826      0.308552
  H      -0.770176      4.311864      1.760422
  H      -0.445097      2.052046      3.870670
  H       0.212591      3.709060      4.095686
  H       1.294400      2.279834      4.243790
  H       2.210176      3.841199      0.884614
  H       2.854667      3.375591      2.493263
  H       1.716792      4.763364      2.346866
  Si      3.326695     -2.166094      0.256372
  C       4.920459     -1.211190      0.601356
  C       2.512601     -2.747022      1.855223
  C       3.634789     -3.621719     -0.923085
  H       4.676296     -0.324687      1.222896
  H       5.410919     -0.871996     -0.334197
  H       5.645856     -1.840226      1.158231
  H       1.533230     -3.230770      1.663539
  H       2.352215     -1.867189      2.511209
  H       3.163166     -3.475383      2.382874
  H       2.691683     -4.160550     -1.149441
  H       4.336482     -4.349713     -0.464096
  H       4.076599     -3.287708     -1.884314
  H       2.364907     -1.228277     -0.463157
51
Coordinates from ORCA-job my_molecule E -1977.846519908082
  Pt     -1.555764     -0.220081      0.863873
  O       0.000824      0.125720      1.952134
  O      -3.542869     -0.080998      0.198273
  P       1.283435      1.110871      1.630708
  P      -3.328877     -1.130278     -0.956867
  O      -4.384264     -2.367577     -0.896872
  O      -1.844320     -1.605060     -0.627368
  O       1.363101      1.259822     -0.009244
  O       2.550522      0.611240      2.281266
  C       0.753799      2.810836      2.161682
  C      -3.561764     -0.494855     -2.662680
  C      -3.283712     -1.641097     -3.656553
  C      -2.552290      0.656167     -2.854433
  C      -5.011384      0.020284     -2.783011
  C      -0.457163      3.307721      1.357149
  C       0.425207      2.723007      3.666486
  C       1.972711      3.730882      1.934616
  H      -4.372941     -2.791300     -0.012854
  H       1.829507      0.474347     -0.378941
  H      -2.256065     -2.040031     -3.539215
  H      -3.380552     -1.252164     -4.691400
  H      -4.000281     -2.475997     -3.532381
  H      -1.507140      0.306500     -2.744814
  H      -2.719365      1.472675     -2.124629
  H      -2.674112      1.072982     -3.875386
  H      -5.749762     -0.795546     -2.657522
  H      -5.153710      0.463282     -3.790492
  H      -5.224970      0.806846     -2.031744
  H      -1.341111      2.645892      1.480393
  H      -0.228938      3.371545      0.275456
  H      -0.750841      4.318497      1.712498
  H      -0.463840      2.088991      3.854629
  H       0.215306      3.739579      4.060282
  H       1.276521      2.298308      4.234944
  H       2.231697      3.801185      0.859454
  H       2.860097      3.353606      2.479348
  H       1.738836      4.751873      2.303408
  Si      3.341932     -2.172128      0.261962
  C       4.921063     -1.204575      0.636350
  C       2.510442     -2.771570      1.844561
  C       3.679200     -3.612371     -0.928087
  H       4.660602     -0.324925      1.261160
  H       5.422002     -0.854283     -0.289510
  H       5.643765     -1.831888      1.198725
  H       1.536125     -3.258447      1.635845
  H       2.337207     -1.897746      2.505437
  H       3.157435     -3.500928      2.375172
  H       2.744211     -4.156516     -1.174423
  H       4.380621     -4.339559     -0.467447
  H       4.131855     -3.263253     -1.878849
  H       2.378009     -1.239486     -0.461088
51
Coordinates from ORCA-job my_molecule E -1977.846635894786
  Pt     -1.588057     -0.213154      0.887942
  O      -0.025148      0.125895      1.968933
  O      -3.577446     -0.091506      0.210778
  P       1.265139      1.097207      1.638599
  P      -3.337826     -1.131866     -0.946792
  O      -4.375927     -2.384212     -0.905411
  O      -1.849667     -1.590796     -0.607304
  O       1.346144      1.226508     -0.002665
  O       2.526112      0.591641      2.297256
  C       0.755831      2.809934      2.148464
  C      -3.563823     -0.488516     -2.650679
  C      -3.268387     -1.624788     -3.650785
  C      -2.564634      0.673681     -2.827852
  C      -5.017838      0.013148     -2.776875
  C      -0.447732      3.311816      1.335928
  C       0.424374      2.746277      3.653722
  C       1.986563      3.711661      1.910974
  H      -4.368976     -2.813055     -0.023845
  H       1.812135      0.436525     -0.363622
  H      -2.237091     -2.013428     -3.530902
  H      -3.364184     -1.230019     -4.683526
  H      -3.976522     -2.468116     -3.535740
  H      -1.516775      0.334051     -2.712578
  H      -2.745044      1.484140     -2.094456
  H      -2.683179      1.095510     -3.847138
  H      -5.748707     -0.811350     -2.664560
  H      -5.157371      0.464113     -3.781210
  H      -5.244813      0.790301     -2.019790
  H      -1.340160      2.662507      1.466191
  H      -0.217255      3.358560      0.253873
  H      -0.729036      4.330633      1.677947
  H      -0.474780      2.128896      3.849209
  H       0.229957      3.770875      4.034542
  H       1.268327      2.315853      4.228838
  H       2.248924      3.762370      0.835522
  H       2.867881      3.331468      2.463411
  H       1.764428      4.740995      2.263475
  Si      3.348473     -2.176680      0.260551
  C       4.912846     -1.197093      0.663142
  C       2.502672     -2.796282      1.827290
  C       3.712994     -3.599803     -0.941696
  H       4.636828     -0.325562      1.292998
  H       5.422449     -0.834093     -0.253044
  H       5.633813     -1.823581      1.228726
  H       1.533146     -3.285694      1.602813
  H       2.317888     -1.929223      2.494127
  H       3.146775     -3.527345      2.359032
  H       2.785963     -4.148383     -1.207444
  H       4.414524     -4.326984     -0.481260
  H       4.175062     -3.234482     -1.881782
  H       2.381130     -1.248557     -0.463323
51
Coordinates from ORCA-job my_molecule E -1977.846767550470
  Pt     -1.620872     -0.211290      0.914232
  O      -0.052293      0.125863      1.988973
  O      -3.607065     -0.110516      0.225129
  P       1.245390      1.082642      1.646525
  P      -3.350038     -1.138083     -0.939447
  O      -4.376938     -2.399946     -0.919768
  O      -1.861032     -1.588566     -0.590248
  O       1.325370      1.189706      0.003893
  O       2.501337      0.572458      2.311702
  C       0.756346      2.807642      2.133989
  C      -3.565553     -0.479881     -2.639135
  C      -3.254440     -1.603654     -3.648506
  C      -2.573312      0.691032     -2.796543
  C      -5.022151      0.012812     -2.771820
  C      -0.444802      3.310620      1.318344
  C       0.429982      2.770307      3.641119
  C       1.995935      3.692184      1.878252
  H      -4.376082     -2.836506     -0.042007
  H       1.792684      0.395594     -0.347590
  H      -2.220934     -1.985380     -3.525472
  H      -3.346392     -1.199419     -4.677924
  H      -3.956674     -2.453536     -3.546499
  H      -1.524032      0.358236     -2.674348
  H      -2.766352      1.493773     -2.057871
  H      -2.685417      1.121045     -3.813148
  H      -5.747821     -0.818321     -2.675715
  H      -5.156453      0.474727     -3.771878
  H      -5.261199      0.779104     -2.007443
  H      -1.343768      2.673354      1.462081
  H      -0.217998      3.337568      0.234835
  H      -0.712736      4.337885      1.645514
  H      -0.476206      2.167508      3.849512
  H       0.249848      3.802745      4.007583
  H       1.270698      2.338115      4.219662
  H       2.255717      3.721644      0.801378
  H       2.874714      3.311922      2.434628
  H       1.785691      4.729736      2.213507
  Si      3.356759     -2.181300      0.261275
  C       4.905146     -1.187376      0.688373
  C       2.499571     -2.819701      1.813972
  C       3.749046     -3.588840     -0.950227
  H       4.612890     -0.324028      1.322111
  H       5.421291     -0.811972     -0.219105
  H       5.626099     -1.811189      1.257001
  H       1.535472     -3.313327      1.575762
  H       2.302549     -1.958810      2.485313
  H       3.142415     -3.550581      2.347444
  H       2.830720     -4.143549     -1.232879
  H       4.452489     -4.313961     -0.489511
  H       4.218307     -3.208545     -1.880767
  H       2.384096     -1.259946     -0.464260
51
Coordinates from ORCA-job my_molecule E -1977.846889332045
  Pt     -1.653175     -0.207156      0.938238
  O      -0.083827      0.131482      2.011038
  O      -3.639506     -0.119028      0.236375
  P       1.222479      1.071494      1.656404
  P      -3.360330     -1.141082     -0.927694
  O      -4.378626     -2.409884     -0.927039
  O      -1.872677     -1.584950     -0.562086
  O       1.298787      1.159347      0.012731
  O       2.473710      0.553173      2.324555
  C       0.757883      2.808086      2.125861
  C      -3.558282     -0.477625     -2.627574
  C      -3.225955     -1.594484     -3.637849
  C      -2.573161      0.701448     -2.767332
  C      -5.016898      0.004536     -2.776877
  C      -0.442959      3.315498      1.312317
  C       0.442266      2.794538      3.635551
  C       2.006322      3.673867      1.849532
  H      -4.387669     -2.849840     -0.051033
  H       1.766115      0.361411     -0.331240
  H      -2.190864     -1.968206     -3.504077
  H      -3.309031     -1.186645     -4.666602
  H      -3.922360     -2.450460     -3.547619
  H      -1.523054      0.376758     -2.631125
  H      -2.782932      1.500510     -2.029233
  H      -2.674264      1.133702     -3.784154
  H      -5.737165     -0.832896     -2.695751
  H      -5.141401      0.471632     -3.775795
  H      -5.272234      0.764095     -2.011063
  H      -1.349182      2.692655      1.472763
  H      -0.224507      3.322951      0.226777
  H      -0.693664      4.351185      1.626102
  H      -0.470631      2.207266      3.858784
  H       0.278995      3.833967      3.990084
  H       1.281286      2.358447      4.213618
  H       2.259182      3.684502      0.770668
  H       2.884132      3.290895      2.405575
  H       1.810982      4.718693      2.170956
  Si      3.354504     -2.182745      0.254818
  C       4.889050     -1.177649      0.703921
  C       2.489146     -2.840836      1.794535
  C       3.769427     -3.573782     -0.967854
  H       4.582995     -0.323351      1.343438
  H       5.409649     -0.789034     -0.195403
  H       5.610628     -1.800539      1.272824
  H       1.529542     -3.337281      1.544337
  H       2.282291     -1.986827      2.471717
  H       3.131226     -3.572809      2.327386
  H       2.858488     -4.132777     -1.265534
  H       4.474864     -4.298250     -0.509225
  H       4.243843     -3.178446     -1.889477
  H       2.376562     -1.265554     -0.469268
51
Coordinates from ORCA-job my_molecule E -1977.847009173001
  Pt     -1.686855     -0.204336      0.965818
  O      -0.114684      0.136678      2.035243
  O      -3.668052     -0.130931      0.248876
  P       1.199583      1.059437      1.665782
  P      -3.372990     -1.145709     -0.917159
  O      -4.387315     -2.417442     -0.936593
  O      -1.888775     -1.588461     -0.535097
  O       1.270152      1.126554      0.021107
  O       2.447463      0.534870      2.335369
  C       0.758122      2.806825      2.116349
  C      -3.550570     -0.473205     -2.615842
  C      -3.195203     -1.581125     -3.628119
  C      -2.572524      0.714107     -2.733990
  C      -5.010476     -0.001019     -2.783704
  C      -0.444458      3.316571      1.306600
  C       0.456095      2.817290      3.628695
  C       2.013502      3.654723      1.816935
  H      -4.407107     -2.862162     -0.063195
  H       1.738596      0.325081     -0.315049
  H      -2.159127     -1.947393     -3.482005
  H      -3.267132     -1.167591     -4.655430
  H      -3.885958     -2.443112     -3.552844
  H      -1.522178      0.397303     -2.581812
  H      -2.800795      1.508149     -1.995986
  H      -2.660326      1.150267     -3.750394
  H      -5.725383     -0.844517     -2.719879
  H      -5.123368      0.472733     -3.780862
  H      -5.283247      0.750724     -2.016199
  H      -1.356658      2.708168      1.486413
  H      -0.236902      3.303332      0.218942
  H      -0.678120      4.360533      1.605690
  H      -0.461219      2.243446      3.868460
  H       0.307367      3.863184      3.970476
  H       1.295541      2.380000      4.205213
  H       2.256952      3.646835      0.735896
  H       2.891890      3.270086      2.370928
  H       1.832639      4.706238      2.124744
  Si      3.353449     -2.184510      0.249670
  C       4.874227     -1.166743      0.715584
  C       2.483391     -2.860139      1.779113
  C       3.789418     -3.561282     -0.981525
  H       4.554803     -0.321049      1.359802
  H       5.396644     -0.765874     -0.177260
  H       5.598289     -1.786994      1.284259
  H       1.528555     -3.360949      1.519533
  H       2.266726     -2.012152      2.460763
  H       3.126508     -3.591389      2.311656
  H       2.885885     -4.126085     -1.290555
  H       4.498747     -4.283135     -0.524842
  H       4.266112     -3.152804     -1.896228
  H       2.368767     -1.273023     -0.473345
51
Coordinates from ORCA-job my_molecule E -1977.847120451339
  Pt     -1.715371     -0.199873      0.986185
  O      -0.145824      0.146814      2.057200
  O      -3.695868     -0.137166      0.259254
  P       1.177758      1.050872      1.675434
  P      -3.383852     -1.149106     -0.904776
  O      -4.395285     -2.422683     -0.940316
  O      -1.903529     -1.591039     -0.505677
  O       1.243391      1.100315      0.030116
  O       2.421404      0.517078      2.345445
  C       0.761162      2.808020      2.110780
  C      -3.540587     -0.473658     -2.604392
  C      -3.156768     -1.575169     -3.613294
  C      -2.573374      0.724257     -2.703404
  C      -5.002378     -0.016338     -2.795665
  C      -0.440608      3.324497      1.303885
  C       0.469821      2.838277      3.624825
  C       2.024977      3.636818      1.793763
  H      -4.425809     -2.869612     -0.068370
  H       1.712309      0.295544     -0.299594
  H      -2.119378     -1.930615     -3.450850
  H      -3.216248     -1.159752     -4.640638
  H      -3.839409     -2.444705     -3.551557
  H      -1.522573      0.419159     -2.531516
  H      -2.824393      1.515148     -1.969468
  H      -2.646897      1.160198     -3.721040
  H      -5.709295     -0.867530     -2.746923
  H      -5.103163      0.459784     -3.792988
  H      -5.296210      0.729835     -2.030489
  H      -1.359846      2.732062      1.499521
  H      -0.242130      3.293558      0.214848
  H      -0.655843      4.375865      1.590475
  H      -0.452244      2.277546      3.877176
  H       0.335133      3.889438      3.956243
  H       1.308313      2.397871      4.200327
  H       2.260595      3.614410      0.711200
  H       2.902390      3.246993      2.345700
  H       1.859825      4.693771      2.091693
  Si      3.346404     -2.183517      0.240698
  C       4.856318     -1.157698      0.722963
  C       2.471525     -2.876478      1.759708
  C       3.798665     -3.546103     -1.000129
  H       4.525972     -0.320825      1.372995
  H       5.380247     -0.744692     -0.163405
  H       5.582090     -1.777496      1.289963
  H       1.520487     -3.379630      1.490867
  H       2.246959     -2.035000      2.446756
  H       3.114802     -3.608686      2.290697
  H       2.900920     -4.114218     -1.319751
  H       4.510590     -4.267240     -0.546423
  H       4.277501     -3.125326     -1.908126
  H       2.357321     -1.273973     -0.479930
51
Coordinates from ORCA-job my_molecule E -1977.847254115443
  Pt     -1.763867     -0.194884      1.029847
  O      -0.188919      0.158490      2.094052
  O      -3.735831     -0.147714      0.278752
  P       1.144971      1.035695      1.687328
  P      -3.400427     -1.152311     -0.884493
  O      -4.409282     -2.426783     -0.948661
  O      -1.928073     -1.596715     -0.457771
  O       1.197043      1.055681      0.041183
  O       2.386113      0.493104      2.354591
  C       0.761231      2.806115      2.097681
  C      -3.520827     -0.467543     -2.583428
  C      -3.084565     -1.554102     -3.587165
  C      -2.575757      0.750479     -2.645815
  C      -4.985096     -0.038207     -2.816186
  C      -0.441742      3.327930      1.295819
  C       0.487789      2.866515      3.613996
  C       2.034091      3.609291      1.752217
  H      -4.457118     -2.879572     -0.080546
  H       1.667201      0.246182     -0.278240
  H      -2.045722     -1.889891     -3.395129
  H      -3.121145     -1.132622     -4.613102
  H      -3.751212     -2.437539     -3.552268
  H      -1.525018      0.467233     -2.439205
  H      -2.868515      1.532792     -1.918305
  H      -2.624136      1.188794     -3.663949
  H      -5.675847     -0.903615     -2.795035
  H      -5.064827      0.443470     -3.812746
  H      -5.317286      0.696337     -2.055405
  H      -1.368877      2.757581      1.516931
  H      -0.258891      3.269945      0.205091
  H      -0.632807      4.389226      1.562151
  H      -0.437897      2.321311      3.886395
  H       0.369137      3.924868      3.928334
  H       1.327602      2.426247      4.187624
  H       2.256347      3.565337      0.667495
  H       2.911789      3.214622      2.300299
  H       1.889752      4.673541      2.034643
  Si      3.335691     -2.186104      0.227661
  C       4.830293     -1.144408      0.722040
  C       2.461636     -2.898732      1.738251
  C       3.807452     -3.533242     -1.022429
  H       4.485553     -0.318602      1.378650
  H       5.350777     -0.716317     -0.159118
  H       5.562676     -1.759651      1.285489
  H       1.516198     -3.408456      1.462104
  H       2.226596     -2.064303      2.430364
  H       3.108950     -3.628588      2.267505
  H       2.917602     -4.109236     -1.349887
  H       4.526666     -4.249650     -0.572820
  H       4.283907     -3.098638     -1.925166
  H       2.336622     -1.283363     -0.489622
51
Coordinates from ORCA-job my_molecule E -1977.847377836248
  Pt     -1.809335     -0.189464      1.058332
  O      -0.249772      0.189433      2.130604
  O      -3.785490     -0.176461      0.307221
  P       1.103995      1.024410      1.700898
  P      -3.421106     -1.168515     -0.858567
  O      -4.425707     -2.443656     -0.959746
  O      -1.958008     -1.615426     -0.402758
  O       1.146257      1.010183      0.054631
  O       2.334973      0.459923      2.368294
  C       0.770335      2.810829      2.082977
  C      -3.499462     -0.468443     -2.553710
  C      -2.986543     -1.530458     -3.547406
  C      -2.593304      0.780567     -2.566496
  C      -4.965850     -0.083977     -2.843773
  C      -0.426716      3.349297      1.282768
  C       0.512389      2.905134      3.600209
  C       2.059788      3.575154      1.711799
  H      -4.491084     -2.907371     -0.098611
  H       1.619558      0.195608     -0.251856
  H      -1.947006     -1.835662     -3.313145
  H      -2.992489     -1.099492     -4.570019
  H      -3.625963     -2.434707     -3.550340
  H      -1.544190      0.532394     -2.311391
  H      -2.947163      1.547719     -1.850282
  H      -2.608857      1.222734     -3.583977
  H      -5.628956     -0.970758     -2.857677
  H      -5.019477      0.403926     -3.839060
  H      -5.352869      0.633520     -2.092571
  H      -1.366602      2.811785      1.528172
  H      -0.258282      3.261590      0.191601
  H      -0.581883      4.421918      1.526321
  H      -0.420112      2.381325      3.890334
  H       0.415060      3.971274      3.895186
  H       1.349559      2.460912      4.174611
  H       2.269213      3.508869      0.625615
  H       2.933137      3.166966      2.256977
  H       1.946210      4.647068      1.979078
  Si      3.315880     -2.183865      0.207073
  C       4.793718     -1.132931      0.729791
  C       2.429899     -2.923446      1.698059
  C       3.811628     -3.509378     -1.056389
  H       4.431028     -0.323304      1.396565
  H       5.315770     -0.683699     -0.139724
  H       5.528719     -1.748354      1.289556
  H       1.491096     -3.435613      1.404269
  H       2.181096     -2.100402      2.398666
  H       3.075524     -3.655816      2.225806
  H       2.930467     -4.088764     -1.400870
  H       4.533087     -4.225423     -0.609897
  H       4.292775     -3.057322     -1.948012
  H       2.315063     -1.279831     -0.509138
51
Coordinates from ORCA-job my_molecule E -1977.844045097323
  Pt     -2.175392     -0.114009      1.451013
  O      -0.489038      0.257548      2.405731
  O      -4.022030     -0.165624      0.414004
  P       0.877581      0.927819      1.775918
  P      -3.435468     -1.130768     -0.676871
  O      -4.362633     -2.439291     -0.967623
  O      -2.049138     -1.559534      0.015878
  O       0.774927      0.747257      0.138913
  O       2.114640      0.320365      2.387592
  C       0.703240      2.769065      1.994667
  C      -3.218638     -0.415831     -2.361804
  C      -2.366488     -1.395302     -3.211047
  C      -2.479398      0.933541     -2.180369
  C      -4.623424     -0.195625     -2.987381
  C      -0.545844      3.301777      1.273712
  C       0.622819      3.040315      3.514871
  C       1.986227      3.404731      1.404440
  H      -4.544492     -2.931522     -0.137532
  H       1.287987     -0.055911     -0.157099
  H      -1.373066     -1.582326     -2.739720
  H      -2.189298     -0.950192     -4.216139
  H      -2.881853     -2.369278     -3.360172
  H      -1.490712      0.814982     -1.674204
  H      -3.088975      1.647824     -1.579015
  H      -2.304139      1.375582     -3.187326
  H      -5.167456     -1.150818     -3.143581
  H      -4.498703      0.293773     -3.979550
  H      -5.255987      0.470254     -2.352538
  H      -1.486678      2.882417      1.703360
  H      -0.527190      3.062375      0.187589
  H      -0.598397      4.408654      1.388937
  H      -0.279716      2.573061      3.964720
  H       0.575551      4.136252      3.698598
  H       1.514204      2.638907      4.037577
  H       2.066852      3.217826      0.311889
  H       2.891870      2.992722      1.892491
  H       1.970832      4.504800      1.571693
  Si      3.144563     -2.193927      0.057057
  C       4.563540     -1.060063      0.581414
  C       2.305568     -3.013493      1.531806
  C       3.669744     -3.470364     -1.243716
  H       4.150010     -0.309671      1.299107
  H       5.020494     -0.535367     -0.283554
  H       5.360962     -1.642047      1.090772
  H       1.385518     -3.555536      1.231251
  H       2.027263     -2.228599      2.254939
  H       2.984518     -3.731508      2.037412
  H       2.810107     -4.086965     -1.578872
  H       4.437896     -4.158173     -0.830486
  H       4.105328     -2.975164     -2.136632
  H       2.101910     -1.304940     -0.632125
51
Coordinates from ORCA-job my_molecule E -1977.842264184341
  Pt     -2.005376     -0.179819      1.360711
  O      -0.417966      0.266086      2.374917
  O      -3.917934     -0.239521      0.407048
  P       0.926117      0.994158      1.776800
  P      -3.363632     -1.194553     -0.698126
  O      -4.300765     -2.486247     -0.961692
  O      -1.979348     -1.633144     -0.041452
  O       0.832651      0.851130      0.138920
  O       2.177569      0.403701      2.378076
  C       0.687379      2.816580      2.035488
  C      -3.182396     -0.464588     -2.380943
  C      -2.439344     -1.458804     -3.232972
  C      -2.384712      0.825100     -2.244213
  C      -4.557454     -0.162933     -2.948365
  C      -0.562950      3.345010      1.308701
  C       0.570674      3.033725      3.549629
  C       1.956703      3.497902      1.490973
  H      -4.468834     -2.976522     -0.126876
  H       1.355757      0.060287     -0.170849
  H      -1.463876     -1.695567     -2.802540
  H      -2.291045     -1.015718     -4.239538
  H      -2.992072     -2.392173     -3.340551
  H      -1.413639      0.644779     -1.787603
  H      -2.904547      1.544317     -1.634200
  H      -2.235874      1.276779     -3.249146
  H      -5.142472     -1.072377     -3.066343
  H      -4.455150      0.329704     -3.940017
  H      -5.102980      0.513845     -2.309612
  H      -1.487775      2.889304      1.696820
  H      -0.510779      3.151327      0.226832
  H      -0.651759      4.444427      1.458323
  H      -0.322537      2.535420      3.963622
  H       0.486453      4.118147      3.760787
  H       1.461113      2.635198      4.077641
  H       2.060549      3.347981      0.403078
  H       2.865225      3.095898      1.982626
  H       1.899465      4.587534      1.682788
  Si      3.095996     -2.175390      0.040826
  C       4.584857     -1.119177      0.527045
  C       2.253481     -2.944263      1.546168
  C       3.521943     -3.484015     -1.266036
  H       4.236514     -0.343335      1.245738
  H       5.050383     -0.629983     -0.354890
  H       5.356595     -1.737703      1.026604
  H       1.301195     -3.444820      1.270621
  H       2.031943     -2.142363      2.274294
  H       2.908147     -3.690928      2.040724
  H       2.623417     -4.057718     -1.577554
  H       4.260205     -4.206687     -0.863429
  H       3.961432     -3.018400     -2.175942
  H       2.089453     -1.241593     -0.632911
51
Coordinates from ORCA-job my_molecule E -1977.838514869632
  Pt     -1.930543     -0.131072      1.223453
  O      -0.404727      0.260056      2.296056
  O      -3.868705     -0.328293      0.435836
  P       0.952149      0.981613      1.740740
  P      -3.286113     -1.188514     -0.762914
  O      -4.093153     -2.582533     -1.054106
  O      -1.860454     -1.530839     -0.219986
  O       0.901899      0.822243      0.109288
  O       2.193214      0.397908      2.374352
  C       0.680192      2.791687      1.984080
  C      -3.252932     -0.365802     -2.375149
  C      -2.457178     -1.295115     -3.327649
  C      -2.566887      1.028248     -2.223639
  C      -4.678015     -0.172130     -2.829295
  C      -0.576090      3.278452      1.240998
  C       0.551904      3.011802      3.490647
  C       1.925938      3.496263      1.442513
  H      -4.172073     -3.133032     -0.260273
  H       1.445964      0.027312     -0.167195
  H      -1.443779     -1.461199     -2.982983
  H      -2.397274     -0.803081     -4.299979
  H      -2.927998     -2.304300     -3.447467
  H      -1.559616      0.927231     -1.838692
  H      -3.131264      1.709337     -1.549209
  H      -2.496281      1.523006     -3.193808
  H      -5.184260     -1.157611     -2.955286
  H      -4.658613      0.360287     -3.780768
  H      -5.267534      0.460407     -2.129063
  H      -1.482536      2.798438      1.623829
  H      -0.513772      3.080097      0.163807
  H      -0.698244      4.367447      1.379260
  H      -0.327806      2.501680      3.900007
  H       0.443239      4.088878      3.692590
  H       1.445001      2.635143      4.029229
  H       2.031181      3.338771      0.359792
  H       2.841676      3.124797      1.941015
  H       1.839660      4.580000      1.619504
  Si      3.150469     -2.243661      0.116546
  C       4.646120     -1.200073      0.588329
  C       2.296219     -2.949782      1.632904
  C       3.567320     -3.587922     -1.140456
  H       4.300947     -0.406779      1.280340
  H       5.122268     -0.744789     -0.297577
  H       5.406398     -1.811725      1.111836
  H       1.343132     -3.452254      1.367645
  H       2.072478     -2.123588      2.330053
  H       2.946464     -3.678512      2.158831
  H       2.665475     -4.155719     -1.440408
  H       4.295792     -4.304084     -0.711517
  H       4.012621     -3.158340     -2.054193
  H       2.158126     -1.320357     -0.591866
51
Coordinates from ORCA-job my_molecule E -1977.841490089716
  Pt     -1.945998     -0.078066      1.195308
  O      -0.405147      0.269364      2.283599
  O      -3.865214     -0.277206      0.405217
  P       0.956265      0.995668      1.757913
  P      -3.294364     -1.167561     -0.765204
  O      -4.117452     -2.549552     -1.034431
  O      -1.869202     -1.520591     -0.204890
  O       0.928270      0.868434      0.132111
  O       2.197201      0.415764      2.397138
  C       0.672669      2.802729      2.018848
  C      -3.244415     -0.381051     -2.395564
  C      -2.455613     -1.337703     -3.318192
  C      -2.544083      0.995343     -2.267058
  C      -4.674074     -0.181376     -2.874951
  C      -0.615186      3.260935      1.316712
  C       0.593238      3.030768      3.539847
  C       1.897416      3.531068      1.430481
  H      -4.211015     -3.080040     -0.226658
  H       1.480736      0.087779     -0.154972
  H      -1.441750     -1.515123     -2.946701
  H      -2.368350     -0.861784     -4.305568
  H      -2.946815     -2.329807     -3.428845
  H      -1.531879      0.893710     -1.852328
  H      -3.119984      1.700462     -1.628130
  H      -2.450872      1.454634     -3.256979
  H      -5.190496     -1.157535     -2.990208
  H      -4.640760      0.333972     -3.841071
  H      -5.265416      0.467402     -2.193125
  H      -1.511905      2.763279      1.734215
  H      -0.588472      3.055309      0.229177
  H      -0.742738      4.351230      1.460537
  H      -0.277215      2.508839      3.985697
  H       0.487790      4.113460      3.747413
  H       1.508400      2.667895      4.047947
  H       1.968465      3.367066      0.336905
  H       2.834930      3.179340      1.899707
  H       1.808988      4.619818      1.611487
  Si      3.149841     -2.249708      0.106448
  C       4.665240     -1.223471      0.572352
  C       2.298065     -2.956921      1.628931
  C       3.544653     -3.595433     -1.165184
  H       4.334685     -0.428618      1.273783
  H       5.141311     -0.766766     -0.316912
  H       5.424550     -1.845845      1.085700
  H       1.338822     -3.455995      1.367020
  H       2.082505     -2.129572      2.334393
  H       2.949672     -3.691463      2.145626
  H       2.632296     -4.155941     -1.460700
  H       4.271359     -4.319976     -0.746017
  H       3.989369     -3.165625     -2.083764
  H       2.161678     -1.311541     -0.587056
51
Coordinates from ORCA-job my_molecule E -1977.843504897424
  Pt     -2.017777     -0.041276      1.222215
  O      -0.420370      0.246976      2.274282
  O      -3.924942     -0.211455      0.386556
  P       0.944778      0.961740      1.745940
  P      -3.360127     -1.127596     -0.757472
  O      -4.210755     -2.489657     -1.017043
  O      -1.937970     -1.501919     -0.173522
  O       0.919418      0.825811      0.116524
  O       2.178867      0.379936      2.395306
  C       0.682465      2.777197      2.001994
  C      -3.289502     -0.367986     -2.402822
  C      -2.502009     -1.334811     -3.313460
  C      -2.580094      0.999952     -2.280043
  C      -4.720117     -0.162486     -2.893643
  C      -0.601727      3.252632      1.305523
  C       0.609335      3.003173      3.519654
  C       1.913977      3.492645      1.420624
  H      -4.321090     -3.008587     -0.200300
  H       1.465865      0.041131     -0.166145
  H      -1.490128     -1.518492     -2.931755
  H      -2.401351     -0.865906     -4.305359
  H      -3.004562     -2.318814     -3.424304
  H      -1.571194      0.892234     -1.861329
  H      -3.151461      1.713277     -1.654363
  H      -2.480938      1.448944     -3.275823
  H      -5.243705     -1.132044     -3.007479
  H      -4.679040      0.344827     -3.865962
  H      -5.307414      0.492408     -2.219610
  H      -1.503990      2.765532      1.718300
  H      -0.581484      3.053380      0.222458
  H      -0.720846      4.337679      1.454772
  H      -0.264189      2.491287      3.961537
  H       0.517791      4.083344      3.731761
  H       1.521720      2.627780      4.023223
  H       1.987462      3.333929      0.331620
  H       2.846422      3.127606      1.892141
  H       1.837349      4.578206      1.606411
  Si      3.208369     -2.251082      0.119922
  C       4.687020     -1.178664      0.617074
  C       2.340912     -2.979896      1.623969
  C       3.671337     -3.587978     -1.143388
  H       4.318444     -0.392643      1.312709
  H       5.168792     -0.705854     -0.261505
  H       5.455615     -1.780176      1.143815
  H       1.400371     -3.504351      1.341765
  H       2.088058     -2.157032      2.324610
  H       3.001074     -3.697497      2.153792
  H       2.780816     -4.175928     -1.456538
  H       4.412320     -4.291234     -0.710480
  H       4.123447     -3.145471     -2.052514
  H       2.204761     -1.342792     -0.593640
51
Coordinates from ORCA-job my_molecule E -1977.845010531729
  Pt     -2.036783     -0.034406      1.257319
  O      -0.420925      0.218907      2.288300
  O      -3.974492     -0.197647      0.398497
  P       0.930913      0.943704      1.748505
  P      -3.385611     -1.118762     -0.744164
  O      -4.253219     -2.478179     -1.025117
  O      -1.965542     -1.500447     -0.134248
  O       0.883508      0.801013      0.113902
  O       2.175876      0.377807      2.387084
  C       0.671164      2.761801      1.999493
  C      -3.275717     -0.360828     -2.401667
  C      -2.491636     -1.329728     -3.309722
  C      -2.540615      0.994204     -2.261137
  C      -4.699518     -0.134019     -2.916990
  C      -0.620938      3.230076      1.315780
  C       0.618838      3.001601      3.523794
  C       1.895818      3.478028      1.394790
  H      -4.381948     -2.998672     -0.206528
  H       1.417955      0.012790     -0.172387
  H      -1.487254     -1.530921     -2.910565
  H      -2.367560     -0.858472     -4.304358
  H      -3.014195     -2.302495     -3.434297
  H      -1.536589      0.871604     -1.827075
  H      -3.109450      1.708345     -1.635321
  H      -2.419755      1.448002     -3.261460
  H      -5.242790     -1.096024     -3.050603
  H      -4.634188      0.384512     -3.893444
  H      -5.285282      0.518273     -2.236740
  H      -1.522354      2.745257      1.749205
  H      -0.616036      3.015991      0.226293
  H      -0.733144      4.324542      1.455292
  H      -0.252255      2.491289      3.983517
  H       0.534210      4.087811      3.730678
  H       1.536680      2.629273      4.019241
  H       1.957585      3.307905      0.299705
  H       2.832417      3.118043      1.860396
  H       1.823441      4.569940      1.573653
  Si      3.211542     -2.249749      0.120132
  C       4.677356     -1.154983      0.584285
  C       2.375406     -2.975204      1.637657
  C       3.678482     -3.591755     -1.128537
  H       4.306672     -0.369669      1.272979
  H       5.137376     -0.682898     -0.303285
  H       5.462806     -1.742072      1.105254
  H       1.443038     -3.514150      1.373189
  H       2.117135     -2.151010      2.331000
  H       3.052673     -3.679392      2.164952
  H       2.795564     -4.193250     -1.418879
  H       4.436955     -4.280295     -0.699174
  H       4.107491     -3.153031     -2.046836
  H       2.186894     -1.362662     -0.592360
51
Coordinates from ORCA-job my_molecule E -1977.844984063968
  Pt     -2.005102      0.006300      1.262493
  O      -0.382900      0.229072      2.289090
  O      -3.971580     -0.111510      0.353921
  P       0.964214      0.973120      1.765056
  P      -3.412154     -1.092331     -0.729308
  O      -4.317753     -2.410685     -0.945470
  O      -2.000182     -1.497541     -0.093339
  O       0.921197      0.865036      0.130805
  O       2.214773      0.411798      2.397328
  C       0.686498      2.782050      2.044404
  C      -3.275778     -0.415342     -2.422726
  C      -2.486190     -1.430950     -3.278783
  C      -2.513094      0.920540     -2.312520
  C      -4.702527     -0.188142     -2.978365
  C      -0.581124      3.285750      1.333222
  C       0.576556      2.976394      3.557598
  C       1.930157      3.500381      1.504494
  H      -4.456724     -2.870787     -0.103480
  H       1.440649      0.078108     -0.173305
  H      -1.480052     -1.630827     -2.848877
  H      -2.348125     -1.013934     -4.290920
  H      -3.020802     -2.392610     -3.374481
  H      -1.504912      0.802123     -1.835820
  H      -3.096915      1.666495     -1.719250
  H      -2.364674      1.322546     -3.334879
  H      -5.257835     -1.140632     -3.089473
  H      -4.623728      0.284911     -3.973698
  H      -5.298574      0.494121     -2.325515
  H      -1.495806      2.802209      1.720599
  H      -0.534650      3.102662      0.250905
  H      -0.703870      4.376694      1.490721
  H      -0.318309      2.473929      3.971400
  H       0.495621      4.058353      3.789088
  H       1.472093      2.563927      4.066133
  H       2.043668      3.353765      0.417471
  H       2.846207      3.120778      2.002958
  H       1.841131      4.590037      1.693507
  Si      3.193993     -2.220750      0.083798
  C       4.684385     -1.162780      0.542665
  C       2.362005     -2.954671      1.607309
  C       3.623079     -3.556691     -1.190094
  H       4.342141     -0.376689      1.243326
  H       5.143165     -0.688053     -0.348992
  H       5.460175     -1.770430      1.049352
  H       1.419433     -3.477598      1.345265
  H       2.125812     -2.134902      2.316985
  H       3.031156     -3.678538      2.116819
  H       2.727046     -4.143398     -1.476770
  H       4.371908     -4.262614     -0.776494
  H       4.050354     -3.112261     -2.114214
  H       2.185944     -1.306434     -0.609939
51
Coordinates from ORCA-job my_molecule E -1977.845473310515
  Pt     -1.967931     -0.073782      1.304977
  O      -0.313919      0.176995      2.310341
  O      -3.900864     -0.125806      0.354632
  P       0.982216      0.994839      1.759453
  P      -3.373317     -1.098296     -0.738660
  O      -4.315919     -2.392540     -0.971575
  O      -1.974613     -1.540652     -0.100621
  O       0.894159      0.887838      0.114169
  O       2.271396      0.496594      2.357075
  C       0.652723      2.787793      2.063261
  C      -3.227724     -0.403415     -2.436083
  C      -2.440068     -1.408411     -3.310514
  C      -2.454202      0.930807     -2.320816
  C      -4.649780     -0.169554     -2.978603
  C      -0.633586      3.259121      1.366657
  C       0.552008      2.966168      3.587203
  C       1.869108      3.551717      1.517994
  H      -4.475980     -2.870562     -0.124418
  H       1.416482      0.108184     -0.200419
  H      -1.434912     -1.604782     -2.895868
  H      -2.308364     -0.981229     -4.322402
  H      -2.973892     -2.380360     -3.412962
  H      -1.456698      0.799870     -1.865395
  H      -3.016457      1.669421     -1.720028
  H      -2.313971      1.344942     -3.338867
  H      -5.210613     -1.119910     -3.092210
  H      -4.573836      0.309713     -3.973426
  H      -5.232505      0.505969     -2.318521
  H      -1.535728      2.749772      1.771714
  H      -0.597126      3.075272      0.272877
  H      -0.774457      4.352458      1.530377
  H      -0.345715      2.457330      4.005866
  H       0.473549      4.048529      3.835745
  H       1.452303      2.547754      4.081292
  H       1.986587      3.405223      0.424390
  H       2.794731      3.205858      2.019104
  H       1.743784      4.639369      1.704724
  Si      3.160830     -2.240689      0.087405
  C       4.685879     -1.196338      0.415900
  C       2.419507     -2.904127      1.674099
  C       3.503031     -3.625760     -1.146146
  H       4.395275     -0.379376      1.096506
  H       5.094541     -0.761929     -0.512227
  H       5.485838     -1.799090      0.899375
  H       1.463695     -3.424867      1.489407
  H       2.232064     -2.057929      2.358923
  H       3.114353     -3.617692      2.166328
  H       2.589862     -4.210726     -1.347650
  H       4.274478     -4.325742     -0.754750
  H       3.869270     -3.223074     -2.105028
  H       2.124508     -1.334898     -0.582601
51
Coordinates from ORCA-job my_molecule E -1977.845792010616
  Pt     -2.002210     -0.033068      1.322567
  O      -0.338153      0.182710      2.320982
  O      -3.929216     -0.104623      0.364852
  P       0.967722      0.992133      1.762102
  P      -3.373477     -1.078339     -0.734976
  O      -4.292324     -2.401726     -0.969802
  O      -1.964408     -1.493588     -0.098553
  O       0.880718      0.884950      0.115749
  O       2.256586      0.488237      2.358416
  C       0.657712      2.794527      2.068178
  C      -3.233509     -0.404684     -2.436152
  C      -2.442767     -1.420619     -3.287974
  C      -2.470803      0.930435     -2.337625
  C      -4.656766     -0.175937     -2.986916
  C      -0.617426      3.282737      1.361062
  C       0.541740      2.969576      3.592039
  C       1.890056      3.547421      1.530197
  H      -4.445969     -2.872596     -0.124417
  H       1.396626      0.100790     -0.197564
  H      -1.433048     -1.606475     -2.873946
  H      -2.324192     -1.014101     -4.302930
  H      -2.964943     -2.389006     -3.366854
  H      -1.471163      0.804270     -1.884694
  H      -3.033208      1.673693     -1.742524
  H      -2.338607      1.337129     -3.357011
  H      -5.213922     -1.120994     -3.085690
  H      -4.583703      0.285285     -3.987453
  H      -5.240241      0.509946     -2.343966
  H      -1.529827      2.784329      1.761214
  H      -0.574785      3.098344      0.269812
  H      -0.750869      4.374843      1.525192
  H      -0.381433      2.493484      3.999368
  H       0.501416      4.054897      3.849541
  H       1.422766      2.512287      4.086747
  H       2.025736      3.388726      0.438596
  H       2.805910      3.198598      2.048441
  H       1.768534      4.641965      1.704032
  Si      3.160511     -2.254397      0.082289
  C       4.673472     -1.184123      0.422015
  C       2.420777     -2.936781      1.666043
  C       3.533605     -3.629504     -1.165369
  H       4.367938     -0.368614      1.108388
  H       5.083035     -0.734116     -0.504348
  H       5.481119     -1.777923      0.903144
  H       1.469418     -3.471018      1.475500
  H       2.222208     -2.092098      2.356205
  H       3.123388     -3.644470      2.155128
  H       2.629066     -4.237287     -1.372304
  H       4.319745     -4.317551     -0.781621
  H       3.897028     -3.209116     -2.124222
  H       2.110136     -1.358559     -0.580885
51
Coordinates from ORCA-job my_molecule E -1977.845918053380
  Pt     -2.013365     -0.031731      1.315117
  O      -0.341036      0.160590      2.304206
  O      -3.936278     -0.091576      0.367175
  P       0.961476      0.973964      1.746934
  P      -3.393567     -1.064814     -0.733212
  O      -4.313639     -2.383956     -0.961226
  O      -1.982836     -1.484858     -0.109032
  O       0.879146      0.859593      0.099669
  O       2.249382      0.475068      2.350065
  C       0.653791      2.778992      2.048329
  C      -3.260534     -0.386304     -2.432026
  C      -2.484576     -1.400190     -3.292622
  C      -2.487685      0.944101     -2.328100
  C      -4.681189     -0.144628     -2.977520
  C      -0.615454      3.269886      1.332617
  C       0.529411      2.952484      3.570686
  C       1.888398      3.530624      1.519361
  H      -4.463645     -2.851980     -0.116356
  H       1.390944      0.068371     -0.204309
  H      -1.476451     -1.594973     -2.882084
  H      -2.364833     -0.984216     -4.310054
  H      -3.017169     -2.365264     -3.377259
  H      -1.487512      0.809411     -1.878451
  H      -3.041825      1.684664     -1.723339
  H      -2.353742      1.360878     -3.347560
  H      -5.247935     -1.090891     -3.090801
  H      -4.602509      0.333916     -3.977237
  H      -5.258890      0.533288     -2.318382
  H      -1.531649      2.777064      1.731929
  H      -0.569130      3.079855      0.242010
  H      -0.745340      4.364203      1.491277
  H      -0.404119      2.494731      3.968503
  H       0.508985      4.035923      3.832084
  H       1.398530      2.477296      4.069452
  H       2.036693      3.365491      0.432056
  H       2.798337      3.187812      2.051202
  H       1.762097      4.623643      1.684449
  Si      3.194242     -2.265815      0.096750
  C       4.686889     -1.164923      0.446190
  C       2.450944     -2.951362      1.677817
  C       3.605819     -3.640312     -1.142247
  H       4.360976     -0.350296      1.126629
  H       5.098202     -0.710859     -0.477920
  H       5.500709     -1.741999      0.936192
  H       1.508770     -3.501701      1.482442
  H       2.233828     -2.105435      2.361461
  H       3.160745     -3.644660      2.176468
  H       2.715261     -4.269956     -1.349824
  H       4.405669     -4.308813     -0.752942
  H       3.965413     -3.216313     -2.101011
  H       2.130251     -1.394022     -0.577558
51
Coordinates from ORCA-job my_molecule E -1977.846141061603
  Pt     -2.023386     -0.043482      1.317532
  O      -0.362521      0.169660      2.316429
  O      -3.942264     -0.103202      0.370041
  P       0.949776      0.965271      1.752168
  P      -3.401531     -1.074259     -0.730925
  O      -4.324087     -2.388402     -0.962775
  O      -1.994604     -1.499549     -0.104165
  O       0.864673      0.842241      0.106015
  O       2.232912      0.452955      2.354962
  C       0.660546      2.776780      2.043336
  C      -3.262247     -0.388988     -2.426492
  C      -2.482508     -1.399261     -3.287082
  C      -2.490710      0.941252     -2.314052
  C      -4.680375     -0.145933     -2.979428
  C      -0.607054      3.274864      1.329496
  C       0.543060      2.964618      3.566313
  C       1.902189      3.512881      1.502546
  H      -4.474033     -2.859588     -0.120748
  H       1.379516      0.051274     -0.196324
  H      -1.476626     -1.596086     -2.871330
  H      -2.356909     -0.978416     -4.303131
  H      -3.015352     -2.363734     -3.378694
  H      -1.492305      0.804881     -1.861266
  H      -3.046906      1.678989     -1.708560
  H      -2.353346      1.363022     -3.331779
  H      -5.247576     -1.093914     -3.101329
  H      -4.594374      0.338333     -3.978734
  H      -5.262685      0.528816     -2.318870
  H      -1.527192      2.791494      1.734736
  H      -0.564207      3.078048      0.238657
  H      -0.725328      4.373364      1.482524
  H      -0.383153      2.501309      3.973086
  H       0.513381      4.050537      3.815527
  H       1.417520      2.503590      4.068837
  H       2.037140      3.346038      0.413671
  H       2.814113      3.158837      2.023305
  H       1.792492      4.607730      1.670544
  Si      3.193819     -2.257201      0.095133
  C       4.677315     -1.150601      0.467421
  C       2.436118     -2.957803      1.664257
  C       3.622577     -3.621430     -1.150507
  H       4.339354     -0.343070      1.151684
  H       5.095835     -0.687998     -0.449917
  H       5.488808     -1.727035      0.961669
  H       1.497794     -3.510831      1.454720
  H       2.208003     -2.117633      2.352437
  H       3.143065     -3.651565      2.166157
  H       2.734936     -4.249887     -1.377259
  H       4.416294     -4.292376     -0.754194
  H       3.996415     -3.189701     -2.101202
  H       2.133628     -1.384842     -0.584437
51
Coordinates from ORCA-job my_molecule E -1977.846388092551
  Pt     -2.038338     -0.054864      1.320489
  O      -0.380240      0.176403      2.322251
  O      -3.958103     -0.119578      0.383020
  P       0.939227      0.956038      1.748995
  P      -3.413339     -1.084436     -0.724911
  O      -4.339492     -2.398307     -0.972123
  O      -2.009634     -1.514450     -0.093639
  O       0.848547      0.822859      0.103497
  O       2.218339      0.433674      2.351636
  C       0.665795      2.770691      2.031465
  C      -3.262888     -0.387004     -2.417471
  C      -2.482264     -1.392989     -3.282084
  C      -2.487351      0.942094     -2.292151
  C      -4.677228     -0.137331     -2.974018
  C      -0.599625      3.273395      1.317805
  C       0.554448      2.967805      3.553095
  C       1.910580      3.494263      1.484872
  H      -4.493912     -2.879999     -0.133489
  H       1.362634      0.029200     -0.195311
  H      -1.480889     -1.598041     -2.856195
  H      -2.342201     -0.963516     -4.297422
  H      -3.023422     -2.354145     -3.387838
  H      -1.489647      0.805384     -1.826640
  H      -3.051148      1.678715     -1.687348
  H      -2.337776      1.364885     -3.310163
  H      -5.245523     -1.078037     -3.092454
  H      -4.590750      0.343149     -3.971010
  H      -5.255255      0.540601     -2.320753
  H      -1.518220      2.794486      1.719788
  H      -0.559501      3.079443      0.229565
  H      -0.714082      4.366861      1.472034
  H      -0.368454      2.503193      3.966345
  H       0.521913      4.054843      3.794745
  H       1.431839      2.513791      4.056279
  H       2.036063      3.327037      0.395414
  H       2.822433      3.131753      1.999381
  H       1.812480      4.588490      1.654578
  Si      3.196212     -2.247767      0.095040
  C       4.668330     -1.134615      0.486705
  C       2.426278     -2.958170      1.653347
  C       3.643506     -3.604585     -1.150119
  H       4.318113     -0.333418      1.170628
  H       5.092652     -0.666958     -0.424349
  H       5.477808     -1.707705      0.987571
  H       1.493255     -3.514696      1.431995
  H       2.186613     -2.122748      2.342205
  H       3.131210     -3.649881      2.160676
  H       2.760844     -4.233005     -1.391824
  H       4.432835     -4.274908     -0.744932
  H       4.028463     -3.168958     -2.093533
  H       2.138866     -1.378944     -0.593646
51
Coordinates from ORCA-job my_molecule E -1977.846562847140
  Pt     -2.039699     -0.064650      1.321718
  O      -0.393053      0.196637      2.332932
  O      -3.958925     -0.136691      0.385679
  P       0.935798      0.961164      1.755522
  P      -3.411593     -1.099416     -0.723767
  O      -4.338218     -2.411019     -0.974644
  O      -2.010257     -1.530661     -0.087495
  O       0.844201      0.826166      0.111812
  O       2.210503      0.426145      2.357583
  C       0.674081      2.777600      2.034314
  C      -3.256944     -0.396453     -2.413886
  C      -2.473351     -1.400832     -3.277808
  C      -2.483160      0.931327     -2.286135
  C      -4.670776     -0.149710     -2.977354
  C      -0.591886      3.283716      1.323801
  C       0.569991      2.979678      3.555042
  C       1.921234      3.492183      1.481114
  H      -4.492965     -2.892617     -0.137531
  H       1.361810      0.034673     -0.187607
  H      -1.474024     -1.607097     -2.850893
  H      -2.333095     -0.970844     -4.289471
  H      -3.011578     -2.361137     -3.383937
  H      -1.489195      0.792856     -1.819685
  H      -3.046047      1.667875     -1.685265
  H      -2.333738      1.353517     -3.302000
  H      -5.238170     -1.096316     -3.101583
  H      -4.578064      0.331969     -3.975860
  H      -5.258599      0.527076     -2.322524
  H      -1.512103      2.808173      1.728851
  H      -0.553868      3.087279      0.234160
  H      -0.699091      4.380656      1.475675
  H      -0.344826      2.506598      3.973273
  H       0.526917      4.065767      3.792024
  H       1.453908      2.537570      4.057035
  H       2.034529      3.329347      0.390576
  H       2.835468      3.120534      1.984765
  H       1.833977      4.585417      1.657467
  Si      3.185468     -2.236208      0.088589
  C       4.660516     -1.134817      0.501219
  C       2.399060     -2.956194      1.636407
  C       3.632224     -3.585239     -1.166027
  H       4.309427     -0.338255      1.190005
  H       5.094459     -0.662934     -0.403614
  H       5.462110     -1.715687      1.004540
  H       1.464616     -3.506275      1.402785
  H       2.158611     -2.125662      2.331573
  H       3.095849     -3.655663      2.143963
  H       2.746112     -4.202269     -1.425278
  H       4.408786     -4.266668     -0.756360
  H       4.033152     -3.145393     -2.101790
  H       2.140417     -1.355215     -0.601911
51
Coordinates from ORCA-job my_molecule E -1977.846676572990
  Pt     -2.043270     -0.079380      1.324612
  O      -0.412792      0.214331      2.345083
  O      -3.959146     -0.154723      0.386217
  P       0.924903      0.962922      1.762079
  P      -3.410269     -1.114719     -0.724330
  O      -4.336304     -2.423559     -0.978629
  O      -2.011005     -1.546888     -0.085539
  O       0.829424      0.822190      0.119453
  O       2.196049      0.415760      2.361552
  C       0.679462      2.783556      2.035040
  C      -3.252386     -0.405582     -2.410427
  C      -2.460551     -1.405608     -3.275561
  C      -2.483503      0.926902     -2.272681
  C      -4.663709     -0.159909     -2.977016
  C      -0.585291      3.296207      1.326521
  C       0.581879      2.995415      3.556416
  C       1.932051      3.485326      1.472523
  H      -4.492070     -2.905396     -0.143004
  H       1.351542      0.032758     -0.178995
  H      -1.462942     -1.611862     -2.840529
  H      -2.310684     -0.969208     -4.286218
  H      -2.998864     -2.368134     -3.392854
  H      -1.490645      0.791459     -1.802356
  H      -3.053608      1.659589     -1.669036
  H      -2.329946      1.355791     -3.286798
  H      -5.228549     -1.103663     -3.097217
  H      -4.571246      0.318666     -3.975009
  H      -5.249773      0.518523     -2.329690
  H      -1.507554      2.826554      1.733314
  H      -0.549354      3.098406      0.237154
  H      -0.683917      4.394402      1.477350
  H      -0.328179      2.518869      3.982135
  H       0.533694      4.083788      3.786020
  H       1.470024      2.562185      4.058647
  H       2.036479      3.319967      0.379927
  H       2.846225      3.104651      1.969759
  H       1.857389      4.581620      1.648670
  Si      3.176824     -2.229979      0.082592
  C       4.650533     -1.132382      0.511983
  C       2.378376     -2.959228      1.620813
  C       3.628466     -3.571784     -1.178730
  H       4.295132     -0.340499      1.204685
  H       5.090654     -0.655141     -0.387141
  H       5.448741     -1.717335      1.016553
  H       1.444745     -3.506580      1.377386
  H       2.134234     -2.133171      2.320471
  H       3.070792     -3.662963      2.128597
  H       2.742004     -4.182263     -1.450936
  H       4.397818     -4.260125     -0.766362
  H       4.040038     -3.127620     -2.107498
  H       2.138080     -1.342137     -0.608999
51
Coordinates from ORCA-job my_molecule E -1977.846764543935
  Pt     -2.053430     -0.089451      1.326767
  O      -0.430086      0.229907      2.352796
  O      -3.967722     -0.167361      0.394358
  P       0.916531      0.961399      1.764976
  P      -3.418351     -1.124410     -0.719880
  O      -4.350378     -2.430210     -0.985186
  O      -2.022765     -1.562370     -0.076035
  O       0.817293      0.815136      0.123464
  O       2.182970      0.402341      2.363813
  C       0.687419      2.784582      2.032442
  C      -3.251792     -0.410093     -2.404503
  C      -2.459439     -1.410301     -3.266200
  C      -2.481658      0.918961     -2.263393
  C      -4.661258     -0.163322     -2.978178
  C      -0.572415      3.305607      1.320973
  C       0.591062      3.003725      3.553012
  C       1.945910      3.472794      1.468053
  H      -4.511571     -2.920617     -0.151035
  H       1.341035      0.025684     -0.172956
  H      -1.463979     -1.618883     -2.831276
  H      -2.310839     -0.975930     -4.273261
  H      -2.995616     -2.369539     -3.380748
  H      -1.490471      0.782387     -1.785386
  H      -3.053877      1.652975     -1.664958
  H      -2.322799      1.344134     -3.276829
  H      -5.227599     -1.109060     -3.103306
  H      -4.562496      0.315992     -3.976659
  H      -5.252497      0.515034     -2.330212
  H      -1.497080      2.841638      1.723887
  H      -0.534835      3.109163      0.232467
  H      -0.664623      4.402381      1.471872
  H      -0.315991      2.525039      3.982395
  H       0.538030      4.093202      3.775933
  H       1.480761      2.577227      4.058283
  H       2.044294      3.309517      0.375550
  H       2.857939      3.081269      1.960569
  H       1.883369      4.567987      1.647563
  Si      3.175995     -2.218526      0.077596
  C       4.645114     -1.125191      0.529941
  C       2.361715     -2.959192      1.602844
  C       3.638198     -3.551042     -1.189205
  H       4.282870     -0.339763      1.225486
  H       5.093509     -0.641656     -0.361430
  H       5.437913     -1.713639      1.038285
  H       1.430706     -3.504642      1.345982
  H       2.110696     -2.139064      2.306550
  H       3.048710     -3.666608      2.112727
  H       2.753295     -4.155416     -1.478422
  H       4.398746     -4.245293     -0.771419
  H       4.063560     -3.101595     -2.109126
  H       2.145927     -1.324909     -0.618980
51
Coordinates from ORCA-job my_molecule E -1977.846809225553
  Pt     -2.056699     -0.093634      1.326144
  O      -0.444147      0.254371      2.358248
  O      -3.972965     -0.183367      0.397537
  P       0.912111      0.970118      1.768838
  P      -3.419627     -1.139468     -0.717672
  O      -4.348735     -2.446224     -0.983565
  O      -2.024205     -1.574186     -0.071193
  O       0.812074      0.822675      0.128430
  O       2.173487      0.398235      2.367117
  C       0.695647      2.793874      2.035733
  C      -3.249745     -0.423194     -2.400815
  C      -2.450750     -1.422113     -3.261981
  C      -2.480468      0.906072     -2.256014
  C      -4.657679     -0.177240     -2.979372
  C      -0.561115      3.321584      1.323409
  C       0.600204      3.012942      3.554229
  C       1.958351      3.472882      1.472452
  H      -4.507413     -2.933233     -0.150936
  H       1.339941      0.035678     -0.167824
  H      -1.456898     -1.631435     -2.816655
  H      -2.289833     -0.983466     -4.270503
  H      -2.990332     -2.383115     -3.387541
  H      -1.492084      0.767583     -1.779177
  H      -3.051220      1.638256     -1.656537
  H      -2.321753      1.335655     -3.267363
  H      -5.223219     -1.120707     -3.099824
  H      -4.558181      0.295822     -3.978661
  H      -5.249250      0.504943     -2.338399
  H      -1.490201      2.863188      1.728849
  H      -0.522946      3.120637      0.232907
  H      -0.643923      4.422895      1.470905
  H      -0.300883      2.527362      3.982688
  H       0.537678      4.099623      3.775817
  H       1.493154      2.594332      4.060078
  H       2.049765      3.316844      0.380239
  H       2.869646      3.070617      1.957477
  H       1.906117      4.565442      1.659963
  Si      3.167664     -2.208454      0.069459
  C       4.640754     -1.129815      0.542809
  C       2.335496     -2.955698      1.583078
  C       3.629068     -3.534172     -1.205114
  H       4.278530     -0.348096      1.242386
  H       5.099416     -0.642660     -0.341584
  H       5.424951     -1.727238      1.053168
  H       1.403141     -3.493619      1.314055
  H       2.084219     -2.139890      2.291920
  H       3.013627     -3.671217      2.093270
  H       2.740797     -4.125973     -1.511251
  H       4.375838     -4.240175     -0.783484
  H       4.070950     -3.081871     -2.116495
  H       2.151645     -1.301369     -0.629243
51
Coordinates from ORCA-job my_molecule E -1977.846830200932
  Pt     -2.061637     -0.105397      1.328700
  O      -0.462545      0.270361      2.366536
  O      -3.973239     -0.194847      0.396089
  P       0.901466      0.971006      1.775547
  P      -3.421864     -1.151332     -0.717994
  O      -4.355473     -2.452443     -0.985936
  O      -2.029422     -1.590220     -0.067319
  O       0.798790      0.819110      0.135636
  O       2.158332      0.388075      2.372851
  C       0.700968      2.798002      2.038093
  C      -3.247078     -0.432092     -2.399403
  C      -2.448342     -1.430058     -3.259495
  C      -2.478858      0.898564     -2.249186
  C      -4.652293     -0.185288     -2.981262
  C      -0.553497      3.331319      1.325761
  C       0.611052      3.027568      3.558944
  C       1.969594      3.464708      1.465093
  H      -4.517022     -2.940232     -0.153511
  H       1.330785      0.034284     -0.159207
  H      -1.457660     -1.642184     -2.815578
  H      -2.287801     -0.990112     -4.264554
  H      -2.986618     -2.388978     -3.384873
  H      -1.490967      0.761326     -1.768769
  H      -3.054102      1.629471     -1.648419
  H      -2.316408      1.331059     -3.259433
  H      -5.218872     -1.130175     -3.104337
  H      -4.548610      0.289224     -3.981014
  H      -5.245233      0.496652     -2.340084
  H      -1.481374      2.875539      1.725582
  H      -0.516494      3.136729      0.237778
  H      -0.633430      4.426821      1.478538
  H      -0.287948      2.540180      3.996581
  H       0.546282      4.118241      3.773185
  H       1.506956      2.616160      4.065282
  H       2.052997      3.303850      0.369010
  H       2.879663      3.053913      1.945063
  H       1.931158      4.562050      1.650477
  Si      3.164863     -2.199552      0.064200
  C       4.637121     -1.128898      0.557089
  C       2.318492     -2.955928      1.565963
  C       3.631095     -3.517378     -1.216595
  H       4.271150     -0.352395      1.260577
  H       5.103203     -0.635823     -0.320105
  H       5.416272     -1.732221      1.068560
  H       1.387535     -3.490203      1.285722
  H       2.063038     -2.145226      2.279153
  H       2.991241     -3.676471      2.076347
  H       2.742503     -4.099849     -1.537665
  H       4.367782     -4.232093     -0.791808
  H       4.086050     -3.061288     -2.119298
  H       2.158399     -1.283530     -0.636512
51
Coordinates from ORCA-job my_molecule E -1977.846846715549
  Pt     -2.070150     -0.111021      1.326729
  O      -0.480594      0.293538      2.368227
  O      -3.982010     -0.206922      0.401647
  P       0.893513      0.977092      1.777102
  P      -3.428304     -1.162248     -0.714522
  O      -4.363792     -2.463069     -0.988631
  O      -2.037583     -1.601899     -0.060867
  O       0.791201      0.822098      0.137825
  O       2.143925      0.380762      2.375428
  C       0.708829      2.805330      2.038574
  C      -3.248482     -0.441970     -2.395227
  C      -2.445404     -1.440960     -3.251250
  C      -2.482003      0.888628     -2.243606
  C      -4.652628     -0.196518     -2.981829
  C      -0.539991      3.350072      1.324309
  C       0.617784      3.034254      3.556673
  C       1.983451      3.460435      1.471850
  H      -4.528432     -2.955734     -0.156871
  H       1.328569      0.039736     -0.154790
  H      -1.455276     -1.652295     -2.802845
  H      -2.281461     -1.002566     -4.255576
  H      -2.982434     -2.399904     -3.377641
  H      -1.494325      0.753533     -1.756852
  H      -3.061327      1.620779     -1.647434
  H      -2.315434      1.317549     -3.254136
  H      -5.218775     -1.140045     -3.101576
  H      -4.547434      0.273139     -3.982293
  H      -5.246267      0.488748     -2.346287
  H      -1.476140      2.903562      1.726082
  H      -0.500335      3.149583      0.234106
  H      -0.605596      4.453102      1.472123
  H      -0.278017      2.543610      3.991281
  H       0.547801      4.122304      3.770566
  H       1.514626      2.626446      4.064107
  H       2.064531      3.308661      0.378357
  H       2.889984      3.037433      1.948291
  H       1.954933      4.552870      1.665716
  Si      3.164520     -2.190438      0.056469
  C       4.637693     -1.131734      0.573269
  C       2.298582     -2.953909      1.544147
  C       3.635571     -3.501149     -1.230163
  H       4.268562     -0.359914      1.280477
  H       5.114444     -0.633507     -0.295227
  H       5.409064     -1.742899      1.087022
  H       1.368110     -3.482141      1.250279
  H       2.039607     -2.147882      2.261442
  H       2.963032     -3.681076      2.055944
  H       2.745990     -4.072555     -1.568293
  H       4.359872     -4.225967     -0.801363
  H       4.106564     -3.042098     -2.122946
  H       2.171436     -1.262850     -0.647816
51
Coordinates from ORCA-job my_molecule E -1977.846823709833
  Pt     -2.076354     -0.111513      1.327630
  O      -0.497842      0.316795      2.374610
  O      -3.987966     -0.214911      0.404397
  P       0.885882      0.982955      1.784503
  P      -3.433915     -1.173309     -0.709410
  O      -4.371772     -2.471563     -0.982297
  O      -2.045261     -1.613735     -0.050829
  O       0.783165      0.826805      0.146151
  O       2.129902      0.373038      2.382994
  C       0.717136      2.812845      2.044032
  C      -3.247345     -0.455755     -2.390987
  C      -2.439312     -1.456862     -3.242909
  C      -2.478811      0.871967     -2.239375
  C      -4.649487     -0.210075     -2.985847
  C      -0.524879      3.365253      1.323441
  C       0.622894      3.047300      3.562816
  C       1.999452      3.455355      1.476230
  H      -4.536749     -2.960491     -0.150775
  H       1.323014      0.046208     -0.145525
  H      -1.451297     -1.669388     -2.784795
  H      -2.264566     -1.018380     -4.248757
  H      -2.979827     -2.416073     -3.376157
  H      -1.495007      0.731402     -1.756365
  H      -3.051160      1.603795     -1.643230
  H      -2.314375      1.303691     -3.247509
  H      -5.217297     -1.153886     -3.106070
  H      -4.538755      0.255685     -3.988042
  H      -5.246631      0.478490     -2.353810
  H      -1.461631      2.922394      1.716693
  H      -0.481535      3.169546      0.235079
  H      -0.588348      4.462881      1.474828
  H      -0.274424      2.557807      3.999059
  H       0.552408      4.137746      3.772049
  H       1.518343      2.641016      4.074170
  H       2.079613      3.300101      0.380108
  H       2.901297      3.023339      1.953397
  H       1.982285      4.551225      1.667896
  Si      3.159456     -2.177670      0.046605
  C       4.634689     -1.135378      0.588076
  C       2.275178     -2.951819      1.519426
  C       3.632068     -3.477793     -1.250379
  H       4.264952     -0.369872      1.301236
  H       5.121543     -0.630383     -0.271245
  H       5.397164     -1.756862      1.101638
  H       1.344593     -3.471798      1.211689
  H       2.014940     -2.152372      2.243541
  H       2.930491     -3.688228      2.029532
  H       2.741048     -4.036276     -1.605855
  H       4.343059     -4.214581     -0.820785
  H       4.118387     -3.013417     -2.133028
  H       2.181588     -1.235247     -0.657849
51
Coordinates from ORCA-job my_molecule E -1977.846815833439
  Pt     -2.080532     -0.118864      1.327342
  O      -0.512306      0.339599      2.375620
  O      -3.989303     -0.227070      0.403168
  P       0.879015      0.992116      1.786229
  P      -3.435489     -1.187455     -0.709098
  O      -4.376626     -2.482640     -0.982303
  O      -2.048997     -1.628961     -0.046160
  O       0.775620      0.834477      0.147729
  O       2.117488      0.370945      2.384673
  C       0.723017      2.821951      2.047652
  C      -3.243902     -0.470063     -2.390649
  C      -2.438666     -1.472362     -3.239926
  C      -2.475204      0.860317     -2.234975
  C      -4.642761     -0.222356     -2.987080
  C      -0.516708      3.380337      1.327861
  C       0.631733      3.055483      3.566265
  C       2.008669      3.457475      1.480899
  H      -4.543809     -2.970145     -0.150356
  H       1.322081      0.057881     -0.142835
  H      -1.453624     -1.687017     -2.785754
  H      -2.266924     -1.034842     -4.243308
  H      -2.977765     -2.429415     -3.368814
  H      -1.489783      0.723898     -1.745304
  H      -3.055788      1.592413     -1.637505
  H      -2.304026      1.292768     -3.244411
  H      -5.212725     -1.164084     -3.104317
  H      -4.530000      0.241080     -3.990173
  H      -5.236228      0.468981     -2.358634
  H      -1.457031      2.941258      1.721559
  H      -0.473921      3.184032      0.237826
  H      -0.571532      4.480182      1.479669
  H      -0.261040      2.560567      4.002292
  H       0.555734      4.143496      3.776245
  H       1.529973      2.655041      4.076752
  H       2.083445      3.308812      0.385003
  H       2.909172      3.017376      1.952455
  H       2.000649      4.550025      1.679874
  Si      3.156276     -2.167845      0.038639
  C       4.636796     -1.144086      0.600989
  C       2.252911     -2.944437      1.498553
  C       3.626805     -3.463181     -1.263550
  H       4.268263     -0.381656      1.317884
  H       5.134381     -0.636373     -0.250062
  H       5.390114     -1.776166      1.115408
  H       1.320879     -3.454873      1.179386
  H       1.993513     -2.148545      2.226454
  H       2.898307     -3.689588      2.008674
  H       2.732676     -4.006756     -1.634032
  H       4.322898     -4.212470     -0.831194
  H       4.129166     -2.999000     -2.136636
  H       2.195109     -1.210258     -0.668023
51
Coordinates from ORCA-job my_molecule E -1977.846787855864
  Pt     -2.088598     -0.118607      1.325377
  O      -0.532749      0.364752      2.377612
  O      -3.997800     -0.230690      0.406101
  P       0.868886      0.999441      1.792079
  P      -3.442740     -1.195452     -0.703218
  O      -4.387529     -2.488916     -0.977285
  O      -2.058762     -1.637904     -0.035509
  O       0.767682      0.841699      0.154164
  O       2.099579      0.363160      2.391484
  C       0.731263      2.831119      2.054168
  C      -3.245086     -0.484636     -2.386610
  C      -2.433384     -1.491935     -3.227485
  C      -2.477136      0.843062     -2.236545
  C      -4.643181     -0.240190     -2.991064
  C      -0.498847      3.404317      1.328197
  C       0.633417      3.066245      3.572273
  C       2.027805      3.451723      1.494003
  H      -4.559283     -2.977455     -0.144014
  H       1.319795      0.068773     -0.134764
  H      -1.449047     -1.705066     -2.761779
  H      -2.251345     -1.058653     -4.233355
  H      -2.974593     -2.449841     -3.359916
  H      -1.493671      0.705059     -1.747078
  H      -3.053566      1.578183     -1.645598
  H      -2.308023      1.269745     -3.245277
  H      -5.212753     -1.183207     -3.106065
  H      -4.526611      0.216628     -3.995863
  H      -5.241536      0.455886     -2.368223
  H      -1.446029      2.974335      1.714467
  H      -0.449684      3.209892      0.239519
  H      -0.543578      4.504901      1.481408
  H      -0.264829      2.576357      4.005650
  H       0.562043      4.156552      3.780765
  H       1.527290      2.660790      4.086809
  H       2.105918      3.304470      0.398348
  H       2.921443      2.999128      1.967813
  H       2.031939      4.545132      1.694848
  Si      3.155147     -2.155521      0.026466
  C       4.638868     -1.150552      0.615359
  C       2.230671     -2.940637      1.469902
  C       3.627074     -3.441365     -1.285446
  H       4.269770     -0.394280      1.339159
  H       5.148018     -0.635608     -0.225086
  H       5.382759     -1.794598      1.128442
  H       1.298112     -3.441104      1.136393
  H       1.970314     -2.150754      2.204466
  H       2.865639     -3.695926      1.978211
  H       2.731516     -3.970733     -1.672264
  H       4.309594     -4.203221     -0.853411
  H       4.144612     -2.973192     -2.147749
  H       2.211208     -1.181308     -0.679879
51
Coordinates from ORCA-job my_molecule E -1977.846772839211
  Pt     -2.092659     -0.116805      1.323777
  O      -0.543709      0.390870      2.376944
  O      -3.999334     -0.238074      0.404778
  P       0.865002      1.012415      1.794693
  P      -3.445518     -1.209336     -0.699258
  O      -4.394613     -2.499302     -0.968540
  O      -2.064195     -1.652361     -0.024835
  O       0.764367      0.857177      0.156782
  O       2.089359      0.363954      2.394168
  C       0.738061      2.842676      2.061734
  C      -3.239669     -0.504340     -2.385397
  C      -2.429607     -1.516120     -3.221598
  C      -2.467031      0.823505     -2.233742
  C      -4.634071     -0.256393     -2.995121
  C      -0.489319      3.418633      1.334145
  C       0.641096      3.074393      3.580884
  C       2.036434      3.459449      1.503113
  H      -4.567800     -2.979791     -0.134187
  H       1.322004      0.088834     -0.132118
  H      -1.447530     -1.729822     -2.757656
  H      -2.248502     -1.086560     -4.226984
  H      -2.970396     -2.473392     -3.349239
  H      -1.484374      0.684369     -1.742470
  H      -3.043519      1.559432     -1.640443
  H      -2.293252      1.252707     -3.243691
  H      -5.208122     -1.195579     -3.106488
  H      -4.512823      0.195610     -4.002082
  H      -5.228353      0.445005     -2.378077
  H      -1.436391      2.989116      1.718481
  H      -0.440797      3.225304      0.243526
  H      -0.531216      4.517196      1.489611
  H      -0.252561      2.579427      4.011261
  H       0.564711      4.161188      3.791384
  H       1.536189      2.674033      4.096914
  H       2.113181      3.313117      0.405766
  H       2.927718      3.003411      1.976912
  H       2.045791      4.551956      1.705820
  Si      3.149101     -2.141695      0.014443
  C       4.641581     -1.165975      0.628707
  C       2.200709     -2.928127      1.442380
  C       3.614078     -3.421036     -1.306065
  H       4.278109     -0.413771      1.358403
  H       5.164429     -0.648418     -0.201387
  H       5.371609     -1.825566      1.140731
  H       1.264710     -3.412751      1.095680
  H       1.945552     -2.142851      2.182919
  H       2.820776     -3.696868      1.948549
  H       2.714146     -3.931156     -1.708730
  H       4.278146     -4.198212     -0.873910
  H       4.149227     -2.953068     -2.158129
  H       2.229274     -1.146409     -0.692357
51
Coordinates from ORCA-job my_molecule E -1977.846758838647
  Pt     -2.097649     -0.116549      1.321791
  O      -0.560856      0.414092      2.376489
  O      -4.003964     -0.239114      0.402826
  P       0.855841      1.021774      1.798034
  P      -3.450046     -1.217800     -0.695644
  O      -4.403722     -2.505466     -0.961667
  O      -2.071478     -1.661102     -0.016130
  O       0.756966      0.868112      0.159653
  O       2.073481      0.360060      2.397142
  C       0.745133      2.852858      2.070030
  C      -3.238992     -0.522739     -2.384672
  C      -2.428475     -1.541644     -3.210865
  C      -2.466582      0.804058     -2.240955
  C      -4.631280     -0.276457     -2.998934
  C      -0.473674      3.444449      1.339240
  C       0.642307      3.083018      3.589699
  C       2.053673      3.457859      1.520599
  H      -4.582240     -2.983968     -0.124513
  H       1.322503      0.105212     -0.128251
  H      -1.448461     -1.755324     -2.739521
  H      -2.240623     -1.118126     -4.219372
  H      -2.972536     -2.497594     -3.336607
  H      -1.483361      0.667070     -1.748048
  H      -3.043660      1.545021     -1.653649
  H      -2.293506      1.224709     -3.251864
  H      -5.206111     -1.216886     -3.106876
  H      -4.507163      0.169763     -4.007451
  H      -5.227255      0.429928     -2.386475
  H      -1.428650      3.023909      1.717342
  H      -0.420103      3.254126      0.249759
  H      -0.503851      4.544569      1.498055
  H      -0.262639      2.598148      4.017646
  H       0.579462      4.173748      3.802312
  H       1.530528      2.669685      4.107412
  H       2.132635      3.318786      0.425619
  H       2.939689      2.990074      1.993162
  H       2.074288      4.547022      1.731505
  Si      3.148141     -2.128168      0.001276
  C       4.647071     -1.177379      0.640666
  C       2.177098     -2.917367      1.413140
  C       3.609959     -3.400897     -1.327266
  H       4.286265     -0.430129      1.377598
  H       5.182447     -0.654706     -0.178389
  H       5.366099     -1.851500      1.150012
  H       1.238671     -3.388078      1.053720
  H       1.924827     -2.136656      2.159763
  H       2.784205     -3.698236      1.916746
  H       2.707334     -3.895164     -1.742925
  H       4.260016     -4.191023     -0.896558
  H       4.158779     -2.932177     -2.169616
  H       2.249457     -1.113800     -0.704989
51
Coordinates from ORCA-job my_molecule E -1977.846752923896
  Pt     -2.101892     -0.112531      1.320193
  O      -0.572116      0.439355      2.375946
  O      -4.005528     -0.241012      0.403431
  P       0.850993      1.035207      1.801915
  P      -3.452383     -1.227988     -0.688310
  O      -4.410998     -2.513164     -0.950032
  O      -2.077183     -1.671734     -0.001770
  O       0.753421      0.885842      0.163511
  O       2.062302      0.361215      2.400342
  C       0.751744      2.865221      2.080072
  C      -3.233216     -0.543281     -2.381138
  C      -2.421604     -1.569264     -3.198563
  C      -2.457194      0.782028     -2.241867
  C      -4.623038     -0.296871     -3.002743
  C      -0.458712      3.465596      1.342542
  C       0.640650      3.088123      3.598638
  C       2.067690      3.461901      1.538914
  H      -4.593654     -2.986156     -0.110815
  H       1.325111      0.128311     -0.124952
  H      -1.443279     -1.781776     -2.723108
  H      -2.230290     -1.152761     -4.208762
  H      -2.966700     -2.525217     -3.320230
  H      -1.475230      0.644257     -1.746542
  H      -3.032001      1.526723     -1.658730
  H      -2.280957      1.198297     -3.254974
  H      -5.200781     -1.235295     -3.106950
  H      -4.493721      0.142562     -4.013738
  H      -5.218591      0.415573     -2.397452
  H      -1.417313      3.049673      1.714679
  H      -0.399889      3.275954      0.252368
  H      -0.483568      4.565531      1.502475
  H      -0.264061      2.603369      4.014917
  H       0.576577      4.173931      3.815506
  H       1.524470      2.672293      4.122015
  H       2.156807      3.315352      0.441466
  H       2.945597      2.989549      2.022766
  H       2.092605      4.556470      1.742783
  Si      3.141606     -2.112117     -0.013794
  C       4.649908     -1.193603      0.650014
  C       2.146805     -2.901697      1.381887
  C       3.594178     -3.377566     -1.352402
  H       4.295946     -0.451440      1.395105
  H       5.198565     -0.667210     -0.157919
  H       5.355086     -1.885115      1.154897
  H       1.203982     -3.353562      1.010227
  H       1.901925     -2.126032      2.135909
  H       2.737640     -3.697789      1.880872
  H       2.687197     -3.853032     -1.780199
  H       4.228139     -4.182385     -0.925185
  H       4.156818     -2.908627     -2.185678
  H       2.268138     -1.075106     -0.717536
51
Coordinates from ORCA-job my_molecule E -1977.846743843944
  Pt     -2.106514     -0.107430      1.318610
  O      -0.585662      0.463391      2.375235
  O      -4.008632     -0.239630      0.398462
  P       0.844301      1.046345      1.805165
  P      -3.455980     -1.237627     -0.683540
  O      -4.420148     -2.518929     -0.937827
  O      -2.085027     -1.681781      0.011971
  O       0.748037      0.900417      0.165965
  O       2.048665      0.359535      2.403073
  C       0.758327      2.875655      2.090349
  C      -3.227140     -0.565991     -2.380674
  C      -2.415081     -1.600332     -3.187746
  C      -2.446891      0.758164     -2.246298
  C      -4.613185     -0.318564     -3.010344
  C      -0.445535      3.485705      1.350169
  C       0.644019      3.097713      3.611465
  C       2.079020      3.466600      1.557656
  H      -4.607030     -2.982645     -0.095991
  H       1.326220      0.148189     -0.122827
  H      -1.438642     -1.811239     -2.708780
  H      -2.220844     -1.191962     -4.199928
  H      -2.961038     -2.556491     -3.303722
  H      -1.466586      0.619520     -1.749980
  H      -3.019493      1.506878     -1.665847
  H      -2.268180      1.170836     -3.261014
  H      -5.194473     -1.254586     -3.109844
  H      -4.477957      0.112661     -4.024010
  H      -5.207721      0.401071     -2.413377
  H      -1.407866      3.074570      1.717427
  H      -0.384703      3.299015      0.259531
  H      -0.463443      4.584081      1.514165
  H      -0.270206      2.621084      4.027558
  H       0.592540      4.187677      3.830000
  H       1.521989      2.671980      4.136524
  H       2.168661      3.329138      0.463004
  H       2.953665      2.988108      2.039965
  H       2.109835      4.553665      1.771595
  Si      3.135535     -2.096188     -0.028851
  C       4.654202     -1.209958      0.655594
  C       2.119154     -2.884189      1.352782
  C       3.576873     -3.355639     -1.377267
  H       4.308523     -0.472559      1.409041
  H       5.214660     -0.680810     -0.142405
  H       5.346404     -1.918312      1.154736
  H       1.170969     -3.316238      0.971146
  H       1.883804     -2.113118      2.114301
  H       2.693827     -3.695541      1.845936
  H       2.664922     -3.812709     -1.815334
  H       4.195232     -4.174272     -0.953925
  H       4.152253     -2.887784     -2.202804
  H       2.286340     -1.037474     -0.729089
51
Coordinates from ORCA-job my_molecule E -1977.846745769250
  Pt     -2.111044     -0.102019      1.317848
  O      -0.598203      0.487437      2.375243
  O      -4.010037     -0.237291      0.394095
  P       0.838053      1.058920      1.810558
  P      -3.457392     -1.245930     -0.678734
  O      -4.426640     -2.525421     -0.927414
  O      -2.090478     -1.689390      0.024721
  O       0.744241      0.917960      0.170769
  O       2.035558      0.359905      2.408032
  C       0.764784      2.887293      2.102968
  C      -3.221326     -0.588492     -2.379867
  C      -2.411329     -1.632117     -3.174668
  C      -2.439090      0.734013     -2.255736
  C      -4.604060     -0.341522     -3.014344
  C      -0.429223      3.510023      1.356763
  C       0.640583      3.101227      3.622370
  C       2.095866      3.467330      1.580066
  H      -4.619007     -2.984541     -0.082541
  H       1.329967      0.172076     -0.118759
  H      -1.438322     -1.844009     -2.688399
  H      -2.209803     -1.232239     -4.190237
  H      -2.962231     -2.585600     -3.286218
  H      -1.458779      0.598281     -1.755426
  H      -3.012756      1.490129     -1.684371
  H      -2.258198      1.134666     -3.273107
  H      -5.187686     -1.277684     -3.109481
  H      -4.464456      0.082957     -4.030089
  H      -5.198304      0.384143     -2.423406
  H      -1.397686      3.105917      1.716600
  H      -0.361880      3.325496      0.266467
  H      -0.438683      4.609223      1.523195
  H      -0.278157      2.629497      4.025703
  H       0.594252      4.187229      3.847078
  H       1.511330      2.666184      4.151925
  H       2.193493      3.326493      0.483881
  H       2.962490      2.980038      2.068926
  H       2.135925      4.558768      1.792175
  Si      3.130058     -2.077404     -0.043278
  C       4.659747     -1.226319      0.661366
  C       2.091622     -2.862916      1.323453
  C       3.557728     -3.330185     -1.402229
  H       4.323127     -0.494440      1.424413
  H       5.232142     -0.694050     -0.126020
  H       5.338499     -1.953026      1.152850
  H       1.137615     -3.272759      0.932126
  H       1.866967     -2.096979      2.093254
  H       2.648862     -3.690784      1.809279
  H       2.640520     -3.767200     -1.849040
  H       4.160217     -4.163502     -0.984355
  H       4.144627     -2.863875     -2.220111
  H       2.306498     -0.995512     -0.738296
51
Coordinates from ORCA-job my_molecule E -1977.846749569329
  Pt     -2.116267     -0.094956      1.316756
  O      -0.611214      0.510504      2.375613
  O      -4.011930     -0.232933      0.391283
  P       0.830661      1.070134      1.814402
  P      -3.459695     -1.253899     -0.669731
  O      -4.435254     -2.529052     -0.911239
  O      -2.098596     -1.698272      0.045000
  O       0.737306      0.933040      0.173992
  O       2.021693      0.359114      2.410668
  C       0.770476      2.897779      2.113543
  C      -3.211107     -0.612060     -2.375846
  C      -2.397713     -1.664811     -3.158022
  C      -2.424145      0.709631     -2.255971
  C      -4.590390     -0.366421     -3.023048
  C      -0.414194      3.531076      1.361562
  C       0.639071      3.109647      3.634274
  C       2.107772      3.470149      1.601463
  H      -4.633363     -2.978771     -0.063714
  H       1.328670      0.192078     -0.116391
  H      -1.426159     -1.872635     -2.667483
  H      -2.193647     -1.275431     -4.175343
  H      -2.947570     -2.619830     -3.262274
  H      -1.446755      0.572767     -1.752937
  H      -2.994640      1.469507     -1.688705
  H      -2.238324      1.107075     -3.275925
  H      -5.176990     -1.299481     -3.113237
  H      -4.442784      0.047086     -4.041980
  H      -5.185819      0.367425     -2.444085
  H      -1.387451      3.133813      1.716049
  H      -0.342905      3.347227      0.270847
  H      -0.415763      4.629691      1.529829
  H      -0.289147      2.648088      4.032318
  H       0.605832      4.197596      3.861326
  H       1.501155      2.663036      4.168410
  H       2.212685      3.330425      0.506969
  H       2.967689      2.978209      2.097129
  H       2.151665      4.558666      1.815444
  Si      3.120383     -2.059785     -0.060772
  C       4.660362     -1.243687      0.663501
  C       2.060584     -2.843901      1.290716
  C       3.535042     -3.304101     -1.431963
  H       4.333031     -0.518448      1.436857
  H       5.243994     -0.707686     -0.113150
  H       5.325899     -1.988290      1.145886
  H       1.100273     -3.229407      0.890061
  H       1.848120     -2.084334      2.070194
  H       2.599443     -3.689206      1.767039
  H       2.612911     -3.723166     -1.886153
  H       4.124067     -4.150554     -1.021421
  H       4.131441     -2.837495     -2.243078
  H       2.321595     -0.955149     -0.748664
51
Coordinates from ORCA-job my_molecule E -1977.846758303204
  Pt     -2.119558     -0.083751      1.317310
  O      -0.619519      0.533283      2.377018
  O      -4.012090     -0.225514      0.381471
  P       0.827254      1.083243      1.820823
  P      -3.458929     -1.260326     -0.666401
  O      -4.438285     -2.534837     -0.897663
  O      -2.101799     -1.701218      0.057574
  O       0.736296      0.951532      0.179440
  O       2.011966      0.361967      2.417105
  C       0.777246      2.909571      2.127559
  C      -3.203955     -0.637385     -2.377345
  C      -2.394763     -1.701352     -3.145668
  C      -2.414057      0.681686     -2.272236
  C      -4.579043     -0.391211     -3.026951
  C      -0.400070      3.552356      1.372137
  C       0.639853      3.115729      3.648470
  C       2.121003      3.475229      1.623824
  H      -4.639975     -2.976047     -0.046723
  H       1.334539      0.216875     -0.112317
  H      -1.427198     -1.910509     -2.647815
  H      -2.182725     -1.322296     -4.166820
  H      -2.951142     -2.653507     -3.244092
  H      -1.437186      0.548845     -1.764537
  H      -2.985564      1.451632     -1.717909
  H      -2.225883      1.062164     -3.295543
  H      -5.168690     -1.324244     -3.111590
  H      -4.427609      0.015983     -4.047918
  H      -5.171739      0.348780     -2.453361
  H      -1.377084      3.159733      1.720619
  H      -0.325303      3.371575      0.281287
  H      -0.395725      4.649907      1.544104
  H      -0.292364      2.658263      4.038766
  H       0.612440      4.201858      3.879896
  H       1.496015      2.662077      4.186164
  H       2.230510      3.336622      0.529378
  H       2.975469      2.977323      2.122710
  H       2.171250      4.563297      1.840382
  Si      3.113374     -2.040007     -0.074373
  C       4.665254     -1.266085      0.670425
  C       2.029880     -2.821094      1.260194
  C       3.511146     -3.274332     -1.459629
  H       4.349407     -0.548452      1.455182
  H       5.261631     -0.727234     -0.094353
  H       5.314890     -2.031171      1.142088
  H       1.062741     -3.178150      0.849694
  H       1.831549     -2.069246      2.050598
  H       2.547399     -3.685914      1.724972
  H       2.583170     -3.670719     -1.922503
  H       4.082712     -4.136367     -1.057339
  H       4.119326     -2.808859     -2.262833
  H       2.343936     -0.909705     -0.753270
51
Coordinates from ORCA-job my_molecule E -1977.846766462979
  Pt     -2.126503     -0.074781      1.316701
  O      -0.633598      0.553223      2.378567
  O      -4.014018     -0.217693      0.378351
  P       0.817921      1.092466      1.825404
  P      -3.461597     -1.265205     -0.656396
  O      -4.447958     -2.535111     -0.881619
  O      -2.111615     -1.707297      0.080402
  O       0.727651      0.963824      0.183653
  O       1.996890      0.361116      2.420837
  C       0.781444      2.918337      2.137499
  C      -3.192851     -0.659571     -2.372368
  C      -2.380894     -1.733363     -3.125440
  C      -2.398923      0.659575     -2.272388
  C      -4.564702     -0.416895     -3.036040
  C      -0.384626      3.574017      1.375476
  C       0.634181      3.120894      3.657323
  C       2.134793      3.472249      1.644711
  H      -4.657187     -2.969035     -0.027723
  H       1.331269      0.233400     -0.108307
  H      -1.415943     -1.939225     -2.621059
  H      -2.164347     -1.366214     -4.148740
  H      -2.937615     -2.684966     -3.215786
  H      -1.425113      0.527505     -1.760735
  H      -2.969222      1.433908     -1.723569
  H      -2.204786      1.035501     -3.298554
  H      -5.156236     -1.347775     -3.115949
  H      -4.404895     -0.021712     -4.059884
  H      -5.160568      0.331067     -2.475383
  H      -1.368520      3.191404      1.718424
  H      -0.304576      3.392351      0.285060
  H      -0.369548      4.672641      1.547767
  H      -0.309278      2.677637      4.038015
  H       0.623003      4.206488      3.893270
  H       1.478737      2.650914      4.199360
  H       2.253491      3.329771      0.551222
  H       2.980700      2.967938      2.152050
  H       2.192272      4.561630      1.859139
  Si      3.104873     -2.021244     -0.090745
  C       4.665673     -1.281555      0.671074
  C       2.002361     -2.801742      1.228414
  C       3.489553     -3.244943     -1.489196
  H       4.358240     -0.572487      1.467352
  H       5.271473     -0.737691     -0.082741
  H       5.303713     -2.063738      1.130763
  H       1.029222     -3.132754      0.810205
  H       1.816643     -2.058152      2.029715
  H       2.501544     -3.683819      1.680721
  H       2.557185     -3.625186     -1.956202
  H       4.050961     -4.118363     -1.096678
  H       4.103272     -2.777907     -2.286727
  H       2.358053     -0.869430     -0.759244
51
Coordinates from ORCA-job my_molecule E -1977.846772167446
  Pt     -2.130906     -0.060329      1.318705
  O      -0.641476      0.574304      2.382984
  O      -4.014253     -0.205858      0.367994
  P       0.814293      1.104174      1.833750
  P      -3.460555     -1.269037     -0.650663
  O      -4.450759     -2.537886     -0.863819
  O      -2.115710     -1.707198      0.097444
  O       0.726074      0.979489      0.191159
  O       1.987190      0.363798      2.429784
  C       0.787599      2.929188      2.151137
  C      -3.183196     -0.685664     -2.371902
  C      -2.373145     -1.771427     -3.109389
  C      -2.385157      0.630085     -2.286858
  C      -4.550002     -0.442634     -3.041261
  C      -0.369533      3.592928      1.382906
  C       0.632981      3.130179      3.671868
  C       2.146031      3.476692      1.667863
  H      -4.663575     -2.960298     -0.006563
  H       1.334047      0.253194     -0.101704
  H      -1.411185     -1.975403     -2.599105
  H      -2.150414     -1.416465     -4.136006
  H      -2.933843     -2.723029     -3.192107
  H      -1.413286      0.501392     -1.768824
  H      -2.955015      1.414591     -1.752736
  H      -2.186572      0.988422     -3.316548
  H      -5.145162     -1.372131     -3.115361
  H      -4.384376     -0.055393     -4.067596
  H      -5.143026      0.312185     -2.488588
  H      -1.356805      3.215879      1.720255
  H      -0.285595      3.411764      0.292168
  H      -0.348950      4.690372      1.556557
  H      -0.316634      2.694933      4.046090
  H       0.631309      4.216010      3.909433
  H       1.469173      2.651891      4.219765
  H       2.271313      3.333656      0.575476
  H       2.985664      2.969000      2.181754
  H       2.206906      4.564234      1.882876
  Si      3.095343     -2.001244     -0.105115
  C       4.667055     -1.305798      0.675366
  C       1.971224     -2.781465      1.196261
  C       3.462256     -3.209667     -1.521774
  H       4.371735     -0.607533      1.485146
  H       5.284130     -0.757536     -0.065978
  H       5.289548     -2.108413      1.120311
  H       0.991284     -3.080385      0.769707
  H       1.801600     -2.049414      2.011504
  H       2.447817     -3.684129      1.631797
  H       2.524261     -3.567910     -1.995594
  H       4.008561     -4.097721     -1.141693
  H       4.084946     -2.740686     -2.311925
  H       2.376788     -0.823706     -0.758954
51
Coordinates from ORCA-job my_molecule E -1977.846766749603
  Pt     -2.141333     -0.043208      1.317615
  O      -0.654518      0.590122      2.384969
  O      -4.018541     -0.188455      0.357405
  P       0.805127      1.110514      1.839768
  P      -3.465399     -1.267087     -0.644115
  O      -4.461918     -2.532524     -0.848103
  O      -2.127675     -1.704068      0.117611
  O       0.719646      0.987573      0.196814
  O       1.972604      0.363206      2.437659
  C       0.790556      2.935238      2.160714
  C      -3.175657     -0.706080     -2.370902
  C      -2.367050     -1.804247     -3.090145
  C      -2.372670      0.608918     -2.296306
  C      -4.539647     -0.467220     -3.050746
  C      -0.358526      3.610219      1.390254
  C       0.631510      3.133331      3.680337
  C       2.157182      3.471729      1.684117
  H      -4.681291     -2.946947      0.012726
  H       1.332322      0.264422     -0.094938
  H      -1.409513     -2.007805     -2.570320
  H      -2.136257     -1.463871     -4.119624
  H      -2.932632     -2.751251     -3.163695
  H      -1.404117      0.482368     -1.774530
  H      -2.941319      1.400537     -1.771159
  H      -2.168283      0.957988     -3.329381
  H      -5.136174     -1.395625     -3.118413
  H      -4.367771     -0.092457     -4.079253
  H      -5.135191      0.295713     -2.509897
  H      -1.351801      3.242753      1.724345
  H      -0.273042      3.428910      0.300301
  H      -0.327342      4.707935      1.565046
  H      -0.325706      2.709721      4.047621
  H       0.643870      4.217142      3.922031
  H       1.458801      2.642473      4.230367
  H       2.287304      3.325312      0.592626
  H       2.990521      2.958019      2.202456
  H       2.226774      4.560252      1.898075
  Si      3.092962     -1.982197     -0.116727
  C       4.672520     -1.323075      0.679922
  C       1.950876     -2.763091      1.167835
  C       3.446697     -3.176540     -1.548275
  H       4.385219     -0.636526      1.502755
  H       5.297984     -0.768145     -0.049204
  H       5.284039     -2.142636      1.109589
  H       0.965608     -3.033840      0.734560
  H       1.793894     -2.042388      1.995596
  H       2.408555     -3.683068      1.587315
  H       2.504603     -3.518513     -2.025414
  H       3.984021     -4.075200     -1.179961
  H       4.073531     -2.704774     -2.332584
  H       2.396644     -0.783553     -0.756737
51
Coordinates from ORCA-job my_molecule E -1977.846743470939
  Pt     -2.146749     -0.027437      1.320721
  O      -0.660531      0.601146      2.393894
  O      -4.019430     -0.174219      0.350136
  P       0.801926      1.115088      1.849696
  P      -3.466127     -1.266054     -0.637047
  O      -4.465107     -2.531162     -0.829439
  O      -2.133176     -1.698987      0.134070
  O       0.717848      0.992779      0.206456
  O       1.965615      0.362849      2.448902
  C       0.794887      2.940417      2.170265
  C      -3.168924     -0.725542     -2.368387
  C      -2.361244     -1.833839     -3.074625
  C      -2.361778      0.586036     -2.306994
  C      -4.527761     -0.485437     -3.054923
  C      -0.342485      3.621763      1.388272
  C       0.623691      3.141239      3.689253
  C       2.166980      3.468891      1.703969
  H      -4.686965     -2.935298      0.034230
  H       1.330076      0.268760     -0.084781
  H      -1.405062     -2.033223     -2.553394
  H      -2.128246     -1.503820     -4.106768
  H      -2.927948     -2.784255     -3.140082
  H      -1.395167      0.463411     -1.776540
  H      -2.931005      1.387111     -1.797015
  H      -2.151272      0.917431     -3.343203
  H      -5.128398     -1.411641     -3.119554
  H      -4.348898     -0.115557     -4.085947
  H      -5.119708      0.282094     -2.520877
  H      -1.339307      3.262131      1.717572
  H      -0.250692      3.435084      0.298200
  H      -0.305808      4.720532      1.558521
  H      -0.344947      2.735257      4.048381
  H       0.653538      4.226417      3.930845
  H       1.436597      2.634985      4.247328
  H       2.308044      3.314948      0.614256
  H       2.992048      2.954733      2.234841
  H       2.237531      4.558276      1.911228
  Si      3.085895     -1.965002     -0.126967
  C       4.672318     -1.338748      0.681814
  C       1.930646     -2.750741      1.143252
  C       3.426920     -3.141411     -1.576527
  H       4.393830     -0.664785      1.517835
  H       5.303796     -0.776777     -0.036893
  H       5.274200     -2.173204      1.095319
  H       0.939969     -2.994214      0.706012
  H       1.787446     -2.043277      1.984979
  H       2.370917     -3.687272      1.544036
  H       2.480955     -3.471315     -2.054761
  H       3.959750     -4.048512     -1.223056
  H       4.054175     -2.662141     -2.356829
  H       2.407136     -0.747506     -0.749675
51
Coordinates from ORCA-job my_molecule E -1977.846704147135
  Pt     -2.158802     -0.004827      1.320560
  O      -0.668113      0.604150      2.397910
  O      -4.025686     -0.144320      0.333587
  P       0.795195      1.113972      1.855277
  P      -3.473462     -1.252120     -0.635292
  O      -4.477850     -2.514854     -0.815665
  O      -2.145629     -1.682654      0.146676
  O       0.712880      0.989714      0.211634
  O       1.956829      0.361827      2.458172
  C       0.795066      2.939530      2.175406
  C      -3.168153     -0.736059     -2.372298
  C      -2.365651     -1.857749     -3.060570
  C      -2.353897      0.572824     -2.324452
  C      -4.526195     -0.499926     -3.063815
  C      -0.340667      3.625786      1.396072
  C       0.627599      3.140017      3.694590
  C       2.170495      3.462386      1.709025
  H      -4.704767     -2.908678      0.052267
  H       1.324089      0.263261     -0.076838
  H      -1.413169     -2.058102     -2.529453
  H      -2.124868     -1.544193     -4.095951
  H      -2.939736     -2.800358     -3.115249
  H      -1.391186      0.450830     -1.791882
  H      -2.918963      1.381997     -1.824237
  H      -2.138584      0.893390     -3.364033
  H      -5.127032     -1.425979     -3.120550
  H      -4.345796     -0.142173     -4.095648
  H      -5.120601      0.275211     -2.538563
  H      -1.340851      3.272978      1.727078
  H      -0.253492      3.439224      0.306876
  H      -0.296574      4.722994      1.567422
  H      -0.344382      2.743312      4.052001
  H       0.669793      4.222252      3.938392
  H       1.435593      2.626305      4.252418
  H       2.311023      3.305253      0.620420
  H       2.994119      2.947441      2.240931
  H       2.246158      4.550964      1.915004
  Si      3.091561     -1.951844     -0.129882
  C       4.681156     -1.348187      0.689879
  C       1.926988     -2.743733      1.126951
  C       3.427392     -3.113712     -1.591824
  H       4.406487     -0.686719      1.536675
  H       5.315574     -0.777629     -0.018775
  H       5.278818     -2.192793      1.089368
  H       0.933015     -2.966827      0.686413
  H       1.791961     -2.048294      1.979678
  H       2.355472     -3.692366      1.511863
  H       2.479445     -3.439601     -2.068712
  H       3.963221     -4.023858     -1.250007
  H       4.050604     -2.626633     -2.369569
  H       2.423575     -0.721432     -0.739279
51
Coordinates from ORCA-job my_molecule E -1977.846738059521
  Pt     -2.147539     -0.025318      1.321485
  O      -0.658761      0.596719      2.392800
  O      -4.019154     -0.165120      0.344644
  P       0.800932      1.113690      1.846055
  P      -3.465744     -1.259121     -0.639757
  O      -4.466678     -2.522966     -0.831617
  O      -2.133066     -1.693081      0.132635
  O       0.713062      0.990628      0.202259
  O       1.967233      0.364883      2.443832
  C       0.793458      2.938340      2.168655
  C      -3.168322     -0.721659     -2.371998
  C      -2.362175     -1.831926     -3.073840
  C      -2.360230      0.590605     -2.311610
  C      -4.529915     -0.485928     -3.057025
  C      -0.350118      3.618561      1.395376
  C       0.631638      3.135897      3.688795
  C       2.163665      3.469788      1.696641
  H      -4.690132     -2.926453      0.033027
  H       1.324121      0.265684     -0.089476
  H      -1.406870     -2.033233     -2.546386
  H      -2.126013     -1.506993     -4.106862
  H      -2.931900     -2.775063     -3.136477
  H      -1.394874      0.466333     -1.785399
  H      -2.926390      1.390659     -1.798513
  H      -2.151276      0.925869     -3.348055
  H      -5.126933     -1.414201     -3.117540
  H      -4.355660     -0.121835     -4.086559
  H      -5.126798      0.283823     -2.524493
  H      -1.346866      3.257732      1.729117
  H      -0.265764      3.436000      0.305435
  H      -0.312731      4.714750      1.570131
  H      -0.332037      2.724532      4.050973
  H       0.658393      4.217788      3.932906
  H       1.450147      2.634099      4.241909
  H       2.297828      3.319464      0.606419
  H       2.993145      2.956279      2.220552
  H       2.235504      4.556969      1.908181
  Si      3.087320     -1.967059     -0.124612
  C       4.671586     -1.334862      0.683940
  C       1.933968     -2.753940      1.145772
  C       3.433517     -3.145821     -1.570819
  H       4.390690     -0.659874      1.517582
  H       5.301620     -0.773217     -0.035311
  H       5.275952     -2.166618      1.100013
  H       0.944333     -3.000916      0.708496
  H       1.788114     -2.045545      1.985740
  H       2.377093     -3.688540      1.548121
  H       2.488884     -3.479090     -2.049602
  H       3.968562     -4.050651     -1.214375
  H       4.060458     -2.667331     -2.351006
  H       2.404720     -0.752731     -0.750156
51
Coordinates from ORCA-job my_molecule E -1977.846822684236
  Pt     -2.138726     -0.042127      1.317821
  O      -0.646661      0.581938      2.385982
  O      -4.017666     -0.189204      0.358377
  P       0.809576      1.107594      1.837518
  P      -3.463202     -1.266271     -0.644176
  O      -4.456605     -2.534331     -0.847510
  O      -2.123887     -1.701213      0.115405
  O       0.721575      0.985916      0.194948
  O       1.980383      0.363850      2.433548
  C       0.790952      2.932568      2.158545
  C      -3.176869     -0.703462     -2.370622
  C      -2.367295     -1.799361     -3.093602
  C      -2.375519      0.612003     -2.296692
  C      -4.541325     -0.464099     -3.048100
  C      -0.360395      3.605541      1.389725
  C       0.633700      3.130334      3.678647
  C       2.155441      3.472384      1.680357
  H      -4.673514     -2.949603      0.012908
  H       1.332952      0.262233     -0.098766
  H      -1.407753     -2.000466     -2.578273
  H      -2.140322     -1.456523     -4.122870
  H      -2.930162     -2.750341     -3.167296
  H      -1.406332      0.486966     -1.774672
  H      -2.945205      1.403279     -1.772566
  H      -2.172157      0.959667     -3.329912
  H      -5.137613     -1.392635     -3.117796
  H      -4.370066     -0.084871     -4.076409
  H      -5.135317      0.296036     -2.504040
  H      -1.352135      3.236658      1.725211
  H      -0.276569      3.424389      0.299999
  H      -0.331318      4.703409      1.564155
  H      -0.323953      2.708351      4.047081
  H       0.648590      4.214633      3.920609
  H       1.460704      2.637824      4.227744
  H       2.285424      3.324930      0.589202
  H       2.990389      2.961544      2.199028
  H       2.221929      4.561346      1.892730
  Si      3.091291     -1.983682     -0.114152
  C       4.668480     -1.318861      0.682423
  C       1.949127     -2.764519      1.170453
  C       3.449368     -3.179872     -1.543079
  H       4.378621     -0.630620      1.503244
  H       5.293873     -0.764506     -0.047667
  H       5.280947     -2.136037      1.114877
  H       0.964322     -3.036876      0.736648
  H       1.790463     -2.042484      1.996956
  H       2.407391     -3.683278      1.591772
  H       2.508638     -3.526421     -2.019101
  H       3.990099     -4.075998     -1.173004
  H       4.074291     -2.707362     -2.328464
  H       2.392041     -0.788371     -0.757141
51
Coordinates from ORCA-job my_molecule E -1977.846860277225
  Pt     -2.113989     -0.069179      1.322787
  O      -0.623387      0.563178      2.384259
  O      -3.997285     -0.215550      0.373891
  P       0.823252      1.107268      1.825128
  P      -3.441385     -1.271945     -0.650347
  O      -4.428304     -2.542822     -0.868501
  O      -2.094322     -1.709872      0.094512
  O       0.723532      0.986163      0.182133
  O       2.005778      0.374906      2.411686
  C       0.786588      2.931158      2.148122
  C      -3.169089     -0.679735     -2.369563
  C      -2.355467     -1.758765     -3.110315
  C      -2.377847      0.640900     -2.279819
  C      -4.539723     -0.443592     -3.035557
  C      -0.378725      3.588934      1.387650
  C       0.637908      3.125096      3.669968
  C       2.139091      3.489685      1.660265
  H      -4.639526     -2.971019     -0.012563
  H       1.329502      0.261034     -0.117847
  H      -1.391368     -1.960296     -2.599172
  H      -2.135839     -1.401678     -4.137181
  H      -2.912291     -2.707938     -3.192830
  H      -1.404464      0.515290     -1.765712
  H      -2.950644      1.419226     -1.739258
  H      -2.183802      1.007041     -3.308472
  H      -5.127868     -1.377343     -3.110428
  H      -4.380226     -0.054984     -4.059366
  H      -5.139519      0.307348     -2.479596
  H      -1.362516      3.205566      1.730877
  H      -0.301235      3.409888      0.295269
  H      -0.363292      4.685544      1.563839
  H      -0.309410      2.687047      4.044835
  H       0.635770      4.208074      3.913350
  H       1.477306      2.645763      4.211793
  H       2.261471      3.347727      0.566904
  H       2.984271      2.988767      2.171206
  H       2.192439      4.577059      1.875694
  Si      3.075541     -2.010174     -0.105794
  C       4.643909     -1.301195      0.668979
  C       1.954539     -2.787201      1.199986
  C       3.449692     -3.226440     -1.514245
  H       4.345742     -0.595443      1.470236
  H       5.259834     -0.759826     -0.077537
  H       5.268151     -2.097202      1.123145
  H       0.976035     -3.092250      0.775093
  H       1.782338     -2.049981      2.009584
  H       2.434359     -3.685081      1.641715
  H       2.513756     -3.593365     -1.985331
  H       4.001011     -4.109323     -1.128509
  H       4.069984     -2.759270     -2.307267
  H       2.349723     -0.841194     -0.767697
51
Coordinates from ORCA-job my_molecule E -1977.846886246203
  Pt     -2.094639     -0.097951      1.316809
  O      -0.595516      0.534754      2.372268
  O      -3.991078     -0.252024      0.390337
  P       0.840276      1.102331      1.809740
  P      -3.429406     -1.278867     -0.661081
  O      -4.401374     -2.557141     -0.900140
  O      -2.070669     -1.715887      0.063117
  O       0.740353      0.982061      0.168595
  O       2.034518      0.386927      2.394200
  C       0.776430      2.925709      2.130832
  C      -3.176477     -0.644879     -2.368656
  C      -2.353982     -1.696712     -3.144074
  C      -2.397976      0.680980     -2.254202
  C      -4.553549     -0.407198     -3.021582
  C      -0.410527      3.565470      1.387511
  C       0.644515      3.118453      3.653819
  C       2.115313      3.505493      1.625752
  H      -4.602465     -3.003471     -0.051878
  H       1.346754      0.258697     -0.134310
  H      -1.381653     -1.894172     -2.652763
  H      -2.151552     -1.310779     -4.162588
  H      -2.896350     -2.659251     -3.245606
  H      -1.419965      0.553172     -1.749907
  H      -2.973848      1.441016     -1.693632
  H      -2.214918      1.071902     -3.276144
  H      -5.136980     -1.342329     -3.110549
  H      -4.402213      0.004505     -4.041399
  H      -5.151620      0.326832     -2.447737
  H      -1.384726      3.164321      1.737498
  H      -0.340571      3.394615      0.297287
  H      -0.412253      4.661575      1.568777
  H      -0.284043      2.653288      4.043200
  H       0.613830      4.202004      3.894965
  H       1.505195      2.665176      4.184294
  H       2.223044      3.372000      0.531102
  H       2.976258      3.013102      2.119235
  H       2.158208      4.593884      1.847315
  Si      3.075696     -2.050522     -0.086160
  C       4.633063     -1.281462      0.654766
  C       1.984646     -2.817272      1.250743
  C       3.466732     -3.295496     -1.464720
  H       4.321021     -0.553077      1.432285
  H       5.235989     -0.755016     -0.114169
  H       5.275556     -2.047960      1.134281
  H       1.014853     -3.168247      0.840293
  H       1.791973     -2.058806      2.036496
  H       2.495341     -3.683084      1.721071
  H       2.535972     -3.687161     -1.925898
  H       4.031337     -4.160138     -1.057785
  H       4.079086     -2.839364     -2.269220
  H       2.312393     -0.920005     -0.772387
51
Coordinates from ORCA-job my_molecule E -1977.846896852757
  Pt     -2.067963     -0.115823      1.320527
  O      -0.572099      0.520832      2.373890
  O      -3.964445     -0.279331      0.403651
  P       0.855854      1.106097      1.805350
  P      -3.402487     -1.286630     -0.665984
  O      -4.366967     -2.568768     -0.918827
  O      -2.037940     -1.723514      0.046677
  O       0.751881      0.987194      0.164615
  O       2.059947      0.402671      2.384347
  C       0.770084      2.928675      2.125292
  C      -3.160504     -0.627571     -2.366047
  C      -2.335941     -1.664545     -3.154319
  C      -2.391763      0.703632     -2.237615
  C      -4.541734     -0.393606     -3.010573
  C      -0.424351      3.551975      1.379903
  C       0.635089      3.120128      3.648055
  C       2.098324      3.526026      1.618852
  H      -4.563314     -3.028417     -0.075134
  H       1.352760      0.261712     -0.142526
  H      -1.361488     -1.863370     -2.664191
  H      -2.137664     -1.266886     -4.171188
  H      -2.874818     -2.623359     -3.263412
  H      -1.409920      0.577730     -1.739395
  H      -2.972705      1.452040     -1.662948
  H      -2.216395      1.110265     -3.254683
  H      -5.118057     -1.333527     -3.105740
  H      -4.398618      0.027627     -4.026465
  H      -5.144852      0.331095     -2.426789
  H      -1.390487      3.137535      1.732701
  H      -0.352331      3.377711      0.287186
  H      -0.441966      4.649573      1.557003
  H      -0.288968      2.646342      4.038161
  H       0.592458      4.204186      3.888627
  H       1.500252      2.674113      4.177943
  H       2.207906      3.393104      0.523638
  H       2.965192      3.045787      2.113971
  H       2.123902      4.614681      1.838011
  Si      3.053131     -2.074493     -0.081504
  C       4.609959     -1.276719      0.626871
  C       1.989746     -2.836056      1.280818
  C       3.441044     -3.332125     -1.449221
  H       4.299483     -0.536311      1.392476
  H       5.200102     -0.761645     -0.159259
  H       5.263258     -2.027705      1.115368
  H       1.021358     -3.207617      0.887355
  H       1.795284     -2.068127      2.056471
  H       2.518010     -3.686345      1.759686
  H       2.509767     -3.738966     -1.894708
  H       4.018952     -4.186272     -1.038688
  H       4.039382     -2.878645     -2.266370
  H       2.264652     -0.964361     -0.771861
51
Coordinates from ORCA-job my_molecule E -1977.846904819679
  Pt     -2.057120     -0.126239      1.319456
  O      -0.557550      0.507245      2.371590
  O      -3.958074     -0.284553      0.404438
  P       0.863502      1.106416      1.800126
  P      -3.392521     -1.284075     -0.671080
  O      -4.351040     -2.568815     -0.927616
  O      -2.023684     -1.719193      0.034923
  O       0.757457      0.987506      0.159188
  O       2.074792      0.413741      2.376734
  C       0.764378      2.928297      2.121578
  C      -3.158449     -0.615091     -2.368063
  C      -2.329757     -1.643132     -3.166994
  C      -2.394781      0.717285     -2.234474
  C      -4.542471     -0.382680     -3.007676
  C      -0.441329      3.542381      1.386920
  C       0.639149      3.117065      3.645581
  C       2.085809      3.537426      1.606696
  H      -4.542743     -3.031528     -0.086188
  H       1.356474      0.260874     -0.149156
  H      -1.351717     -1.837969     -2.685004
  H      -2.139266     -1.237509     -4.180919
  H      -2.862187     -2.608135     -3.280934
  H      -1.411177      0.591546     -1.738977
  H      -2.975920      1.460215     -1.655515
  H      -2.223640      1.129142     -3.249755
  H      -5.115739     -1.323546     -3.106136
  H      -4.403721      0.044726     -4.021926
  H      -5.145878      0.336429     -2.418606
  H      -1.403394      3.119809      1.744967
  H      -0.376226      3.372704      0.294683
  H      -0.465952      4.637828      1.568641
  H      -0.278006      2.634299      4.041063
  H       0.589084      4.199206      3.888561
  H       1.512285      2.679075      4.168508
  H       2.188499      3.406753      0.510544
  H       2.960675      3.064155      2.094159
  H       2.105174      4.625959      1.828197
  Si      3.047014     -2.091872     -0.074254
  C       4.602101     -1.271594      0.613481
  C       2.001266     -2.848010      1.304056
  C       3.437495     -3.360636     -1.431176
  H       4.289950     -0.523373      1.370943
  H       5.183450     -0.763097     -0.183102
  H       5.264817     -2.010786      1.108011
  H       1.033985     -3.233907      0.921486
  H       1.803829     -2.073243      2.072099
  H       2.541775     -3.686961      1.789355
  H       2.506571     -3.781426     -1.865694
  H       4.027529     -4.204547     -1.016282
  H       4.025521     -2.910103     -2.256957
  H       2.239761     -0.998062     -0.769501
51
Coordinates from ORCA-job my_molecule E -1977.846913610283
  Pt     -2.042568     -0.130003      1.318305
  O      -0.540557      0.497203      2.370323
  O      -3.944409     -0.298036      0.409113
  P       0.875568      1.108706      1.799137
  P      -3.378441     -1.286831     -0.675350
  O      -4.331226     -2.575456     -0.939599
  O      -2.006097     -1.719783      0.024472
  O       0.772121      0.992053      0.158925
  O       2.092489      0.425455      2.375500
  C       0.759176      2.929784      2.119359
  C      -3.150755     -0.605055     -2.368391
  C      -2.321761     -1.625405     -3.174684
  C      -2.391310      0.729964     -2.227640
  C      -4.537233     -0.374287     -3.002779
  C      -0.452607      3.532196      1.384914
  C       0.633752      3.118362      3.643414
  C       2.072437      3.551745      1.602901
  H      -4.520444     -3.046667     -0.100511
  H       1.368613      0.264242     -0.150539
  H      -1.342234     -1.820804     -2.694010
  H      -2.133870     -1.213707     -4.187464
  H      -2.852482     -2.588987     -3.292353
  H      -1.406145      0.604699     -1.736460
  H      -2.973955      1.466514     -1.640711
  H      -2.224272      1.150898     -3.240529
  H      -5.107098     -1.317341     -3.105546
  H      -4.402712      0.060112     -4.014796
  H      -5.142086      0.338682     -2.407396
  H      -1.408648      3.100412      1.744056
  H      -0.386197      3.361554      0.292273
  H      -0.488783      4.628752      1.564282
  H      -0.278719      2.628801      4.040660
  H       0.575025      4.201458      3.884842
  H       1.510631      2.687226      4.166267
  H       2.175761      3.421800      0.507231
  H       2.952233      3.087476      2.090455
  H       2.079643      4.640309      1.823177
  Si      3.036148     -2.106979     -0.070195
  C       4.593244     -1.273162      0.595035
  C       2.008471     -2.857328      1.324735
  C       3.419489     -3.383374     -1.421388
  H       4.284407     -0.518919      1.348115
  H       5.165758     -0.770227     -0.212040
  H       5.262890     -2.004864      1.090920
  H       1.040207     -3.252354      0.954417
  H       1.812844     -2.077384      2.088194
  H       2.558359     -3.688505      1.812747
  H       2.486878     -3.812958     -1.842307
  H       4.019276     -4.220362     -1.006970
  H       3.995300     -2.934880     -2.257045
  H       2.213893     -1.024744     -0.765068
51
Coordinates from ORCA-job my_molecule E -1977.846922644239
  Pt     -2.027711     -0.138837      1.318783
  O      -0.524249      0.484707      2.370639
  O      -3.930939     -0.302462      0.409770
  P       0.884458      1.111515      1.796374
  P      -3.362371     -1.284904     -0.679431
  O      -4.309760     -2.576096     -0.945503
  O      -1.986532     -1.715576      0.015178
  O       0.778265      0.995475      0.155463
  O       2.109346      0.440183      2.369318
  C       0.753076      2.931459      2.118800
  C      -3.141744     -0.595979     -2.370366
  C      -2.310402     -1.609382     -3.183879
  C      -2.387312      0.740888     -2.226707
  C      -4.530719     -0.367917     -3.000663
  C      -0.467274      3.524248      1.390983
  C       0.632371      3.116481      3.643508
  C       2.059999      3.565540      1.597626
  H      -4.494991     -3.048522     -0.107981
  H       1.371596      0.265627     -0.155325
  H      -1.328562     -1.801916     -2.708579
  H      -2.128158     -1.192216     -4.195279
  H      -2.836796     -2.576088     -3.304170
  H      -1.400033      0.617571     -1.737515
  H      -2.971622      1.473381     -1.636621
  H      -2.224139      1.164790     -3.238318
  H      -5.097101     -1.312584     -3.105833
  H      -4.400388      0.070984     -4.011264
  H      -5.137099      0.340248     -2.400965
  H      -1.419268      3.084365      1.754151
  H      -0.404929      3.355943      0.297930
  H      -0.511368      4.619324      1.573044
  H      -0.276867      2.621891      4.042762
  H       0.569821      4.197809      3.888072
  H       1.513418      2.688598      4.161680
  H       2.160588      3.436125      0.501155
  H       2.946014      3.109435      2.081424
  H       2.058655      4.654437      1.818399
  Si      3.022448     -2.122093     -0.065587
  C       4.581439     -1.271320      0.573737
  C       2.016515     -2.866397      1.347495
  C       3.400751     -3.407839     -1.409306
  H       4.276106     -0.510883      1.321601
  H       5.142425     -0.774356     -0.244394
  H       5.260895     -1.994010      1.070241
  H       1.046727     -3.270614      0.991958
  H       1.824050     -2.081090      2.105909
  H       2.577350     -3.689629      1.836718
  H       2.466752     -3.850517     -1.813785
  H       4.014939     -4.235086     -0.995711
  H       3.961054     -2.961345     -2.256158
  H       2.181276     -1.053364     -0.759376
51
Coordinates from ORCA-job my_molecule E -1977.846931073454
  Pt     -2.013061     -0.139904      1.317633
  O      -0.506038      0.475238      2.369968
  O      -3.918131     -0.310144      0.411362
  P       0.897075      1.115402      1.796482
  P      -3.348387     -1.285468     -0.683149
  O      -4.290935     -2.580184     -0.954078
  O      -1.969754     -1.713362      0.007256
  O       0.793717      1.001760      0.155911
  O       2.127576      0.454378      2.369574
  C       0.748202      2.933984      2.118836
  C      -3.132906     -0.589043     -2.371829
  C      -2.300452     -1.597330     -3.190331
  C      -2.381368      0.749512     -2.224214
  C      -4.523818     -0.362745     -2.997974
  C      -0.478419      3.515200      1.392332
  C       0.628070      3.117754      3.643852
  C       2.047027      3.581273      1.596284
  H      -4.475042     -3.058090     -0.117600
  H       1.383766      0.269540     -0.155178
  H      -1.316680     -1.788395     -2.716976
  H      -2.121516     -1.176877     -4.200938
  H      -2.824347     -2.564856     -3.312333
  H      -1.393187      0.626301     -1.738461
  H      -2.965485      1.477496     -1.628792
  H      -2.221474      1.179421     -3.234465
  H      -5.087255     -1.309079     -3.106183
  H      -4.397154      0.081437     -4.006797
  H      -5.131051      0.340499     -2.393628
  H      -1.424909      3.066541      1.756788
  H      -0.415872      3.347115      0.299256
  H      -0.533272      4.610326      1.573501
  H      -0.277547      2.618128      4.044073
  H       0.559762      4.199268      3.888246
  H       1.511913      2.694691      4.161457
  H       2.148389      3.452108      0.500288
  H       2.937980      3.135125      2.080341
  H       2.033381      4.669796      1.815863
  Si      3.009166     -2.135186     -0.062545
  C       4.571742     -1.274232      0.554044
  C       2.022014     -2.874158      1.366547
  C       3.377984     -3.426908     -1.403093
  H       4.271944     -0.509538      1.300300
  H       5.122953     -0.781107     -0.273625
  H       5.258343     -1.991512      1.048112
  H       1.049375     -3.283279      1.024096
  H       1.835079     -2.085134      2.122811
  H       2.590459     -3.692683      1.854706
  H       2.441651     -3.878168     -1.792738
  H       4.002895     -4.247266     -0.992713
  H       3.924315     -2.981658     -2.260107
  H       2.153283     -1.075987     -0.752174
51
Coordinates from ORCA-job my_molecule E -1977.846937658797
  Pt     -1.997302     -0.145643      1.318053
  O      -0.488658      0.463735      2.371042
  O      -3.901647     -0.313421      0.411126
  P       0.907083      1.119462      1.796074
  P      -3.329995     -1.283993     -0.686743
  O      -4.267207     -2.581932     -0.957782
  O      -1.948304     -1.708546     -0.000682
  O       0.802355      1.007409      0.154820
  O       2.145165      0.470838      2.366447
  C       0.742043      2.936581      2.120558
  C      -3.120817     -0.583019     -2.374222
  C      -2.287639     -1.586533     -3.197456
  C      -2.373234      0.757464     -2.225638
  C      -4.513927     -0.359661     -2.996901
  C      -0.491011      3.508400      1.397611
  C       0.623237      3.117311      3.646110
  C       2.035049      3.595743      1.596190
  H      -4.447733     -3.059758     -0.122246
  H       1.388865      0.272703     -0.156951
  H      -1.302383     -1.775632     -2.727654
  H      -2.112695     -1.162767     -4.207724
  H      -2.808978     -2.555309     -3.320134
  H      -1.383166      0.636826     -1.741507
  H      -2.959225      1.482848     -1.628175
  H      -2.216453      1.188702     -3.235358
  H      -5.074318     -1.307584     -3.106904
  H      -4.390730      0.088084     -4.004739
  H      -5.122673      0.339538     -2.389066
  H      -1.433587      3.051968      1.763999
  H      -0.429781      3.341919      0.304289
  H      -0.554386      4.602656      1.580293
  H      -0.280430      2.614055      4.046732
  H       0.551909      4.197997      3.892537
  H       1.509239      2.696479      4.161803
  H       2.136367      3.466987      0.500052
  H       2.930913      3.157777      2.078699
  H       2.011933      4.684480      1.815870
  Si      2.992065     -2.147716     -0.059542
  C       4.559186     -1.275523      0.528858
  C       2.028627     -2.880459      1.387847
  C       3.349452     -3.446858     -1.395514
  H       4.266679     -0.506545      1.273207
  H       5.097224     -0.786612     -0.309348
  H       5.255461     -1.987072      1.018485
  H       1.052416     -3.293808      1.062171
  H       1.849629     -2.087401      2.141442
  H       2.606234     -3.694547      1.872941
  H       2.410815     -3.909341     -1.764605
  H       3.989757     -4.258594     -0.990594
  H       3.876104     -3.003074     -2.264817
  H       2.118469     -1.098611     -0.742954
51
Coordinates from ORCA-job my_molecule E -1977.846936418214
  Pt     -1.981986     -0.145353      1.317868
  O      -0.470574      0.455975      2.371486
  O      -3.888453     -0.317549      0.411380
  P       0.919242      1.125153      1.796921
  P      -3.315218     -1.283855     -0.689118
  O      -4.248899     -2.584461     -0.962788
  O      -1.931522     -1.705613     -0.005278
  O       0.816754      1.015107      0.155616
  O       2.162635      0.486726      2.367348
  C       0.737761      2.940524      2.122179
  C      -3.109679     -0.579170     -2.375678
  C      -2.274933     -1.579511     -3.201858
  C      -2.364390      0.762657     -2.225448
  C      -4.504145     -0.357856     -2.995544
  C      -0.501146      3.501253      1.400909
  C       0.619522      3.118737      3.647803
  C       2.023445      3.612254      1.597088
  H      -4.429707     -3.065354     -0.127234
  H       1.399125      0.276849     -0.155716
  H      -1.287782     -1.765851     -2.734197
  H      -2.103497     -1.154400     -4.211851
  H      -2.793373     -2.550315     -3.324657
  H      -1.373754      0.642469     -1.743695
  H      -2.949950      1.485207     -1.624854
  H      -2.210215      1.197187     -3.234504
  H      -5.061784     -1.307276     -3.107619
  H      -4.383953      0.093527     -4.002009
  H      -5.113882      0.337555     -2.384562
  H      -1.438923      3.036851      1.768873
  H      -0.440520      3.335089      0.307407
  H      -0.573884      4.594829      1.583477
  H      -0.282921      2.613328      4.047988
  H       0.546581      4.198721      3.895912
  H       1.506788      2.699088      4.162204
  H       2.126390      3.482577      0.501132
  H       2.923496      3.184614      2.080901
  H       1.988460      4.700719      1.814871
  Si      2.975518     -2.158655     -0.058065
  C       4.546845     -1.278712      0.508820
  C       2.030811     -2.887472      1.403798
  C       3.322666     -3.461669     -1.393511
  H       4.261321     -0.507346      1.253943
  H       5.074506     -0.791770     -0.337522
  H       5.250272     -1.986656      0.992943
  H       1.050370     -3.301789      1.091181
  H       1.860495     -2.092197      2.157405
  H       2.614140     -3.699852      1.884597
  H       2.381607     -3.932160     -1.748458
  H       3.973489     -4.266891     -0.993833
  H       3.835268     -3.018116     -2.272067
  H       2.087582     -1.117146     -0.733982
51
Coordinates from ORCA-job my_molecule E -1977.846928089174
  Pt     -1.966646     -0.148018      1.318106
  O      -0.453053      0.446513      2.373018
  O      -3.870814     -0.319381      0.409983
  P       0.929897      1.130504      1.799011
  P      -3.295563     -1.282814     -0.692137
  O      -4.223559     -2.587544     -0.964097
  O      -1.908971     -1.699736     -0.011864
  O       0.827921      1.022946      0.157174
  O       2.179801      0.503961      2.367904
  C       0.732134      2.944291      2.126006
  C      -3.095677     -0.576407     -2.378348
  C      -2.260911     -1.574071     -3.206905
  C      -2.353414      0.767199     -2.229057
  C      -4.492099     -0.358422     -2.995326
  C      -0.511220      3.496401      1.405671
  C       0.612618      3.120786      3.652400
  C       2.012629      3.627061      1.601257
  H      -4.401024     -3.066917     -0.128899
  H       1.406579      0.281952     -0.154100
  H      -1.272697     -1.758666     -2.741155
  H      -2.092107     -1.147834     -4.217328
  H      -2.777897     -2.545135     -3.328671
  H      -1.361317      0.649834     -1.748339
  H      -2.940537      1.488512     -1.627890
  H      -2.201389      1.201535     -3.238473
  H      -5.046983     -1.309423     -3.108341
  H      -4.374785      0.095445     -4.001250
  H      -5.103265      0.333820     -2.381877
  H      -1.445456      3.024817      1.773479
  H      -0.449512      3.331651      0.312296
  H      -0.592664      4.589463      1.588960
  H      -0.287871      2.611850      4.052202
  H       0.535840      4.200994      3.900628
  H       1.500924      2.704291      4.167869
  H       2.117151      3.498390      0.505794
  H       2.916444      3.206861      2.084764
  H       1.968329      4.715161      1.819551
  Si      2.955783     -2.168794     -0.056952
  C       4.533233     -1.282835      0.482172
  C       2.035022     -2.892581      1.421616
  C       3.287156     -3.476590     -1.390895
  H       4.257676     -0.509467      1.228652
  H       5.046993     -0.797633     -0.373265
  H       5.245676     -1.988393      0.957465
  H       1.049601     -3.306425      1.126121
  H       1.876325     -2.094914      2.174912
  H       2.625277     -3.704149      1.895646
  H       2.343677     -3.955996     -1.723225
  H       3.953313     -4.274865     -1.000796
  H       3.777471     -3.033464     -2.281288
  H       2.051959     -1.133766     -0.722180
51
Coordinates from ORCA-job my_molecule E -1977.846917278221
  Pt     -1.951873     -0.145950      1.318346
  O      -0.436122      0.440324      2.373803
  O      -3.858377     -0.320848      0.409570
  P       0.941291      1.136646      1.799782
  P      -3.281913     -1.282462     -0.693076
  O      -4.207919     -2.588916     -0.965709
  O      -1.894033     -1.696889     -0.013431
  O       0.841158      1.030905      0.157610
  O       2.195661      0.518903      2.368601
  C       0.729489      2.948534      2.128332
  C      -3.084255     -0.575340     -2.379558
  C      -2.248231     -1.571655     -3.209500
  C      -2.343570      0.769382     -2.230609
  C      -4.481545     -0.359273     -2.994817
  C      -0.518753      3.491179      1.409812
  C       0.610375      3.121213      3.654299
  C       2.004156      3.642027      1.603684
  H      -4.387089     -3.069556     -0.129506
  H       1.414791      0.285213     -0.152535
  H      -1.258405     -1.753033     -2.746064
  H      -2.082896     -1.145540     -4.220211
  H      -2.762542     -2.545251     -3.329980
  H      -1.351146      0.652861     -1.751422
  H      -2.930426      1.489559     -1.628118
  H      -2.193606      1.204578     -3.239905
  H      -5.034066     -1.311524     -3.109275
  H      -4.366533      0.097100     -3.999732
  H      -5.093657      0.330129     -2.379287
  H      -1.449256      3.013111      1.779362
  H      -0.458227      3.326583      0.316053
  H      -0.607386      4.583197      1.593489
  H      -0.291947      2.613811      4.052212
  H       0.536993      4.199972      3.906070
  H       1.498039      2.701268      4.167683
  H       2.111210      3.511313      0.508138
  H       2.910969      3.231353      2.089483
  H       1.949498      4.730225      1.819391
  Si      2.937926     -2.176692     -0.056722
  C       4.518331     -1.283705      0.465417
  C       2.033005     -2.898434      1.433031
  C       3.262171     -3.486310     -1.391778
  H       4.249120     -0.510176      1.214656
  H       5.022349     -0.797886     -0.395753
  H       5.237545     -1.986841      0.933452
  H       1.042701     -3.309650      1.148541
  H       1.884440     -2.100017      2.187985
  H       2.626237     -3.711074      1.901049
  H       2.317535     -3.975340     -1.711102
  H       3.940004     -4.277066     -1.008241
  H       3.738130     -3.041576     -2.290120
  H       2.020649     -1.148383     -0.713395
51
Coordinates from ORCA-job my_molecule E -1977.846893618582
  Pt     -1.936937     -0.146213      1.318406
  O      -0.418296      0.432734      2.375327
  O      -3.840608     -0.320760      0.407322
  P       0.952690      1.142935      1.803263
  P      -3.262070     -1.281760     -0.695067
  O      -4.182713     -2.592774     -0.964077
  O      -1.871558     -1.690441     -0.018204
  O       0.854260      1.040735      0.160686
  O       2.212372      0.535698      2.371261
  C       0.725420      2.953026      2.133729
  C      -3.069215     -0.576075     -2.382232
  C      -2.233488     -1.571972     -3.212238
  C      -2.330428      0.770100     -2.236189
  C      -4.468187     -0.363508     -2.995114
  C      -0.525755      3.488157      1.414567
  C       0.603710      3.124575      3.660784
  C       1.995319      3.656669      1.610999
  H      -4.359394     -3.070041     -0.127410
  H       1.423374      0.291693     -0.148991
  H      -1.242662     -1.751309     -2.749450
  H      -2.069907     -1.147164     -4.224162
  H      -2.747045     -2.545399     -3.329786
  H      -1.337026      0.656278     -1.757458
  H      -2.918091      1.490427     -1.634530
  H      -2.181649      1.203642     -3.246726
  H      -5.018258     -1.317321     -3.109693
  H      -4.355577      0.094324     -3.999842
  H      -5.081567      0.323633     -2.378006
  H      -1.453095      3.003753      1.782662
  H      -0.462942      3.325017      0.321128
  H      -0.622532      4.579806      1.598627
  H      -0.297624      2.615215      4.057632
  H       0.528027      4.204368      3.911890
  H       1.491059      2.706723      4.176932
  H       2.105428      3.527020      0.516367
  H       2.904703      3.253071      2.098157
  H       1.931455      4.744019      1.826996
  Si      2.915803     -2.183731     -0.057869
  C       4.502152     -1.288245      0.440328
  C       2.032132     -2.902307      1.445336
  C       3.223997     -3.495445     -1.393658
  H       4.243791     -0.515335      1.193684
  H       4.992794     -0.801249     -0.427576
  H       5.229226     -1.991614      0.896624
  H       1.035937     -3.308276      1.176270
  H       1.897706     -2.103353      2.202103
  H       2.628833     -3.717846      1.904158
  H       2.277864     -3.992096     -1.691256
  H       3.916247     -4.279955     -1.021683
  H       3.677454     -3.049948     -2.302183
  H       1.984871     -1.159480     -0.701836
51
Coordinates from ORCA-job my_molecule E -1977.846921299779
  Pt     -1.926673     -0.141444      1.317038
  O      -0.405749      0.426399      2.373729
  O      -3.833156     -0.317003      0.404746
  P       0.961723      1.144188      1.800820
  P      -3.256357     -1.280835     -0.695312
  O      -4.179306     -2.591166     -0.961094
  O      -1.865503     -1.689014     -0.017774
  O       0.862298      1.046617      0.157548
  O       2.224019      0.539340      2.365693
  C       0.729108      2.952658      2.137018
  C      -3.064173     -0.579608     -2.384804
  C      -2.230005     -1.578235     -3.214190
  C      -2.323819      0.766152     -2.243087
  C      -4.463623     -0.366838     -2.996420
  C      -0.524470      3.485663      1.421145
  C       0.608885      3.117068      3.663552
  C       1.997157      3.661508      1.615267
  H      -4.359529     -3.067159     -0.121766
  H       1.424709      0.292016     -0.152331
  H      -1.238077     -1.755569     -2.754378
  H      -2.069566     -1.156104     -4.227417
  H      -2.743148     -2.553785     -3.327968
  H      -1.330376      0.652496     -1.765136
  H      -2.910068      1.488891     -1.642793
  H      -2.176177      1.196381     -3.254665
  H      -5.013330     -1.320694     -3.111153
  H      -4.352422      0.091764     -4.000799
  H      -5.076461      0.319641     -2.378285
  H      -1.450566      2.998676      1.790703
  H      -0.464294      3.324189      0.326787
  H      -0.622684      4.576016      1.607844
  H      -0.297988      2.614666      4.056716
  H       0.544259      4.194324      3.921388
  H       1.492665      2.688248      4.176225
  H       2.108626      3.530946      0.520015
  H       2.907650      3.261793      2.103125
  H       1.929414      4.749109      1.830913
  Si      2.901672     -2.181434     -0.058854
  C       4.485319     -1.276297      0.435516
  C       2.020957     -2.897540      1.448038
  C       3.216953     -3.496003     -1.391926
  H       4.227046     -0.505240      1.191558
  H       4.971014     -0.785581     -0.433344
  H       5.217515     -1.976824      0.887485
  H       1.020572     -3.297115      1.182287
  H       1.893908     -2.098003      2.206009
  H       2.614453     -3.716700      1.904099
  H       2.274354     -4.008620     -1.679867
  H       3.923657     -4.268399     -1.022595
  H       3.657920     -3.048012     -2.306493
  H       1.961666     -1.165525     -0.702815
51
Coordinates from ORCA-job my_molecule E -1977.846932156523
  Pt     -1.913377     -0.140715      1.314272
  O      -0.387519      0.417353      2.372561
  O      -3.818194     -0.312036      0.400463
  P       0.974346      1.146863      1.801573
  P      -3.242211     -1.279648     -0.697211
  O      -4.163430     -2.592930     -0.955035
  O      -1.849206     -1.683598     -0.022591
  O       0.875553      1.056609      0.157940
  O       2.240376      0.547417      2.363749
  C       0.730928      2.953041      2.143469
  C      -3.054025     -0.584918     -2.389343
  C      -2.223053     -1.587727     -3.216459
  C      -2.311846      0.761043     -2.254143
  C      -4.454913     -0.373409     -2.997670
  C      -0.523670      3.483390      1.427401
  C       0.608424      3.113211      3.671347
  C       1.995737      3.669487      1.626003
  H      -4.342604     -3.061913     -0.113657
  H       1.429973      0.296446     -0.152799
  H      -1.229857     -1.763813     -2.757242
  H      -2.064294     -1.170772     -4.232320
  H      -2.737711     -2.562028     -3.323555
  H      -1.317751      0.648650     -1.776903
  H      -2.896493      1.486907     -1.655880
  H      -2.164605      1.187151     -3.268124
  H      -5.004063     -1.328034     -3.111472
  H      -4.345872      0.085894     -4.002174
  H      -5.067052      0.312516     -2.378018
  H      -1.448068      2.992725      1.794989
  H      -0.461855      3.324649      0.333075
  H      -0.626137      4.573708      1.615856
  H      -0.302900      2.616375      4.061735
  H       0.551760      4.191796      3.931658
  H       1.487917      2.676923      4.185598
  H       2.112364      3.539744      0.531648
  H       2.906498      3.275037      2.117949
  H       1.920052      4.756317      1.841247
  Si      2.881005     -2.179228     -0.061531
  C       4.465634     -1.269901      0.419585
  C       2.010388     -2.891745      1.452846
  C       3.191353     -3.496404     -1.392068
  H       4.213625     -0.501730      1.180124
  H       4.941605     -0.775438     -0.452305
  H       5.203873     -1.970333      0.861950
  H       1.004090     -3.281219      1.196126
  H       1.896498     -2.092292      2.212903
  H       2.600776     -3.716895      1.902181
  H       2.252049     -4.022964     -1.659679
  H       3.915537     -4.256834     -1.031490
  H       3.609297     -3.047268     -2.316031
  H       1.931046     -1.169459     -0.700549
51
Coordinates from ORCA-job my_molecule E -1977.846963963227
  Pt     -1.908437     -0.135723      1.312596
  O      -0.382099      0.414055      2.370593
  O      -3.812932     -0.305203      0.396199
  P       0.978267      1.146643      1.800704
  P      -3.239943     -1.277855     -0.697830
  O      -4.164923     -2.589490     -0.950562
  O      -1.847036     -1.682444     -0.022081
  O       0.878652      1.062066      0.156355
  O       2.245425      0.546739      2.359705
  C       0.734487      2.952127      2.148626
  C      -3.051648     -0.590013     -2.392801
  C      -2.224072     -1.597322     -3.217999
  C      -2.305884      0.753712     -2.263717
  C      -4.453079     -0.377193     -3.000716
  C      -0.521079      3.484299      1.435898
  C       0.614072      3.107448      3.677365
  C       1.999217      3.670429      1.631155
  H      -4.345658     -3.056136     -0.107077
  H       1.428130      0.298760     -0.156003
  H      -1.230622     -1.773596     -2.760804
  H      -2.066386     -1.183798     -4.235316
  H      -2.740751     -2.571849     -3.321213
  H      -1.312048      0.640640     -1.785935
  H      -2.888329      1.483814     -1.669370
  H      -2.157972      1.174071     -3.279644
  H      -5.003666     -1.330652     -3.112766
  H      -4.344295      0.079999     -4.005907
  H      -5.064067      0.310576     -2.381883
  H      -1.444935      2.992340      1.803216
  H      -0.461158      3.329057      0.340901
  H      -0.623722      4.573251      1.628112
  H      -0.297322      2.611754      4.066250
  H       0.560502      4.184441      3.940870
  H       1.492562      2.667909      4.190593
  H       2.113217      3.544450      0.536420
  H       2.911303      3.274340      2.119001
  H       1.925222      4.756205      1.851192
  Si      2.872814     -2.174374     -0.063295
  C       4.455105     -1.260293      0.415359
  C       2.001822     -2.884288      1.452107
  C       3.188300     -3.494564     -1.389731
  H       4.202533     -0.493339      1.177131
  H       4.927928     -0.763293     -0.456719
  H       5.196607     -1.959611      0.855001
  H       0.993404     -3.269176      1.196572
  H       1.891907     -2.083955      2.212211
  H       2.589306     -3.712338      1.900283
  H       2.252389     -4.031376     -1.650467
  H       3.921448     -4.246673     -1.029437
  H       3.598107     -3.045481     -2.317718
  H       1.919339     -1.169088     -0.705422
51
Coordinates from ORCA-job my_molecule E -1977.846995627556
  Pt     -1.900965     -0.133459      1.301588
  O      -0.368128      0.404833      2.363592
  O      -3.807118     -0.292572      0.385765
  P       0.990042      1.143446      1.798072
  P      -3.240100     -1.275028     -0.703122
  O      -4.169388     -2.585985     -0.942100
  O      -1.845752     -1.678726     -0.030985
  O       0.893037      1.071203      0.153307
  O       2.257030      0.540078      2.354293
  C       0.744613      2.946506      2.156700
  C      -3.055810     -0.599965     -2.402872
  C      -2.237831     -1.617854     -3.224313
  C      -2.302883      0.742447     -2.285358
  C      -4.458454     -0.383550     -3.003926
  C      -0.510665      3.484517      1.448091
  C       0.625801      3.093059      3.686176
  C       2.009165      3.666634      1.643884
  H      -4.348139     -3.044742     -0.095568
  H       1.430964      0.300061     -0.161476
  H      -1.243324     -1.796737     -2.768546
  H      -2.081466     -1.213254     -4.245466
  H      -2.760933     -2.588609     -3.317102
  H      -1.308636      0.628861     -1.809299
  H      -2.881347      1.480458     -1.694744
  H      -2.154572      1.154861     -3.304912
  H      -5.012165     -1.336331     -3.113406
  H      -4.352102      0.074093     -4.009528
  H      -5.064089      0.306240     -2.382653
  H      -1.435309      2.992632      1.814040
  H      -0.451778      3.334745      0.352305
  H      -0.610774      4.574000      1.645507
  H      -0.293492      2.607448      4.073072
  H       0.587878      4.170226      3.956226
  H       1.498300      2.638518      4.196475
  H       2.125243      3.544040      0.548459
  H       2.920106      3.268270      2.132576
  H       1.934230      4.752373      1.866788
  Si      2.863763     -2.161286     -0.064611
  C       4.438901     -1.238036      0.417031
  C       1.984825     -2.865996      1.449330
  C       3.193718     -3.486961     -1.381286
  H       4.182236     -0.474933      1.181111
  H       4.909230     -0.735923     -0.453592
  H       5.183711     -1.934429      0.854528
  H       0.972829     -3.240200      1.191522
  H       1.880481     -2.065049      2.209709
  H       2.563014     -3.699954      1.898133
  H       2.267641     -4.046051     -1.627785
  H       3.946030     -4.219412     -1.020553
  H       3.585457     -3.038524     -2.317091
  H       1.906975     -1.165983     -0.717983
51
Coordinates from ORCA-job my_molecule E -1977.847006767566
  Pt     -1.895165     -0.121458      1.297385
  O      -0.363571      0.398232      2.359574
  O      -3.797924     -0.272626      0.376290
  P       0.994150      1.139561      1.796991
  P      -3.241167     -1.267171     -0.705519
  O      -4.180691     -2.573481     -0.931727
  O      -1.846988     -1.674065     -0.032931
  O       0.897461      1.079330      0.150643
  O       2.261666      0.533155      2.348656
  C       0.751929      2.942185      2.167115
  C      -3.057398     -0.608292     -2.411784
  C      -2.250035     -1.638436     -3.228898
  C      -2.292145      0.725757     -2.309034
  C      -4.461591     -0.385546     -3.011609
  C      -0.504237      3.485597      1.465000
  C       0.637722      3.080015      3.698968
  C       2.016416      3.664535      1.654066
  H      -4.361200     -3.026323     -0.080670
  H       1.421720      0.300091     -0.167821
  H      -1.254970     -1.820517     -2.777633
  H      -2.095413     -1.242405     -4.253446
  H      -2.780370     -2.607868     -3.312630
  H      -1.298991      0.607412     -1.829993
  H      -2.862420      1.474809     -1.728758
  H      -2.140129      1.123762     -3.333514
  H      -5.021123     -1.333974     -3.116260
  H      -4.355385      0.066167     -4.019215
  H      -5.063044      0.310419     -2.392183
  H      -1.427656      2.991693      1.829997
  H      -0.449220      3.343801      0.367582
  H      -0.604108      4.572086      1.670520
  H      -0.280180      2.595493      4.083905
  H       0.604040      4.154604      3.974380
  H       1.509078      2.620445      4.207116
  H       2.126041      3.552227      0.557779
  H       2.929229      3.260343      2.133686
  H       1.946227      4.746815      1.888573
  Si      2.856240     -2.151118     -0.066406
  C       4.423715     -1.215836      0.411310
  C       1.974916     -2.851788      1.448072
  C       3.200205     -3.483264     -1.372492
  H       4.162385     -0.454551      1.175251
  H       4.888281     -0.710173     -0.459933
  H       5.174979     -1.907424      0.847108
  H       0.961635     -3.222051      1.190343
  H       1.872610     -2.048680      2.207087
  H       2.549612     -3.688238      1.897504
  H       2.286783     -4.070326     -1.596533
  H       3.978532     -4.192184     -1.016422
  H       3.565072     -3.034810     -2.318968
  H       1.894478     -1.165930     -0.730521
51
Coordinates from ORCA-job my_molecule E -1977.847005754914
  Pt     -1.893908     -0.117920      1.284337
  O      -0.357687      0.392883      2.352471
  O      -3.800019     -0.256724      0.363417
  P       1.000975      1.135721      1.796724
  P      -3.250415     -1.261680     -0.713002
  O      -4.196506     -2.565038     -0.926250
  O      -1.855552     -1.669895     -0.043140
  O       0.910548      1.085798      0.150198
  O       2.265757      0.524245      2.349747
  C       0.760446      2.936643      2.174723
  C      -3.070142     -0.615670     -2.423951
  C      -2.274901     -1.657322     -3.237940
  C      -2.295518      0.715520     -2.332666
  C      -4.474996     -0.386108     -3.016435
  C      -0.495875      3.486204      1.477806
  C       0.650063      3.068322      3.707083
  C       2.025341      3.658348      1.662699
  H      -4.375413     -3.010719     -0.071969
  H       1.424293      0.299799     -0.169992
  H      -1.279534     -1.845014     -2.788504
  H      -2.120870     -1.269361     -4.265647
  H      -2.813645     -2.621733     -3.312578
  H      -1.302715      0.594990     -1.855369
  H      -2.861372      1.473525     -1.756361
  H      -2.142524      1.105174     -3.360169
  H      -5.039999     -1.332567     -3.117919
  H      -4.370686      0.065371     -4.024747
  H      -5.068936      0.313338     -2.394611
  H      -1.419751      2.992425      1.841662
  H      -0.442608      3.350544      0.379836
  H      -0.593129      4.572609      1.688991
  H      -0.269112      2.585351      4.092986
  H       0.621048      4.142523      3.986116
  H       1.520604      2.603761      4.211921
  H       2.129977      3.553681      0.565027
  H       2.938821      3.247092      2.135248
  H       1.960054      4.739721      1.905372
  Si      2.861847     -2.141264     -0.064168
  C       4.422134     -1.198574      0.420311
  C       1.969111     -2.837936      1.446072
  C       3.221387     -3.478102     -1.361294
  H       4.153855     -0.438980      1.183651
  H       4.887931     -0.690495     -0.449166
  H       5.174346     -1.886626      0.859042
  H       0.955896     -3.204935      1.182236
  H       1.864500     -2.033742      2.203819
  H       2.537890     -3.675845      1.899881
  H       2.320956     -4.091859     -1.566237
  H       4.023165     -4.163481     -1.010350
  H       3.562212     -3.029284     -2.316568
  H       1.902656     -1.162713     -0.742339
51
Coordinates from ORCA-job my_molecule E -1977.847024844073
  Pt     -1.895243     -0.123431      1.291380
  O      -0.359226      0.398050      2.357293
  O      -3.802012     -0.271185      0.371550
  P       0.998164      1.140758      1.798386
  P      -3.243935     -1.267717     -0.708665
  O      -4.182891     -2.574487     -0.932261
  O      -1.849328     -1.673315     -0.036624
  O       0.905156      1.082496      0.152494
  O       2.264516      0.533850      2.352412
  C       0.754060      2.942263      2.169111
  C      -3.061466     -0.611171     -2.415520
  C      -2.256329     -1.643208     -3.231957
  C      -2.296566      0.725421     -2.314112
  C      -4.465351     -0.387858     -3.011822
  C      -0.501747      3.486794      1.466947
  C       0.639492      3.079967      3.700503
  C       2.018748      3.664089      1.657059
  H      -4.362164     -3.025354     -0.080922
  H       1.428925      0.302460     -0.165438
  H      -1.261337     -1.826688     -2.779741
  H      -2.101288     -1.248882     -4.257112
  H      -2.788334     -2.610498     -3.313642
  H      -1.303198      0.608688     -1.837958
  H      -2.868359      1.475359     -1.731987
  H      -2.146060      1.124149     -3.338389
  H      -5.025367     -1.337183     -3.116322
  H      -4.360122      0.065715     -4.019207
  H      -5.064303      0.307601     -2.390726
  H      -1.425741      2.993104      1.830878
  H      -0.445492      3.345892      0.369977
  H      -0.601254      4.574208      1.672780
  H      -0.278556      2.594323      4.086502
  H       0.604714      4.155374      3.975225
  H       1.511134      2.621352      4.208869
  H       2.127520      3.552999      0.560380
  H       2.931729      3.257967      2.135049
  H       1.949742      4.746986      1.892906
  Si      2.858274     -2.149720     -0.065426
  C       4.425741     -1.215478      0.414986
  C       1.974273     -2.850288      1.447664
  C       3.203367     -3.481492     -1.371725
  H       4.164016     -0.455179      1.180152
  H       4.891371     -0.708608     -0.455355
  H       5.176113     -1.907776      0.850284
  H       0.960428     -3.218686      1.188462
  H       1.872489     -2.047816      2.207358
  H       2.547098     -3.687813      1.897062
  H       2.289136     -4.067604     -1.599921
  H       3.978900     -4.191040     -1.013009
  H       3.572653     -3.033323     -2.317130
  H       1.897914     -1.164064     -0.730699
51
Coordinates from ORCA-job my_molecule E -1977.847054556075
  Pt     -1.900297     -0.124801      1.296815
  O      -0.369336      0.402031      2.359818
  O      -3.803477     -0.277762      0.377991
  P       0.990204      1.140125      1.797593
  P      -3.244774     -1.269038     -0.706155
  O      -4.181357     -2.576546     -0.935270
  O      -1.850543     -1.675224     -0.034537
  O       0.895319      1.075709      0.151577
  O       2.256130      0.533258      2.352550
  C       0.749575      2.943298      2.163611
  C      -3.061612     -0.605092     -2.410329
  C      -2.252590     -1.632077     -3.229423
  C      -2.298969      0.731197     -2.303430
  C      -4.465408     -0.383225     -3.009267
  C      -0.506216      3.486851      1.460727
  C       0.635264      3.084269      3.694319
  C       2.014905      3.662828      1.650165
  H      -4.359127     -3.031906     -0.086169
  H       1.424243      0.299007     -0.165156
  H      -1.257802     -1.814576     -2.777132
  H      -2.097192     -1.233092     -4.252821
  H      -2.781831     -2.601081     -3.315967
  H      -1.305606      0.613816     -1.824576
  H      -2.871427      1.477652     -1.720723
  H      -2.146942      1.133018     -3.326833
  H      -5.023948     -1.332787     -3.114647
  H      -4.359468      0.069837     -4.016405
  H      -5.067209      0.311626     -2.389071
  H      -1.430865      2.994394      1.826354
  H      -0.450532      3.343097      0.363697
  H      -0.604459      4.574754      1.664416
  H      -0.281891      2.596782      4.081614
  H       0.597548      4.159859      3.967765
  H       1.508874      2.628557      4.201654
  H       2.124723      3.548899      0.553458
  H       2.926891      3.257125      2.130640
  H       1.945883      4.746523      1.882654
  Si      2.865045     -2.154432     -0.064564
  C       4.434178     -1.222992      0.416789
  C       1.982638     -2.856988      1.448175
  C       3.205977     -3.484684     -1.373232
  H       4.172072     -0.460745      1.179578
  H       4.902283     -0.719239     -0.453713
  H       5.182462     -1.915434      0.855513
  H       0.971447     -3.231731      1.188548
  H       1.875850     -2.054307      2.206643
  H       2.559906     -3.690587      1.899276
  H       2.287131     -4.057525     -1.611871
  H       3.969168     -4.205430     -1.010057
  H       3.588425     -3.037927     -2.313374
  H       1.906734     -1.165281     -0.727216
51
Coordinates from ORCA-job my_molecule E -1977.847071541387
  Pt     -1.910499     -0.131073      1.301365
  O      -0.379553      0.408240      2.363583
  O      -3.817064     -0.287861      0.384837
  P       0.982301      1.139642      1.798692
  P      -3.251964     -1.272193     -0.703191
  O      -4.185520     -2.580090     -0.943438
  O      -1.858954     -1.679628     -0.029048
  O       0.885466      1.066138      0.153774
  O       2.246697      0.532232      2.356327
  C       0.745457      2.944484      2.155914
  C      -3.065522     -0.598478     -2.403491
  C      -2.249078     -1.617685     -3.225179
  C      -2.309695      0.741450     -2.286403
  C      -4.467682     -0.378423     -3.006139
  C      -0.508091      3.486311      1.447189
  C       0.627893      3.093326      3.686025
  C       2.012228      3.659642      1.640192
  H      -4.364402     -3.041504     -0.096992
  H       1.423379      0.295208     -0.161005
  H      -1.254762     -1.798618     -2.770207
  H      -2.092258     -1.212721     -4.245794
  H      -2.773676     -2.588098     -3.319127
  H      -1.316483      0.625595     -1.809517
  H      -2.887148      1.481220     -1.697137
  H      -2.160327      1.152191     -3.305536
  H      -5.024588     -1.328770     -3.114188
  H      -4.359626      0.076331     -4.012880
  H      -5.071370      0.314248     -2.386740
  H      -1.433092      2.996190      1.812657
  H      -0.449828      3.337392      0.350977
  H      -0.606424      4.574982      1.645398
  H      -0.284546      2.599908      4.074566
  H       0.579329      4.170007      3.953310
  H       1.504724      2.647774      4.197167
  H       2.121467      3.542427      0.544044
  H       2.923461      3.253893      2.121521
  H       1.945498      4.743694      1.869545
  Si      2.878418     -2.160544     -0.062427
  C       4.450434     -1.235583      0.425048
  C       1.995407     -2.868168      1.447580
  C       3.214714     -3.486080     -1.377934
  H       4.187615     -0.470873      1.185520
  H       4.924696     -0.734976     -0.444412
  H       5.193896     -1.929831      0.868823
  H       0.988098     -3.251488      1.184977
  H       1.881063     -2.066301      2.205672
  H       2.577842     -3.696900      1.900868
  H       2.287006     -4.035510     -1.640641
  H       3.953533     -4.227750     -1.006606
  H       3.625721     -3.039533     -2.306857
  H       1.925812     -1.163847     -0.720682
51
Coordinates from ORCA-job my_molecule E -1977.847087294988
  Pt     -1.916436     -0.131646      1.303485
  O      -0.388703      0.410897      2.362949
  O      -3.819641     -0.292365      0.387808
  P       0.975187      1.138151      1.796641
  P      -3.255368     -1.273532     -0.702807
  O      -4.186972     -2.582016     -0.945178
  O      -1.862501     -1.681074     -0.029847
  O       0.877799      1.060548      0.151465
  O       2.238577      0.529854      2.355466
  C       0.742496      2.943895      2.151455
  C      -3.069346     -0.594234     -2.401008
  C      -2.252578     -1.610152     -3.225653
  C      -2.313320      0.744977     -2.280254
  C      -4.471654     -0.374897     -3.003495
  C      -0.510818      3.487996      1.443928
  C       0.625993      3.094049      3.680645
  C       2.011441      3.655272      1.635774
  H      -4.362663     -3.045776     -0.100786
  H       1.420138      0.292104     -0.162025
  H      -1.258894     -1.791797     -2.771815
  H      -2.095575     -1.201068     -4.245091
  H      -2.776613     -2.581102     -3.322903
  H      -1.320398      0.627900     -1.800123
  H      -2.890074      1.482933     -1.691750
  H      -2.160588      1.157552     -3.300040
  H      -5.027504     -1.326101     -3.111426
  H      -4.364148      0.078862     -4.009673
  H      -5.077350      0.317846     -2.384034
  H      -1.438267      3.000256      1.810413
  H      -0.453353      3.338527      0.348294
  H      -0.605512      4.577432      1.642108
  H      -0.287116      2.599658      4.071062
  H       0.576855      4.171083      3.947947
  H       1.504154      2.649314      4.189637
  H       2.121284      3.536842      0.539512
  H       2.921367      3.246909      2.118151
  H       1.947208      4.740836      1.863655
  Si      2.887426     -2.162128     -0.060934
  C       4.459677     -1.238926      0.428750
  C       2.003632     -2.870056      1.447644
  C       3.222670     -3.487617     -1.375785
  H       4.195061     -0.472731      1.186687
  H       4.936434     -0.740858     -0.440055
  H       5.201492     -1.932970      0.876111
  H       0.998947     -3.258685      1.183746
  H       1.883856     -2.067410      2.203693
  H       2.589333     -3.695128      1.903682
  H       2.289705     -4.017779     -1.659094
  H       3.938862     -4.242771     -0.991834
  H       3.659035     -3.047194     -2.295522
  H       1.936767     -1.163682     -0.719578
51
Coordinates from ORCA-job my_molecule E -1977.847102184065
  Pt     -1.925299     -0.133396      1.304954
  O      -0.398078      0.415409      2.364066
  O      -3.830055     -0.294256      0.390609
  P       0.968663      1.136029      1.796955
  P      -3.263279     -1.273744     -0.700840
  O      -4.195331     -2.581256     -0.948540
  O      -1.871598     -1.683413     -0.025700
  O       0.870150      1.053972      0.152370
  O       2.230011      0.524847      2.357222
  C       0.741664      2.943321      2.147507
  C      -3.074994     -0.591603     -2.397604
  C      -2.254742     -1.605183     -3.222516
  C      -2.321877      0.748676     -2.273473
  C      -4.476422     -0.371768     -3.002658
  C      -0.509661      3.488181      1.437060
  C       0.624123      3.097287      3.676705
  C       2.011748      3.651022      1.630592
  H      -4.371254     -3.049669     -0.105447
  H       1.416774      0.288617     -0.160367
  H      -1.260861     -1.786234     -2.766471
  H      -2.096444     -1.194670     -4.240727
  H      -2.777093     -2.576222     -3.322775
  H      -1.329162      0.632542     -1.794400
  H      -2.901648      1.484997     -1.683163
  H      -2.170951      1.163293     -3.290771
  H      -5.033310     -1.321860     -3.110954
  H      -4.366531      0.082114     -4.009705
  H      -5.081236      0.321289     -2.384659
  H      -1.437039      3.002449      1.803278
  H      -0.451428      3.335865      0.341102
  H      -0.603410      4.577772      1.632565
  H      -0.285286      2.598832      4.067554
  H       0.568211      4.174361      3.941100
  H       1.504477      2.658610      4.187461
  H       2.120475      3.531910      0.534255
  H       2.920615      3.240977      2.113049
  H       1.950327      4.735976      1.857961
  Si      2.899410     -2.162649     -0.059896
  C       4.472025     -1.243341      0.436394
  C       2.012544     -2.874514      1.445166
  C       3.234209     -3.485572     -1.377637
  H       4.205092     -0.475834      1.192380
  H       4.954016     -0.746665     -0.430857
  H       5.210139     -1.938204      0.888204
  H       1.011384     -3.269794      1.177461
  H       1.885507     -2.072182      2.200494
  H       2.601363     -3.695868      1.903807
  H       2.295658     -3.989434     -1.688921
  H       3.920760     -4.261477     -0.980409
  H       3.703838     -3.050095     -2.283811
  H       1.953809     -1.159444     -0.717969
51
Coordinates from ORCA-job my_molecule E -1977.847132622072
  Pt     -1.924986     -0.131545      1.301570
  O      -0.396505      0.412923      2.362098
  O      -3.830231     -0.289542      0.386848
  P       0.970430      1.134116      1.796325
  P      -3.266383     -1.272079     -0.703182
  O      -4.200327     -2.578863     -0.946379
  O      -1.874360     -1.681935     -0.029204
  O       0.873081      1.055323      0.151495
  O       2.231307      0.521327      2.356091
  C       0.744532      2.941134      2.149766
  C      -3.079409     -0.593519     -2.401472
  C      -2.263596     -1.610505     -3.226067
  C      -2.322423      0.745254     -2.280817
  C      -4.481366     -0.371898     -3.004022
  C      -0.506321      3.488957      1.440691
  C       0.627487      3.092933      3.679300
  C       2.015653      3.648065      1.633461
  H      -4.375996     -3.044147     -0.102027
  H       1.416338      0.287395     -0.161630
  H      -1.269874     -1.793473     -2.771892
  H      -2.106142     -1.201798     -4.245288
  H      -2.788685     -2.580590     -3.323597
  H      -1.330003      0.627561     -1.801326
  H      -2.899542      1.484263     -1.692116
  H      -2.170002      1.157485     -3.299787
  H      -5.039331     -1.321770     -3.111009
  H      -4.372942      0.080960     -4.010898
  H      -5.084868      0.322438     -2.385284
  H      -1.434630      3.003931      1.806493
  H      -0.448355      3.338777      0.344768
  H      -0.598491      4.578652      1.638104
  H      -0.283491      2.596628      4.069811
  H       0.574924      4.170066      3.945070
  H       1.506434      2.650853      4.189572
  H       2.123499      3.530992      0.536920
  H       2.924401      3.235565      2.114121
  H       1.956187      4.733010      1.863164
  Si      2.901101     -2.159338     -0.058991
  C       4.470667     -1.236150      0.439241
  C       2.010858     -2.870058      1.444794
  C       3.242403     -3.484016     -1.373510
  H       4.200978     -0.469258      1.194954
  H       4.952606     -0.738496     -0.427334
  H       5.209794     -1.929433      0.891890
  H       1.009710     -3.264489      1.175375
  H       1.882927     -2.067130      2.199480
  H       2.598032     -3.691806      1.904858
  H       2.307247     -3.997632     -1.678937
  H       3.937906     -4.253073     -0.977293
  H       3.704630     -3.046930     -2.282561
  H       1.955126     -1.159138     -0.721639
51
Coordinates from ORCA-job my_molecule E -1977.847174692772
  Pt     -1.918693     -0.123746      1.292896
  O      -0.387352      0.404413      2.355262
  O      -3.823259     -0.268495      0.376341
  P       0.978045      1.130925      1.794085
  P      -3.268303     -1.262965     -0.707327
  O      -4.210900     -2.566307     -0.936785
  O      -1.875625     -1.675225     -0.035251
  O       0.883872      1.063764      0.148394
  O       2.238788      0.516264      2.352374
  C       0.750885      2.935821      2.158041
  C      -3.084520     -0.600849     -2.411954
  C      -2.279073     -1.630912     -3.231738
  C      -2.318340      0.733361     -2.306274
  C      -4.487981     -0.372521     -3.009665
  C      -0.502173      3.486479      1.456052
  C       0.639498      3.078359      3.688816
  C       2.019309      3.647125      1.642998
  H      -4.386653     -3.025092     -0.088071
  H       1.414089      0.287783     -0.167256
  H      -1.283762     -1.817283     -2.778783
  H      -2.122370     -1.233145     -4.254957
  H      -2.811984     -2.596969     -3.318515
  H      -1.325625      0.613620     -1.828985
  H      -2.890093      1.482732     -1.723536
  H      -2.166961      1.133522     -3.328030
  H      -5.052604     -1.318146     -3.112929
  H      -4.379880      0.079572     -4.018844
  H      -5.083192      0.325837     -2.389991
  H      -1.428609      2.998879      1.822224
  H      -0.448558      3.342627      0.358309
  H      -0.594458      4.574348      1.660173
  H      -0.272775      2.584682      4.078598
  H       0.594243      4.153536      3.961148
  H       1.517311      2.628921      4.194400
  H       2.124272      3.537081      0.545276
  H       2.929277      3.232510      2.119461
  H       1.959349      4.729866      1.879631
  Si      2.899336     -2.149814     -0.058455
  C       4.463451     -1.220066      0.439641
  C       2.003292     -2.855082      1.444991
  C       3.250603     -3.479991     -1.364131
  H       4.190569     -0.454226      1.194376
  H       4.943464     -0.721434     -0.427294
  H       5.204690     -1.909959      0.893367
  H       1.001082     -3.245413      1.173858
  H       1.876639     -2.050295      2.197925
  H       2.585554     -3.678812      1.907638
  H       2.324077     -4.020024     -1.648318
  H       3.970891     -4.227760     -0.972558
  H       3.687958     -3.040762     -2.284569
  H       1.953202     -1.156731     -0.732059
51
Coordinates from ORCA-job my_molecule E -1977.847217314385
  Pt     -1.922331     -0.119102      1.283548
  O      -0.388891      0.399398      2.350285
  O      -3.828623     -0.254268      0.367263
  P       0.979150      1.124158      1.793212
  P      -3.282894     -1.256332     -0.713831
  O      -4.232111     -2.556424     -0.932594
  O      -1.889807     -1.671207     -0.045497
  O       0.889897      1.062788      0.147092
  O       2.236695      0.504044      2.353281
  C       0.757023      2.929125      2.161487
  C      -3.102445     -0.602428     -2.421993
  C      -2.310155     -1.641756     -3.241610
  C      -2.324334      0.726181     -2.324793
  C      -4.507052     -0.367070     -3.013037
  C      -0.494893      3.486538      1.462594
  C       0.647675      3.068112      3.692983
  C       2.027767      3.637388      1.646370
  H      -4.406685     -3.008872     -0.081041
  H       1.411275      0.280354     -0.168748
  H      -1.315477     -1.834882     -2.793789
  H      -2.155282     -1.248057     -4.267089
  H      -2.851411     -2.604479     -3.322062
  H      -1.332604      0.600760     -1.845746
  H      -2.888363      1.483061     -1.746378
  H      -2.168277      1.119805     -3.350576
  H      -5.076150     -1.311114     -3.112791
  H      -4.402302      0.082193     -4.021860
  H      -5.097716      0.335595     -2.391147
  H      -1.422743      3.001066      1.828108
  H      -0.442400      3.346859      0.364734
  H      -0.583203      4.574675      1.670406
  H      -0.266849      2.578276      4.082921
  H       0.608291      4.143431      3.967757
  H       1.523497      2.612430      4.196593
  H       2.129168      3.532585      0.547927
  H       2.937313      3.216158      2.117807
  H       1.973599      4.719711      1.888746
  Si      2.915630     -2.142974     -0.053490
  C       4.471259     -1.204875      0.454879
  C       2.007041     -2.847008      1.443479
  C       3.284304     -3.475962     -1.351792
  H       4.188503     -0.439354      1.206967
  H       4.955167     -0.704931     -0.409401
  H       5.212617     -1.890512      0.915058
  H       1.007993     -3.240388      1.164050
  H       1.871738     -2.040812      2.193847
  H       2.586805     -3.668657      1.912967
  H       2.368781     -4.042134     -1.618674
  H       4.029232     -4.203723     -0.965542
  H       3.699117     -3.032301     -2.279949
  H       1.973458     -1.155067     -0.740931
51
Coordinates from ORCA-job my_molecule E -1977.847225169307
  Pt     -1.927111     -0.115396      1.278201
  O      -0.394553      0.397432      2.346586
  O      -3.833317     -0.239972      0.362325
  P       0.976289      1.118874      1.791559
  P      -3.295402     -1.248963     -0.716509
  O      -4.252228     -2.544829     -0.927863
  O      -1.902818     -1.668285     -0.049895
  O       0.889545      1.060392      0.145211
  O       2.230966      0.494413      2.353448
  C       0.759478      2.923662      2.162384
  C      -3.116293     -0.603106     -2.427828
  C      -2.332451     -1.651031     -3.245468
  C      -2.329680      0.720784     -2.338144
  C      -4.520977     -0.359840     -3.015853
  C      -0.492337      3.485219      1.466878
  C       0.653611      3.059646      3.694151
  C       2.030909      3.629637      1.646644
  H      -4.427547     -2.992435     -0.073614
  H       1.404216      0.273847     -0.171130
  H      -1.337061     -1.848562     -2.798451
  H      -2.177493     -1.263256     -4.272953
  H      -2.879978     -2.610047     -3.320370
  H      -1.338569      0.591630     -1.859366
  H      -2.889446      1.484647     -1.763244
  H      -2.172624      1.107426     -3.365084
  H      -5.096863     -1.299719     -3.113307
  H      -4.415227      0.088955     -4.026428
  H      -5.104273      0.346596     -2.393297
  H      -1.420724      3.001224      1.833243
  H      -0.442552      3.348260      0.368457
  H      -0.577567      4.572605      1.677585
  H      -0.261032      2.570726      4.084768
  H       0.616703      4.133993      3.971412
  H       1.529726      2.601213      4.194589
  H       2.128530      3.529375      0.547453
  H       2.940350      3.203415      2.113770
  H       1.981045      4.710815      1.893762
  Si      2.933168     -2.137492     -0.049983
  C       4.483934     -1.198457      0.469185
  C       2.012316     -2.840686      1.440092
  C       3.312410     -3.471696     -1.343927
  H       4.194444     -0.431982      1.216860
  H       4.973953     -0.700613     -0.392475
  H       5.221709     -1.882081      0.937542
  H       1.017474     -3.238273      1.152393
  H       1.867746     -2.033750      2.187621
  H       2.590289     -3.659538      1.916579
  H       2.405149     -4.056871     -1.596688
  H       4.075526     -4.183847     -0.963706
  H       3.708952     -3.024727     -2.278328
  H       1.999685     -1.149330     -0.748790
51
Coordinates from ORCA-job my_molecule E -1977.847238307028
  Pt     -1.937862     -0.113491      1.272594
  O      -0.406671      0.402091      2.345048
  O      -3.845948     -0.231163      0.357859
  P       0.970286      1.115088      1.793969
  P      -3.314805     -1.244991     -0.719831
  O      -4.277774     -2.536847     -0.925942
  O      -1.923314     -1.668230     -0.054800
  O       0.889483      1.054957      0.147961
  O       2.218928      0.483558      2.361783
  C       0.761553      2.921369      2.161681
  C      -3.136528     -0.602218     -2.432461
  C      -2.363367     -1.655996     -3.251198
  C      -2.339725      0.716402     -2.346221
  C      -4.541504     -0.353084     -3.016385
  C      -0.487686      3.488115      1.465202
  C       0.655752      3.060299      3.693798
  C       2.035994      3.621080      1.644817
  H      -4.454045     -2.979783     -0.069760
  H       1.402072      0.266355     -0.166771
  H      -1.369771     -1.860202     -2.809066
  H      -2.209184     -1.268335     -4.279457
  H      -2.917520     -2.612707     -3.323894
  H      -1.350639      0.580948     -1.864231
  H      -2.892820      1.485331     -1.774785
  H      -2.176430      1.099833     -3.376019
  H      -5.120697     -1.292056     -3.109702
  H      -4.438459      0.090263     -4.026323
  H      -5.122854      0.358817     -2.393741
  H      -1.417898      3.008268      1.831251
  H      -0.437199      3.350561      0.367132
  H      -0.568339      4.576876      1.674924
  H      -0.258608      2.571710      4.086088
  H       0.618194      4.136169      3.968857
  H       1.531996      2.602508      4.194830
  H       2.131441      3.522339      0.545201
  H       2.943673      3.188955      2.110095
  H       1.992254      4.702772      1.893472
  Si      2.961855     -2.134620     -0.045814
  C       4.508967     -1.200493      0.495464
  C       2.021855     -2.842264      1.430360
  C       3.351812     -3.464703     -1.341772
  H       4.210666     -0.433681      1.240587
  H       5.011528     -0.702378     -0.359504
  H       5.239233     -1.886114      0.972945
  H       1.033164     -3.245436      1.128368
  H       1.863331     -2.036938      2.177228
  H       2.597308     -3.658732      1.914077
  H       2.449604     -4.059469     -1.593525
  H       4.123091     -4.169022     -0.964356
  H       3.742439     -3.012806     -2.276524
  H       2.043173     -1.138903     -0.753514
51
Coordinates from ORCA-job my_molecule E -1977.847246832128
  Pt     -1.947508     -0.111069      1.272308
  O      -0.420239      0.406904      2.345923
  O      -3.854382     -0.222079      0.358090
  P       0.961266      1.112114      1.794696
  P      -3.328657     -1.240595     -0.718230
  O      -4.298476     -2.528018     -0.921302
  O      -1.939209     -1.668959     -0.052296
  O       0.880962      1.048451      0.148725
  O       2.206323      0.476439      2.365480
  C       0.760597      2.919387      2.159460
  C      -3.147863     -0.602487     -2.432550
  C      -2.378854     -1.662314     -3.248545
  C      -2.344734      0.712383     -2.349133
  C      -4.551106     -0.345898     -3.017407
  C      -0.485797      3.490555      1.461336
  C       0.653570      3.059505      3.690827
  C       2.038976      3.612563      1.642768
  H      -4.476514     -2.967709     -0.063793
  H       1.391333      0.258301     -0.164979
  H      -1.384725     -1.869199     -2.804562
  H      -2.223067     -1.279520     -4.277968
  H      -2.936890     -2.615971     -3.318141
  H      -1.356915      0.573793     -1.865811
  H      -2.895961      1.486141     -1.780239
  H      -2.179231      1.091501     -3.378744
  H      -5.137187     -1.280356     -3.109323
  H      -4.444033      0.096707     -4.029766
  H      -5.125708      0.369730     -2.396257
  H      -1.418677      3.014983      1.827579
  H      -0.435104      3.351893      0.363449
  H      -0.562005      4.579376      1.670129
  H      -0.261655      2.572092      4.082497
  H       0.616190      4.134830      3.965548
  H       1.529202      2.600823      4.191954
  H       2.132781      3.515232      0.543025
  H       2.944868      3.174577      2.105970
  H       2.001711      4.693962      1.893446
  Si      2.982228     -2.130580     -0.044541
  C       4.527991     -1.203870      0.512207
  C       2.030759     -2.843601      1.421201
  C       3.376550     -3.455894     -1.343898
  H       4.225263     -0.437062      1.254714
  H       5.039429     -0.706867     -0.337599
  H       5.251505     -1.892050      0.996187
  H       1.047348     -3.251416      1.109702
  H       1.862131     -2.040652      2.167741
  H       2.605580     -3.658248      1.908866
  H       2.477326     -4.054835     -1.594648
  H       4.152867     -4.156472     -0.969832
  H       3.762228     -3.000204     -2.278480
  H       2.075513     -1.126316     -0.755788
51
Coordinates from ORCA-job my_molecule E -1977.847254304306
  Pt     -1.938764     -0.113689      1.275194
  O      -0.409511      0.402502      2.346305
  O      -3.845177     -0.231796      0.360818
  P       0.967032      1.115201      1.793024
  P      -3.313731     -1.244864     -0.717653
  O      -4.277008     -2.536508     -0.925367
  O      -1.922647     -1.668965     -0.051856
  O       0.883170      1.053060      0.146783
  O       2.216877      0.485358      2.359552
  C       0.759029      2.921436      2.160114
  C      -3.133992     -0.601651     -2.430103
  C      -2.357697     -1.655234     -3.247628
  C      -2.338698      0.717653     -2.342612
  C      -4.537783     -0.350784     -3.016168
  C      -0.489632      3.488603      1.462904
  C       0.651761      3.059776      3.691446
  C       2.035036      3.619839      1.643736
  H      -4.453570     -2.980075     -0.069660
  H       1.396180      0.264938     -0.167921
  H      -1.362681     -1.857741     -2.801955
  H      -2.202276     -1.269633     -4.275879
  H      -2.910558     -2.611305     -3.320270
  H      -1.349320      0.583400     -1.861388
  H      -2.894290      1.486279     -1.770243
  H      -2.177038      1.101157     -3.370730
  H      -5.119511     -1.287481     -3.111125
  H      -4.431018      0.095559     -4.027823
  H      -5.115674      0.360115     -2.394092
  H      -1.421056      3.009424      1.829128
  H      -0.438898      3.350769      0.364992
  H      -0.569803      4.576839      1.672524
  H      -0.262964      2.571011      4.082426
  H       0.613378      4.134537      3.967190
  H       1.527812      2.601773      4.192447
  H       2.130165      3.521562      0.544313
  H       2.942658      3.186304      2.107707
  H       1.993100      4.701281      1.893464
  Si      2.961119     -2.135109     -0.046404
  C       4.509404     -1.201821      0.491261
  C       2.025730     -2.843514      1.431607
  C       3.347709     -3.464986     -1.342842
  H       4.212669     -0.434327      1.235213
  H       5.010468     -0.705301     -0.364657
  H       5.240076     -1.887249      0.968602
  H       1.037717     -3.248886      1.132127
  H       1.867029     -2.038193      2.177723
  H       2.603995     -3.658537      1.914610
  H       2.443470     -4.054379     -1.597643
  H       4.114418     -4.173079     -0.963450
  H       3.742366     -3.014663     -2.276234
  H       2.040931     -1.138608     -0.751507
51
Coordinates from ORCA-job my_molecule E -1977.847270923538
  Pt     -1.935418     -0.114778      1.275569
  O      -0.404610      0.403108      2.346203
  O      -3.842751     -0.235610      0.360564
  P       0.970949      1.117820      1.794330
  P      -3.308241     -1.247195     -0.717587
  O      -4.269142     -2.540115     -0.927119
  O      -1.916733     -1.669466     -0.051078
  O       0.888468      1.055854      0.148302
  O       2.221102      0.489180      2.361589
  C       0.759346      2.924031      2.160812
  C      -3.129200     -0.602004     -2.429088
  C      -2.351715     -1.652583     -3.248277
  C      -2.336928      0.718753     -2.340461
  C      -4.534123     -0.355432     -3.014903
  C      -0.489948      3.488199      1.462539
  C       0.651763      3.064086      3.692724
  C       2.032892      3.625491      1.645274
  H      -4.445776     -2.985434     -0.071912
  H       1.403256      0.268750     -0.166106
  H      -1.357690     -1.854460     -2.804904
  H      -2.197319     -1.263435     -4.275763
  H      -2.903081     -2.610440     -3.322956
  H      -1.347256      0.585475     -1.859878
  H      -2.892663      1.485256     -1.767337
  H      -2.176152      1.104304     -3.368546
  H      -5.111753     -1.294804     -3.108861
  H      -4.430240      0.088299     -4.025200
  H      -5.116891      0.355272     -2.393251
  H      -1.419886      3.007265      1.828439
  H      -0.438446      3.349070      0.364365
  H      -0.572487      4.576864      1.670900
  H      -0.261483      2.573077      4.084551
  H       0.610816      4.139914      3.966746
  H       1.528746      2.609535      4.195283
  H       2.130756      3.525041      0.545877
  H       2.940396      3.195893      2.113294
  H       1.986203      4.707193      1.891968
  Si      2.954155     -2.137280     -0.047456
  C       4.504668     -1.204956      0.487397
  C       2.022510     -2.846472      1.432868
  C       3.336802     -3.466182     -1.346632
  H       4.210579     -0.437954      1.233680
  H       5.004347     -0.707195     -0.369264
  H       5.236045     -1.891646      0.961464
  H       1.032465     -3.249749      1.135879
  H       1.867623     -2.041488      2.180690
  H       2.600898     -3.663004      1.912949
  H       2.427672     -4.044081     -1.613315
  H       4.090921     -4.183717     -0.961002
  H       3.745841     -3.017717     -2.275674
  H       2.030714     -1.140532     -0.747687
51
Coordinates from ORCA-job my_molecule E -1977.847275614025
  Pt     -1.933412     -0.115255      1.278286
  O      -0.401425      0.399747      2.347183
  O      -3.839572     -0.242274      0.363530
  P       0.971245      1.118485      1.793675
  P      -3.301430     -1.249290     -0.716739
  O      -4.257391     -2.545349     -0.930067
  O      -1.909037     -1.668823     -0.050618
  O       0.886391      1.053981      0.147322
  O       2.224581      0.495609      2.359724
  C       0.755973      2.924821      2.158748
  C      -3.122469     -0.599363     -2.426464
  C      -2.339065     -1.645314     -3.246818
  C      -2.335314      0.724594     -2.333152
  C      -4.526856     -0.354919     -3.013169
  C      -0.493050      3.487627      1.458684
  C       0.645034      3.065314      3.689708
  C       2.031325      3.626739      1.644060
  H      -4.431633     -2.994366     -0.077115
  H       1.403122      0.267249     -0.165602
  H      -1.343692     -1.844017     -2.800435
  H      -2.184234     -1.254968     -4.273222
  H      -2.886722     -2.604076     -3.323833
  H      -1.344689      0.594101     -1.853475
  H      -2.894623      1.486996     -1.756670
  H      -2.176318      1.114409     -3.359827
  H      -5.103267     -1.294624     -3.109969
  H      -4.421458      0.092969     -4.023790
  H      -5.109071      0.352071     -2.390968
  H      -1.424294      3.006300      1.823878
  H      -0.439729      3.347704      0.361204
  H      -0.576787      4.576368      1.666233
  H      -0.268513      2.573424      4.079802
  H       0.601997      4.140519      3.963337
  H       1.521617      2.611813      4.193858
  H       2.131226      3.524586      0.545364
  H       2.938928      3.198361      2.112859
  H       1.984333      4.709286      1.889706
  Si      2.944342     -2.141509     -0.046854
  C       4.496164     -1.203541      0.473005
  C       2.029694     -2.852169      1.442347
  C       3.320573     -3.470937     -1.346241
  H       4.205801     -0.436726      1.220523
  H       4.987029     -0.705270     -0.387697
  H       5.233923     -1.887944      0.941305
  H       1.038098     -3.258056      1.155527
  H       1.879309     -2.046480      2.189921
  H       2.615190     -3.666623      1.917621
  H       2.405188     -4.030325     -1.628076
  H       4.055613     -4.202788     -0.950573
  H       3.749510     -3.028297     -2.268320
  H       2.007842     -1.149770     -0.737715
51
Coordinates from ORCA-job my_molecule E -1977.847250397269
  Pt     -1.928377     -0.113562      1.280383
  O      -0.391601      0.395510      2.347604
  O      -3.835067     -0.243421      0.363143
  P       0.977741      1.120459      1.795829
  P      -3.291539     -1.248514     -0.715989
  O      -4.243270     -2.547317     -0.931621
  O      -1.897918     -1.664518     -0.048635
  O       0.895074      1.054905      0.149429
  O       2.233008      0.503545      2.364091
  C       0.754862      2.926936      2.158558
  C      -3.114323     -0.597270     -2.425004
  C      -2.328832     -1.638855     -3.247588
  C      -2.332819      0.729134     -2.331359
  C      -4.520756     -0.359017     -3.011615
  C      -0.493901      3.483978      1.454154
  C       0.640594      3.070357      3.689882
  C       2.026912      3.634007      1.646840
  H      -4.417765     -2.998738     -0.079013
  H       1.410759      0.266342     -0.160872
  H      -1.334402     -1.836376     -2.804211
  H      -2.175737     -1.244107     -4.273115
  H      -2.874295     -2.599788     -3.327040
  H      -1.340968      0.601219     -1.854320
  H      -2.893273      1.488540     -1.753120
  H      -2.177721      1.121025     -3.357100
  H      -5.091847     -1.301771     -3.107481
  H      -4.418847      0.086316     -4.021059
  H      -5.109093      0.346905     -2.389530
  H      -1.423134      2.999682      1.817938
  H      -0.437952      3.341362      0.356163
  H      -0.582757      4.572876      1.658942
  H      -0.271425      2.575512      4.079576
  H       0.593270      4.146784      3.960640
  H       1.517579      2.621804      4.197846
  H       2.131922      3.528681      0.548467
  H       2.934180      3.211943      2.121975
  H       1.972470      4.716225      1.888462
  Si      2.931855     -2.147410     -0.045759
  C       4.484718     -1.203006      0.460238
  C       2.035846     -2.863667      1.452334
  C       3.302032     -3.473762     -1.350300
  H       4.198728     -0.438476      1.212236
  H       4.966159     -0.701055     -0.404202
  H       5.229227     -1.885565      0.919796
  H       1.041526     -3.270956      1.175705
  H       1.891904     -2.058668      2.202533
  H       2.628231     -3.677424      1.919834
  H       2.378383     -4.005324     -1.661006
  H       4.005337     -4.227960     -0.940525
  H       3.765665     -3.036378     -2.259448
  H       1.979637     -1.161144     -0.722688
51
Coordinates from ORCA-job my_molecule E -1977.847278922574
  Pt     -1.931946     -0.114022      1.278173
  O      -0.397514      0.398185      2.346647
  O      -3.838882     -0.239299      0.361998
  P       0.974562      1.118603      1.794909
  P      -3.299597     -1.247494     -0.716588
  O      -4.255898     -2.543351     -0.929498
  O      -1.906970     -1.666731     -0.049571
  O       0.891765      1.054515      0.148661
  O       2.227603      0.496687      2.362782
  C       0.756872      2.925063      2.159217
  C      -3.121589     -0.599105     -2.426744
  C      -2.339907     -1.644741     -3.247999
  C      -2.335295      0.724723     -2.335443
  C      -4.527431     -0.356836     -3.012928
  C      -0.491700      3.485546      1.457012
  C       0.644948      3.067113      3.690768
  C       2.029943      3.629389      1.646240
  H      -4.431231     -2.992399     -0.075828
  H       1.406664      0.266294     -0.163370
  H      -1.345587     -1.844366     -2.804858
  H      -2.186406     -1.252472     -4.274403
  H      -2.888177     -2.604158     -3.325261
  H      -1.344302      0.594351     -1.857212
  H      -2.893588      1.487379     -1.759261
  H      -2.178056      1.113793     -3.361999
  H      -5.101741     -1.297789     -3.107753
  H      -4.424563      0.087574     -4.022936
  H      -5.112949      0.351438     -2.391149
  H      -1.421495      3.002993      1.821586
  H      -0.437409      3.344153      0.358879
  H      -0.577649      4.574407      1.663118
  H      -0.267605      2.573786      4.081135
  H       0.600055      4.143287      3.962810
  H       1.521808      2.616126      4.196785
  H       2.132192      3.526165      0.547443
  H       2.937064      3.203778      2.118515
  H       1.979097      4.711348      1.890140
  Si      2.942610     -2.142607     -0.046167
  C       4.494207     -1.203033      0.472471
  C       2.031524     -2.856297      1.444236
  C       3.318733     -3.470001     -1.348250
  H       4.204268     -0.437232      1.221577
  H       4.983779     -0.703071     -0.388566
  H       5.233022     -1.887138      0.938799
  H       1.039430     -3.262813      1.158761
  H       1.882036     -2.051197      2.193126
  H       2.618567     -3.670647      1.917454
  H       2.400486     -4.019448     -1.643185
  H       4.041316     -4.210135     -0.946218
  H       3.762610     -3.028364     -2.264970
  H       2.002327     -1.151948     -0.733086
51
Coordinates from ORCA-job my_molecule E -1977.847298721106
  Pt     -1.938594     -0.112241      1.275083
  O      -0.405042      0.397635      2.344985
  O      -3.845513     -0.233062      0.360258
  P       0.969656      1.113946      1.793637
  P      -3.311551     -1.244016     -0.718340
  O      -4.271827     -2.537541     -0.927625
  O      -1.919484     -1.666196     -0.053249
  O       0.887583      1.049210      0.147307
  O       2.220551      0.488945      2.362836
  C       0.757575      2.920962      2.157637
  C      -3.133691     -0.598077     -2.429525
  C      -2.356178     -1.648179     -3.249928
  C      -2.341462      0.723037     -2.339970
  C      -4.538661     -0.349987     -3.013459
  C      -0.489545      3.486129      1.456244
  C       0.645886      3.062497      3.688776
  C       2.034193      3.620472      1.644153
  H      -4.446090     -2.984709     -0.073485
  H       1.400037      0.259072     -0.164310
  H      -1.360936     -1.850019     -2.806097
  H      -2.202311     -1.259556     -4.277219
  H      -2.907662     -2.605338     -3.324371
  H      -1.351226      0.589494     -1.860608
  H      -2.896874      1.488745     -1.764858
  H      -2.181420      1.110259     -3.367617
  H      -5.117641     -1.288394     -3.107796
  H      -4.434590      0.095595     -4.024248
  H      -5.118377      0.359893     -2.390844
  H      -1.421821      3.006870      1.820931
  H      -0.435729      3.345647      0.358687
  H      -0.571290      4.575251      1.663227
  H      -0.268002      2.571194      4.078888
  H       0.603233      4.138204      3.961579
  H       1.521851      2.608896      4.193908
  H       2.134534      3.518878      0.545277
  H       2.940396      3.189796      2.113640
  H       1.989067      4.702838      1.890322
  Si      2.958410     -2.139136     -0.043334
  C       4.506305     -1.199248      0.484973
  C       2.038299     -2.853628      1.440762
  C       3.342535     -3.466390     -1.342857
  H       4.210567     -0.432845      1.231020
  H       5.001185     -0.700148     -0.373156
  H       5.242389     -1.882503      0.957327
  H       1.050025     -3.264215      1.148613
  H       1.880582     -2.048498      2.187623
  H       2.624857     -3.665462      1.919117
  H       2.429060     -4.026108     -1.631334
  H       4.075231     -4.198121     -0.943103
  H       3.777126     -3.022587     -2.262106
  H       2.024381     -1.147261     -0.737372
51
Coordinates from ORCA-job my_molecule E -1977.847296735447
  Pt     -1.950300     -0.107700      1.271642
  O      -0.418248      0.401183      2.343920
  O      -3.857568     -0.214579      0.356168
  P       0.962677      1.107886      1.795239
  P      -3.332317     -1.235283     -0.717865
  O      -4.304285     -2.521199     -0.919692
  O      -1.942862     -1.665176     -0.051439
  O       0.884603      1.042282      0.149287
  O       2.207285      0.474817      2.369572
  C       0.760547      2.916292      2.156874
  C      -3.152736     -0.599400     -2.432720
  C      -2.386908     -1.659383     -3.250331
  C      -2.350049      0.715105     -2.351725
  C      -4.557641     -0.343275     -3.015920
  C      -0.483275      3.486408      1.453904
  C       0.649452      3.060036      3.688414
  C       2.039261      3.609637      1.643689
  H      -4.481705     -2.962515     -0.062277
  H       1.391496      0.248706     -0.161847
  H      -1.393386     -1.867913     -2.810301
  H      -2.233129     -1.275146     -4.279879
  H      -2.946572     -2.612733     -3.319375
  H      -1.361247      0.576103     -1.871644
  H      -2.899592      1.489445     -1.781982
  H      -2.187600      1.093824     -3.380575
  H      -5.143225     -1.277617     -3.104948
  H      -4.452921      0.095513     -4.028299
  H      -5.133077      0.374480     -2.395432
  H      -1.416714      3.011790      1.818960
  H      -0.430033      3.343935      0.355571
  H      -0.560183      4.576091      1.659262
  H      -0.265142      2.570994      4.079332
  H       0.608934      4.136580      3.959823
  H       1.524474      2.605230      4.194178
  H       2.138277      3.509357      0.544237
  H       2.942980      3.173736      2.113092
  H       1.999165      4.691207      1.891057
  Si      2.988617     -2.131427     -0.040805
  C       4.531988     -1.200373      0.515718
  C       2.043993     -2.852229      1.425375
  C       3.385897     -3.452419     -1.343648
  H       4.227126     -0.434802      1.258846
  H       5.042376     -0.701007     -0.333530
  H       5.257301     -1.887148      0.998617
  H       1.062374     -3.266008      1.115195
  H       1.871701     -2.050205      2.172567
  H       2.624848     -3.663650      1.911148
  H       2.480254     -4.029078     -1.624834
  H       4.135125     -4.171110     -0.951130
  H       3.806033     -2.999901     -2.266156
  H       2.073933     -1.129365     -0.745331
51
Coordinates from ORCA-job my_molecule E -1977.847310838688
  Pt     -1.953290     -0.106755      1.270846
  O      -0.419552      0.397320      2.342981
  O      -3.860853     -0.215026      0.356505
  P       0.961038      1.104310      1.793755
  P      -3.336357     -1.234061     -0.719160
  O      -4.306854     -2.521139     -0.921184
  O      -1.946294     -1.663460     -0.055071
  O       0.882621      1.036547      0.147657
  O       2.206071      0.472867      2.368757
  C       0.759654      2.913161      2.153758
  C      -3.157753     -0.595975     -2.433190
  C      -2.390722     -1.655351     -3.251649
  C      -2.354359      0.718866     -2.349796
  C      -4.562093     -0.338410     -3.014228
  C      -0.482889      3.485016      1.449623
  C       0.646503      3.057679      3.684579
  C       2.041277      3.603948      1.641113
  H      -4.481951     -2.963915     -0.064886
  H       1.388683      0.241435     -0.161830
  H      -1.395614     -1.862978     -2.810011
  H      -2.237058     -1.272060     -4.280883
  H      -2.949664     -2.608613     -3.320698
  H      -1.365538      0.578878     -1.869420
  H      -2.903048      1.491719     -1.778076
  H      -2.190580      1.100414     -3.379121
  H      -5.148533     -1.272581     -3.104651
  H      -4.457261      0.103638     -4.026357
  H      -5.134680      0.377614     -2.392043
  H      -1.418707      3.012425      1.814147
  H      -0.428542      3.342347      0.352329
  H      -0.557869      4.575108      1.654605
  H      -0.269519      2.570066      4.074525
  H       0.606905      4.134013      3.955670
  H       1.520340      2.601708      4.191230
  H       2.141309      3.502553      0.542087
  H       2.944161      3.166605      2.110816
  H       2.003526      4.686538      1.887897
  Si      2.992660     -2.132137     -0.037893
  C       4.533079     -1.194864      0.516253
  C       2.052898     -2.854941      1.429796
  C       3.393615     -3.453176     -1.338973
  H       4.225624     -0.429571      1.258681
  H       5.041094     -0.694571     -0.333520
  H       5.261455     -1.878801      0.999284
  H       1.072750     -3.273051      1.121456
  H       1.877972     -2.052599      2.175696
  H       2.637867     -3.663267      1.915985
  H       2.487259     -4.023725     -1.629070
  H       4.134856     -4.176560     -0.939827
  H       3.824090     -3.002939     -2.257006
  H       2.072272     -1.134251     -0.741489
51
Coordinates from ORCA-job my_molecule E -1977.847311417766
  Pt     -1.953448     -0.106182      1.273168
  O      -0.415484      0.390465      2.342959
  O      -3.861268     -0.213112      0.357734
  P       0.963062      1.100562      1.793196
  P      -3.334540     -1.230565     -0.718216
  O      -4.303731     -2.518262     -0.922275
  O      -1.943665     -1.659677     -0.053757
  O       0.884275      1.030851      0.147097
  O       2.209598      0.473025      2.369144
  C       0.758670      2.910099      2.150516
  C      -3.157273     -0.590710     -2.431763
  C      -2.390347     -1.646871     -3.252822
  C      -2.357501      0.725346     -2.348173
  C      -4.563366     -0.335744     -3.013116
  C      -0.482813      3.478808      1.442548
  C       0.642800      3.057112      3.681364
  C       2.039162      3.602612      1.639742
  H      -4.478729     -2.963188     -0.066393
  H       1.388423      0.233870     -0.160653
  H      -1.396128     -1.854703     -2.814675
  H      -2.238573     -1.259633     -4.281629
  H      -2.948454     -2.600862     -3.323569
  H      -1.367140      0.587068     -1.871179
  H      -2.907864      1.496634     -1.774190
  H      -2.198565      1.107751     -3.375537
  H      -5.147646     -1.270593     -3.103416
  H      -4.460153      0.105461     -4.024850
  H      -5.139108      0.379702     -2.390441
  H      -1.417561      3.005446      1.806209
  H      -0.426694      3.333248      0.344641
  H      -0.560355      4.569046      1.644809
  H      -0.273095      2.569119      4.070500
  H       0.601775      4.134165      3.950516
  H       1.516118      2.603071      4.190772
  H       2.142252      3.498789      0.541031
  H       2.941466      3.168366      2.113323
  H       1.998084      4.684891      1.883913
  Si      2.992173     -2.135945     -0.034379
  C       4.529558     -1.189076      0.511846
  C       2.064094     -2.862705      1.438885
  C       3.395323     -3.456144     -1.335604
  H       4.221080     -0.424501      1.254509
  H       5.031840     -0.687052     -0.340494
  H       5.263263     -1.868647      0.992561
  H       1.084574     -3.286644      1.136052
  H       1.888295     -2.059779      2.184373
  H       2.656031     -3.666915      1.923288
  H       2.485004     -4.008911     -1.647421
  H       4.114756     -4.194391     -0.924127
  H       3.851890     -3.009346     -2.243449
  H       2.059936     -1.145348     -0.732565
51
Coordinates from ORCA-job my_molecule E -1977.847296117328
  Pt     -1.964653     -0.098130      1.267683
  O      -0.417707      0.374265      2.337084
  O      -3.874163     -0.200622      0.353580
  P       0.960303      1.086250      1.790741
  P      -3.351643     -1.217354     -0.724227
  O      -4.319744     -2.506551     -0.925066
  O      -1.958407     -1.646547     -0.066840
  O       0.887224      1.010652      0.144410
  O       2.205911      0.464004      2.374334
  C       0.755771      2.897811      2.140826
  C      -3.180611     -0.576294     -2.437175
  C      -2.417054     -1.633796     -3.262016
  C      -2.376798      0.738571     -2.353575
  C      -4.587791     -0.317035     -3.008843
  C      -0.483396      3.467871      1.429942
  C       0.637236      3.050424      3.670933
  C       2.039916      3.586453      1.630764
  H      -4.489368     -2.953644     -0.070196
  H       1.385006      0.206370     -0.156632
  H      -1.419428     -1.842773     -2.824143
  H      -2.267199     -1.248792     -4.290573
  H      -2.977051     -2.586410     -3.330909
  H      -1.385656      0.596125     -1.879226
  H      -2.921244      1.509005     -1.776065
  H      -2.217314      1.124720     -3.382720
  H      -5.174307     -1.251207     -3.099066
  H      -4.488445      0.128935     -4.019449
  H      -5.156128      0.396540     -2.381209
  H      -1.422214      2.998444      1.793201
  H      -0.425628      3.320053      0.333741
  H      -0.557766      4.559308      1.629787
  H      -0.278392      2.561943      4.060682
  H       0.593993      4.128233      3.935786
  H       1.510146      2.600084      4.184089
  H       2.145669      3.479355      0.532760
  H       2.940297      3.151319      2.107363
  H       2.001231      4.670445      1.872046
  Si      3.017600     -2.141923     -0.019866
  C       4.542803     -1.174081      0.522260
  C       2.102458     -2.878051      1.456070
  C       3.436063     -3.459184     -1.318055
  H       4.223641     -0.411126      1.262135
  H       5.039012     -0.668916     -0.331165
  H       5.285024     -1.843132      1.005310
  H       1.130329     -3.320592      1.155932
  H       1.912631     -2.074418      2.197400
  H       2.709087     -3.669409      1.943741
  H       2.526538     -3.995153     -1.659384
  H       4.130925     -4.211104     -0.889569
  H       3.924458     -3.015345     -2.210051
  H       2.068835     -1.165590     -0.716578
51
Coordinates from ORCA-job my_molecule E -1977.847305236850
  Pt     -1.957994     -0.101752      1.268077
  O      -0.417005      0.385126      2.338894
  O      -3.866517     -0.208025      0.353785
  P       0.961904      1.095470      1.792182
  P      -3.342816     -1.225947     -0.722593
  O      -4.311309     -2.514703     -0.923533
  O      -1.950849     -1.654495     -0.062409
  O       0.886935      1.024628      0.145949
  O       2.207317      0.468874      2.371593
  C       0.758113      2.905673      2.147813
  C      -3.168861     -0.586687     -2.435905
  C      -2.402407     -1.645155     -3.257305
  C      -2.365848      0.728718     -2.352452
  C      -4.574741     -0.329003     -3.010840
  C      -0.482883      3.476898      1.440730
  C       0.642452      3.054459      3.678627
  C       2.040843      3.595892      1.636792
  H      -4.482573     -2.960545     -0.068304
  H       1.388845      0.224718     -0.159277
  H      -1.405168     -1.852351     -2.816680
  H      -2.250764     -1.262028     -4.286093
  H      -2.961160     -2.598484     -3.325873
  H      -1.375882      0.587578     -1.875319
  H      -2.911758      1.499792     -1.777664
  H      -2.204045      1.113361     -3.382135
  H      -5.160476     -1.263684     -3.100859
  H      -4.473608      0.115477     -4.021831
  H      -5.144631      0.385272     -2.385733
  H      -1.420681      3.005881      1.804670
  H      -0.426804      3.332005      0.344164
  H      -0.557310      4.567909      1.643472
  H      -0.272525      2.565256      4.068874
  H       0.599893      4.131763      3.946035
  H       1.516219      2.602809      4.189206
  H       2.144288      3.491604      0.538306
  H       2.942433      3.159933      2.110472
  H       2.002045      4.679331      1.880683
  Si      3.002764     -2.137009     -0.029154
  C       4.535810     -1.184071      0.517897
  C       2.076124     -2.866437      1.443246
  C       3.412216     -3.456330     -1.328652
  H       4.222923     -0.420158      1.259496
  H       5.037215     -0.681083     -0.333843
  H       5.271643     -1.860687      1.000090
  H       1.099145     -3.295830      1.139667
  H       1.894909     -2.063282      2.187217
  H       2.671788     -3.666993      1.929422
  H       2.503488     -4.008317     -1.645882
  H       4.128731     -4.194972     -0.912966
  H       3.873882     -3.009873     -2.233532
  H       2.066689     -1.150522     -0.728526
51
Coordinates from ORCA-job my_molecule E -1977.847310457394
  Pt     -1.963686     -0.100936      1.270102
  O      -0.423855      0.387015      2.341398
  O      -3.871521     -0.200345      0.354905
  P       0.957545      1.092663      1.793199
  P      -3.351203     -1.222608     -0.719256
  O      -4.326179     -2.506688     -0.918118
  O      -1.961363     -1.655908     -0.056014
  O       0.881664      1.020218      0.146969
  O       2.200975      0.463067      2.373529
  C       0.759318      2.903617      2.147173
  C      -3.173798     -0.587660     -2.434710
  C      -2.413823     -1.649420     -3.254920
  C      -2.367145      0.724939     -2.354892
  C      -4.579407     -0.326407     -3.013737
  C      -0.479022      3.476982      1.437333
  C       0.641728      3.052612      3.677223
  C       2.044415      3.589729      1.636616
  H      -4.500583     -2.948754     -0.061243
  H       1.380818      0.218817     -0.158158
  H      -1.419725     -1.861333     -2.817800
  H      -2.261996     -1.265617     -4.284921
  H      -2.977028     -2.600385     -3.322147
  H      -1.377322      0.582979     -1.877650
  H      -2.913518      1.500448     -1.782480
  H      -2.205969      1.104240     -3.383497
  H      -5.168711     -1.258296     -3.102149
  H      -4.475450      0.113539     -4.026500
  H      -5.149719      0.392196     -2.390998
  H      -1.416889      3.008390      1.800984
  H      -0.422328      3.329706      0.339844
  H      -0.551825      4.568085      1.638080
  H      -0.276459      2.567962      4.065877
  H       0.603531      4.129751      3.945295
  H       1.512985      2.595952      4.187719
  H       2.147327      3.485576      0.537939
  H       2.944567      3.150596      2.109705
  H       2.009394      4.672837      1.881182
  Si      3.014563     -2.132707     -0.028972
  C       4.545110     -1.182825      0.530170
  C       2.078391     -2.866118      1.435549
  C       3.430253     -3.448639     -1.330186
  H       4.227999     -0.419724      1.270745
  H       5.052677     -0.678812     -0.317685
  H       5.276881     -1.860768      1.016461
  H       1.104454     -3.296629      1.124503
  H       1.891227     -2.065010      2.180000
  H       2.671754     -3.666817      1.924182
  H       2.525523     -4.010242     -1.642082
  H       4.156835     -4.179798     -0.918744
  H       3.882539     -2.997610     -2.237534
  H       2.086053     -1.141859     -0.732291
51
Coordinates from ORCA-job my_molecule E -1977.847272820884
  Pt     -1.977587     -0.091560      1.265256
  O      -0.434918      0.382741      2.338690
  O      -3.885721     -0.180169      0.348812
  P       0.950876      1.081698      1.795090
  P      -3.372939     -1.209186     -0.721997
  O      -4.354421     -2.489362     -0.913689
  O      -1.983971     -1.647042     -0.061324
  O       0.882170      1.004673      0.149109
  O       2.188633      0.448819      2.384122
  C       0.759866      2.895200      2.141985
  C      -3.197666     -0.581980     -2.439307
  C      -2.443661     -1.651816     -3.257128
  C      -2.383377      0.726455     -2.365546
  C      -4.603086     -0.314608     -3.012032
  C      -0.474501      3.472833      1.428748
  C       0.641416      3.051751      3.672634
  C       2.047924      3.574340      1.631558
  H      -4.528241     -2.929023     -0.055170
  H       1.374889      0.197577     -0.151580
  H      -1.447406     -1.866125     -2.819462
  H      -2.292148     -1.275129     -4.288220
  H      -3.011370     -2.600427     -3.318893
  H      -1.394577      0.579035     -1.888624
  H      -2.921984      1.506567     -1.795644
  H      -2.219512      1.102572     -3.396590
  H      -5.196511     -1.244235     -3.096014
  H      -4.501350      0.123078     -4.024952
  H      -5.166102      0.407933     -2.389349
  H      -1.416292      3.010675      1.793397
  H      -0.417174      3.321715      0.332089
  H      -0.541235      4.565873      1.625687
  H      -0.276320      2.568423      4.063627
  H       0.602954      4.131124      3.934752
  H       1.511820      2.598278      4.187465
  H       2.152250      3.467632      0.532985
  H       2.944869      3.132030      2.108151
  H       2.016731      4.658101      1.873383
  Si      3.045788     -2.131338     -0.021560
  C       4.567063     -1.179039      0.558493
  C       2.097034     -2.876431      1.429182
  C       3.478813     -3.438419     -1.326517
  H       4.238475     -0.419253      1.297585
  H       5.082759     -0.671158     -0.281987
  H       5.295066     -1.855940      1.051526
  H       1.130782     -3.315187      1.105086
  H       1.894235     -2.079088      2.173924
  H       2.691467     -3.673374      1.922657
  H       2.582183     -4.013253     -1.638199
  H       4.217278     -4.159520     -0.918495
  H       3.923201     -2.978063     -2.233531
  H       2.123526     -1.138401     -0.730182
51
Coordinates from ORCA-job my_molecule E -1977.847296956840
  Pt     -1.964367     -0.099098      1.267262
  O      -0.425775      0.389529      2.339573
  O      -3.872279     -0.197288      0.351475
  P       0.957308      1.092296      1.793685
  P      -3.353235     -1.221500     -0.721253
  O      -4.329061     -2.505126     -0.918610
  O      -1.963852     -1.655343     -0.058819
  O       0.883533      1.021319      0.147697
  O       2.198677      0.458881      2.374586
  C       0.761408      2.903750      2.148016
  C      -3.176669     -0.589163     -2.436412
  C      -2.414400     -1.653988     -3.253988
  C      -2.368841      0.722920     -2.357979
  C      -4.581602     -0.327534     -3.012117
  C      -0.476380      3.479215      1.438788
  C       0.645413      3.055390      3.679688
  C       2.045591      3.589064      1.637342
  H      -4.504145     -2.947206     -0.061258
  H       1.382680      0.220135     -0.157830
  H      -1.417717     -1.863673     -2.813103
  H      -2.261721     -1.275154     -4.283789
  H      -2.976741     -2.605601     -3.319264
  H      -1.379925      0.579104     -1.879997
  H      -2.911497      1.498813     -1.787039
  H      -2.205460      1.102518     -3.388371
  H      -5.170502     -1.259998     -3.098456
  H      -4.479436      0.111955     -4.024058
  H      -5.149209      0.391818     -2.390104
  H      -1.415653      3.012219      1.803292
  H      -0.420059      3.332140      0.341715
  H      -0.546719      4.571367      1.639509
  H      -0.270612      2.569205      4.070656
  H       0.605556      4.134216      3.944883
  H       1.517484      2.602330      4.192180
  H       2.149101      3.484350      0.538532
  H       2.944956      3.149994      2.112470
  H       2.009663      4.672037      1.880648
  Si      3.014094     -2.132623     -0.029739
  C       4.542105     -1.181463      0.534976
  C       2.074413     -2.869954      1.431115
  C       3.434953     -3.445369     -1.333209
  H       4.222522     -0.420236      1.276594
  H       5.050929     -0.675359     -0.310808
  H       5.273560     -1.859262      1.021544
  H       1.101144     -3.300192      1.116454
  H       1.885090     -2.070461      2.177282
  H       2.666786     -3.671601      1.919332
  H       2.532929     -4.012586     -1.643215
  H       4.167228     -4.172623     -0.924612
  H       3.882566     -2.990177     -2.241469
  H       2.086168     -1.141987     -0.733793
51
Coordinates from ORCA-job my_molecule E -1977.847324294936
  Pt     -1.959408     -0.100881      1.268360
  O      -0.419260      0.387525      2.339425
  O      -3.867083     -0.203010      0.352809
  P       0.960896      1.095315      1.792198
  P      -3.345065     -1.224353     -0.721225
  O      -4.317750     -2.509852     -0.920961
  O      -1.954958     -1.656102     -0.057834
  O       0.885257      1.026009      0.145793
  O       2.205469      0.465868      2.370388
  C       0.760214      2.905658      2.149309
  C      -3.167851     -0.588734     -2.435993
  C      -2.405824     -1.650036     -3.255898
  C      -2.362436      0.724753     -2.355632
  C      -4.573372     -0.328754     -3.014309
  C      -0.480098      3.478539      1.442524
  C       0.645053      3.053151      3.680044
  C       2.043563      3.594467      1.638115
  H      -4.491625     -2.953206     -0.064830
  H       1.385882      0.225713     -0.160171
  H      -1.411333     -1.861111     -2.816756
  H      -2.252796     -1.266645     -4.285361
  H      -2.968252     -2.601338     -3.323835
  H      -1.372552      0.583281     -1.878871
  H      -2.908563      1.499234     -1.782969
  H      -2.201418      1.105194     -3.384687
  H      -5.161518     -1.261406     -3.102886
  H      -4.469866      0.112016     -4.026533
  H      -5.143762      0.388971     -2.391600
  H      -1.417362      3.007893      1.806328
  H      -0.424440      3.333746      0.345043
  H      -0.553946      4.569296      1.645675
  H      -0.271108      2.565819      4.069851
  H       0.604995      4.130171      3.948550
  H       1.517898      2.598709      4.189769
  H       2.145854      3.491175      0.539383
  H       2.944909      3.156646      2.110395
  H       2.006693      4.677462      1.883315
  Si      3.001263     -2.136357     -0.028623
  C       4.529771     -1.176455      0.518177
  C       2.078364     -2.871772      1.443372
  C       3.416788     -3.452414     -1.329512
  H       4.213709     -0.414925      1.260765
  H       5.028125     -0.670143     -0.333550
  H       5.269180     -1.849902      0.999196
  H       1.103007     -3.304731      1.139679
  H       1.893975     -2.070281      2.188424
  H       2.677513     -3.670533      1.928158
  H       2.510221     -4.006600     -1.649114
  H       4.134559     -4.189948     -0.914125
  H       3.878775     -3.002828     -2.232827
  H       2.059714     -1.154295     -0.726944
51
Coordinates from ORCA-job my_molecule E -1977.847318413000
  Pt     -1.952847     -0.101680      1.268757
  O      -0.413077      0.387470      2.339888
  O      -3.860390     -0.207680      0.352455
  P       0.964803      1.099610      1.793228
  P      -3.334890     -1.226530     -0.722280
  O      -4.303664     -2.514790     -0.924290
  O      -1.943866     -1.655270     -0.058959
  O       0.889340      1.031771      0.146711
  O       2.211457      0.473071      2.370194
  C       0.759039      2.909448      2.151559
  C      -3.158904     -0.588992     -2.436059
  C      -2.393005     -1.648082     -3.256210
  C      -2.356792      0.726303     -2.354356
  C      -4.564804     -0.332114     -3.013825
  C      -0.482407      3.479431      1.444552
  C       0.643278      3.056653      3.682834
  C       2.039833      3.602460      1.641065
  H      -4.477617     -2.960105     -0.068556
  H       1.391425      0.232483     -0.159319
  H      -1.397550     -1.856624     -2.815702
  H      -2.240024     -1.264217     -4.284974
  H      -2.952748     -2.601004     -3.325292
  H      -1.366405      0.586419     -1.877785
  H      -2.903942      1.498532     -1.780805
  H      -2.196634      1.108549     -3.383478
  H      -5.150315     -1.266518     -3.103044
  H      -4.462564      0.109889     -4.025294
  H      -5.136827      0.383649     -2.390617
  H      -1.418356      3.005843      1.807615
  H      -0.425761      3.335599      0.346933
  H      -0.559536      4.570054      1.648301
  H      -0.271267      2.566636      4.072611
  H       0.600143      4.134074      3.950997
  H       1.517165      2.604874      4.193301
  H       2.143262      3.499187      0.542317
  H       2.942143      3.167886      2.114506
  H       1.998696      4.684988      1.885808
  Si      2.986477     -2.141853     -0.029178
  C       4.516807     -1.176098      0.501796
  C       2.079900     -2.877998      1.452654
  C       3.394454     -3.458157     -1.332127
  H       4.205588     -0.415249      1.247283
  H       5.005385     -0.668561     -0.354986
  H       5.263013     -1.847041      0.975665
  H       1.102106     -3.312511      1.159048
  H       1.901381     -2.075874      2.198615
  H       2.685116     -3.675306      1.932154
  H       2.482765     -3.997631     -1.662187
  H       4.097330     -4.208226     -0.913345
  H       3.870613     -3.011451     -2.229738
  H       2.032670     -1.165317     -0.718438
51
Coordinates from ORCA-job my_molecule E -1977.847295312314
  Pt     -1.967550     -0.091750      1.262669
  O      -0.419172      0.370222      2.334128
  O      -3.875878     -0.182372      0.346066
  P       0.960502      1.080871      1.791885
  P      -3.360338     -1.207430     -0.726564
  O      -4.336610     -2.491058     -0.919507
  O      -1.968547     -1.641756     -0.068093
  O       0.891859      1.008959      0.145098
  O       2.203567      0.455701      2.377874
  C       0.759336      2.893126      2.143622
  C      -3.189717     -0.576925     -2.443211
  C      -2.435987     -1.642379     -3.265358
  C      -2.380141      0.734265     -2.369424
  C      -4.597764     -0.312996     -3.013557
  C      -0.478691      3.466564      1.433770
  C       0.642169      3.045268      3.674464
  C       2.043989      3.580087      1.632888
  H      -4.507127     -2.934231     -0.062328
  H       1.382841      0.200661     -0.155696
  H      -1.440297     -1.857103     -2.831162
  H      -2.286554     -1.261097     -4.295752
  H      -3.002818     -2.591352     -3.328900
  H      -1.388647      0.590047     -1.897430
  H      -2.921014      1.511785     -1.795721
  H      -2.222582      1.112321     -3.399227
  H      -5.188248     -1.243820     -3.099097
  H      -4.498883      0.127442     -4.025689
  H      -5.162958      0.406091     -2.388065
  H      -1.417579      2.998286      1.797997
  H      -0.421879      3.318531      0.335994
  H      -0.551407      4.558750      1.633868
  H      -0.273522      2.557946      4.065288
  H       0.600648      4.123627      3.939009
  H       1.514395      2.593327      4.187571
  H       2.148173      3.475080      0.534113
  H       2.943766      3.141701      2.107635
  H       2.007867      4.663646      1.876507
  Si      3.026830     -2.140802     -0.015048
  C       4.543169     -1.161759      0.530718
  C       2.111433     -2.883525      1.457811
  C       3.458704     -3.454366     -1.312888
  H       4.216307     -0.401760      1.270489
  H       5.037297     -0.652289     -0.321644
  H       5.289385     -1.825454      1.014899
  H       1.143229     -3.332421      1.154313
  H       1.913804     -2.081272      2.198842
  H       2.721558     -3.671327      1.946920
  H       2.557323     -4.011985     -1.641542
  H       4.175091     -4.189367     -0.891105
  H       3.927337     -3.002342     -2.211821
  H       2.073335     -1.171369     -0.715607
51
Coordinates from ORCA-job my_molecule E -1977.847309226508
  Pt     -1.953224     -0.097754      1.264902
  O      -0.410522      0.381047      2.336745
  O      -3.860287     -0.198689      0.347734
  P       0.966775      1.095767      1.793046
  P      -3.338525     -1.220838     -0.724908
  O      -4.309810     -2.507450     -0.921701
  O      -1.947050     -1.650716     -0.062718
  O       0.894472      1.030030      0.146136
  O       2.213189      0.470649      2.371986
  C       0.760014      2.905601      2.152625
  C      -3.165012     -0.587841     -2.440595
  C      -2.404614     -1.649803     -3.261013
  C      -2.360921      0.726640     -2.363890
  C      -4.572214     -0.329357     -3.015849
  C      -0.481639      3.476677      1.446965
  C       0.644756      3.051444      3.683899
  C       2.041550      3.598815      1.642089
  H      -4.481880     -2.950955     -0.065217
  H       1.392196      0.227572     -0.158928
  H      -1.409729     -1.860952     -2.823819
  H      -2.253282     -1.267019     -4.290782
  H      -2.967445     -2.600949     -3.327013
  H      -1.369745      0.586668     -1.890030
  H      -2.906636      1.501674     -1.790919
  H      -2.203148      1.105778     -3.393208
  H      -5.159153     -1.262317     -3.103067
  H      -4.471456      0.111260     -4.027958
  H      -5.142176      0.387855     -2.392442
  H      -1.418040      3.003069      1.810548
  H      -0.425606      3.333259      0.348757
  H      -0.558330      4.567619      1.651519
  H      -0.269915      2.561466      4.073770
  H       0.602267      4.128505      3.952763
  H       1.518423      2.598828      4.193932
  H       2.144800      3.496624      0.543089
  H       2.943857      3.162962      2.114458
  H       2.001455      4.681843      1.888185
  Si      2.992234     -2.141727     -0.025082
  C       4.518853     -1.169197      0.503835
  C       2.087704     -2.877720      1.457867
  C       3.405435     -3.459014     -1.325207
  H       4.204611     -0.408774      1.248666
  H       5.005003     -0.660657     -0.353644
  H       5.268126     -1.836865      0.977906
  H       1.111085     -3.315305      1.165110
  H       1.906847     -2.074621      2.202189
  H       2.695189     -3.672651      1.938642
  H       2.496707     -4.006422     -1.650904
  H       4.115124     -4.202179     -0.906562
  H       3.875601     -3.011511     -2.225517
  H       2.034091     -1.170371     -0.716388
51
Coordinates from ORCA-job my_molecule E -1977.847252560347
  Pt     -1.956486     -0.089088      1.259816
  O      -0.405765      0.365565      2.331751
  O      -3.863318     -0.183437      0.340573
  P       0.969508      1.085897      1.793661
  P      -3.344661     -1.207257     -0.730726
  O      -4.315880     -2.494226     -0.922516
  O      -1.951081     -1.636976     -0.072516
  O       0.904518      1.019080      0.146124
  O       2.215699      0.466680      2.379339
  C       0.758827      2.897137      2.149461
  C      -3.177687     -0.577863     -2.447556
  C      -2.421984     -1.641363     -3.270158
  C      -2.373320      0.736562     -2.375963
  C      -4.587474     -0.318801     -3.015807
  C      -0.481933      3.466932      1.441636
  C       0.641840      3.046665      3.681020
  C       2.040372      3.591179      1.639074
  H      -4.483710     -2.938852     -0.065976
  H       1.395032      0.210113     -0.153987
  H      -1.426133     -1.854419     -2.836786
  H      -2.273755     -1.259386     -4.300175
  H      -2.986985     -2.591278     -3.333381
  H      -1.380263      0.596025     -1.907346
  H      -2.915636      1.512421     -1.801110
  H      -2.220229      1.115077     -3.405483
  H      -5.174076     -1.251236     -3.100540
  H      -4.491767      0.121662     -4.027424
  H      -5.154512      0.398269     -2.390276
  H      -1.419141      2.993309      1.805722
  H      -0.424685      3.321189      0.342836
  H      -0.559705      4.559186      1.644057
  H      -0.271018      2.554237      4.072268
  H       0.595425      4.124845      3.946179
  H       1.516033      2.598540      4.194166
  H       2.145117      3.488005      0.539953
  H       2.942294      3.156027      2.112860
  H       1.999398      4.674671      1.884374
  Si      3.003393     -2.149777     -0.012454
  C       4.519756     -1.155012      0.503553
  C       2.118067     -2.893039      1.478400
  C       3.426223     -3.464506     -1.311870
  H       4.199300     -0.397112      1.248460
  H       4.993948     -0.642447     -0.358114
  H       5.280744     -1.811602      0.974440
  H       1.145658     -3.345188      1.193277
  H       1.930324     -2.088973      2.220361
  H       2.739542     -3.677692      1.958283
  H       2.520043     -4.010708     -1.646429
  H       4.131643     -4.209146     -0.888856
  H       3.903856     -3.015020     -2.207580
  H       2.024645     -1.194866     -0.698615
51
Coordinates from ORCA-job my_molecule E -1977.847330122703
  Pt     -1.948288     -0.101811      1.266864
  O      -0.411610      0.392450      2.339653
  O      -3.854511     -0.207304      0.349823
  P       0.966965      1.104659      1.794653
  P      -3.330881     -1.229803     -0.722066
  O      -4.302050     -2.516354     -0.920178
  O      -1.940683     -1.658944     -0.057014
  O       0.891959      1.041742      0.148104
  O       2.213275      0.475569      2.369607
  C       0.761383      2.913530      2.157991
  C      -3.154196     -0.597158     -2.437579
  C      -2.390515     -1.659339     -3.255185
  C      -2.351065      0.717753     -2.359910
  C      -4.560087     -0.340236     -3.016331
  C      -0.480495      3.485486      1.453150
  C       0.646288      3.056887      3.689666
  C       2.042541      3.607390      1.648119
  H      -4.476081     -2.959050     -0.063533
  H       1.394179      0.243664     -0.160475
  H      -1.395796     -1.868336     -2.815518
  H      -2.237755     -1.277811     -4.285061
  H      -2.951591     -2.611542     -3.321300
  H      -1.360947      0.578758     -1.883269
  H      -2.898265      1.492800     -1.789039
  H      -2.190983      1.096254     -3.389525
  H      -5.146356     -1.273778     -3.103209
  H      -4.457443      0.098774     -4.028824
  H      -5.131756      0.377854     -2.395396
  H      -1.416355      3.011165      1.816105
  H      -0.424335      3.343513      0.354761
  H      -0.557176      4.576104      1.659074
  H      -0.268539      2.566723      4.078634
  H       0.604204      4.133657      3.960266
  H       1.519845      2.603176      4.199013
  H       2.145276      3.506719      0.548996
  H       2.945138      3.171192      2.119570
  H       2.002198      4.689799      1.895648
  Si      2.980063     -2.136790     -0.034533
  C       4.515133     -1.180426      0.500115
  C       2.065499     -2.868563      1.444612
  C       3.383069     -3.454648     -1.337654
  H       4.207353     -0.419030      1.246618
  H       5.007477     -0.674123     -0.355229
  H       5.257188     -1.856384      0.973567
  H       1.084937     -3.295125      1.148598
  H       1.891710     -2.066493      2.191751
  H       2.663879     -3.671390      1.923609
  H       2.471313     -3.999825     -1.657896
  H       4.093799     -4.199873     -0.923753
  H       3.849041     -3.007671     -2.240465
  H       2.034046     -1.153809     -0.725623
51
Coordinates from ORCA-job my_molecule E -1977.847359041376
  Pt     -1.941554     -0.108883      1.270387
  O      -0.414687      0.410661      2.343899
  O      -3.846805     -0.220715      0.354033
  P       0.966191      1.117991      1.796068
  P      -3.320960     -1.244479     -0.716303
  O      -4.293277     -2.529866     -0.916277
  O      -1.933397     -1.673541     -0.046005
  O       0.886157      1.059337      0.150027
  O       2.211993      0.481853      2.364408
  C       0.763977      2.925159      2.165757
  C      -3.137931     -0.612754     -2.431920
  C      -2.370199     -1.675669     -3.244920
  C      -2.335419      0.702461     -2.352703
  C      -4.541324     -0.357295     -3.017418
  C      -0.478033      3.499808      1.462843
  C       0.649351      3.063644      3.697610
  C       2.045638      3.618724      1.657248
  H      -4.471161     -2.970224     -0.059157
  H       1.395326      0.268181     -0.164328
  H      -1.376538     -1.882249     -2.801593
  H      -2.214751     -1.295869     -4.275212
  H      -2.929456     -2.628934     -3.311234
  H      -1.347237      0.565031     -1.871249
  H      -2.885629      1.478308     -1.785594
  H      -2.171256      1.079106     -3.382552
  H      -5.127603     -1.291098     -3.104268
  H      -4.434359      0.079176     -4.030909
  H      -5.115471      0.362558     -2.400623
  H      -1.413853      3.025382      1.824927
  H      -0.422175      3.360557      0.364464
  H      -0.553242      4.589728      1.671477
  H      -0.267115      2.574991      4.084624
  H       0.610341      4.139463      3.972068
  H       1.521924      2.605822      4.204965
  H       2.147981      3.520067      0.557995
  H       2.948137      3.181084      2.127620
  H       2.005975      4.700724      1.906648
  Si      2.963172     -2.126569     -0.050310
  C       4.510873     -1.197839      0.497767
  C       2.027803     -2.850354      1.419991
  C       3.352344     -3.445650     -1.356908
  H       4.212188     -0.434896      1.246362
  H       5.015641     -0.695430     -0.352714
  H       5.239546     -1.887695      0.971885
  H       1.041389     -3.257414      1.116186
  H       1.864604     -2.050339      2.171503
  H       2.608950     -3.666706      1.897283
  H       2.436924     -3.990754     -1.667085
  H       4.067306     -4.190814     -0.950203
  H       3.809548     -2.999600     -2.264585
  H       2.040156     -1.124177     -0.743977
51
Coordinates from ORCA-job my_molecule E -1977.847352010614
  Pt     -1.941885     -0.110565      1.272101
  O      -0.422304      0.425362      2.346743
  O      -3.845008     -0.222596      0.354455
  P       0.962476      1.125071      1.799238
  P      -3.321059     -1.252292     -0.710773
  O      -4.298505     -2.533470     -0.907764
  O      -1.936940     -1.684162     -0.035204
  O       0.881176      1.069763      0.153694
  O       2.204934      0.480078      2.364986
  C       0.767707      2.932277      2.172320
  C      -3.132883     -0.627445     -2.428039
  C      -2.364344     -1.694557     -3.234770
  C      -2.329890      0.687442     -2.352045
  C      -4.534409     -0.372389     -3.017901
  C      -0.471437      3.512760      1.468671
  C       0.651834      3.070043      3.704776
  C       2.052602      3.621185      1.665048
  H      -4.478694     -2.970684     -0.049727
  H       1.394393      0.283173     -0.164925
  H      -1.371678     -1.899901     -2.789422
  H      -2.207497     -1.319376     -4.266134
  H      -2.923764     -2.647676     -3.297938
  H      -1.343446      0.551130     -1.867642
  H      -2.881016      1.466577     -1.790078
  H      -2.162963      1.059568     -3.382320
  H      -5.121417     -1.305099     -3.101134
  H      -4.424962      0.058160     -4.032766
  H      -5.108701      0.351825     -2.406963
  H      -1.409620      3.042099      1.831064
  H      -0.415009      3.372274      0.369672
  H      -0.541638      4.604138      1.676608
  H      -0.266252      2.583606      4.090893
  H       0.615489      4.146370      3.979363
  H       1.522297      2.609684      4.213603
  H       2.155533      3.522884      0.565464
  H       2.953046      3.179464      2.135731
  H       2.016926      4.703674      1.915160
  Si      2.962539     -2.113303     -0.063943
  C       4.518618     -1.215170      0.512248
  C       1.993854     -2.832665      1.387446
  C       3.347011     -3.429625     -1.375658
  H       4.223347     -0.452201      1.262389
  H       5.043066     -0.715510     -0.328018
  H       5.229089     -1.920470      0.991067
  H       1.004519     -3.219452      1.066608
  H       1.834943     -2.036851      2.144464
  H       2.553558     -3.663694      1.865093
  H       2.432926     -3.984527     -1.672564
  H       4.075400     -4.166911     -0.978877
  H       3.787929     -2.979532     -2.289667
  H       2.070108     -1.088484     -0.764636
51
Coordinates from ORCA-job my_molecule E -1977.847297483128
  Pt     -1.952588     -0.100315      1.264941
  O      -0.414817      0.387692      2.338464
  O      -3.857987     -0.200570      0.347093
  P       0.964679      1.098934      1.795574
  P      -3.337804     -1.224249     -0.724193
  O      -4.311174     -2.508514     -0.919656
  O      -1.947643     -1.655807     -0.060530
  O       0.892388      1.034381      0.149134
  O       2.209605      0.469689      2.373480
  C       0.760917      2.909254      2.155929
  C      -3.163766     -0.592938     -2.439979
  C      -2.402208     -1.655905     -3.258554
  C      -2.361308      0.722571     -2.364577
  C      -4.570680     -0.335781     -3.015667
  C      -0.479539      3.482664      1.449586
  C       0.645036      3.056277      3.688096
  C       2.043601      3.600588      1.645037
  H      -4.484580     -2.949978     -0.062588
  H       1.393377      0.234879     -0.157780
  H      -1.406952     -1.865351     -2.821574
  H      -2.251848     -1.274679     -4.288396
  H      -2.963538     -2.607780     -3.322878
  H      -1.370255      0.583639     -1.891276
  H      -2.907548      1.498223     -1.792673
  H      -2.204370      1.100884     -3.393519
  H      -5.156640     -1.268567     -3.099868
  H      -4.470703      0.101446     -4.028106
  H      -5.140639      0.383406     -2.395373
  H      -1.417254      3.010925      1.814339
  H      -0.422884      3.337262      0.350720
  H      -0.553646      4.575528      1.652623
  H      -0.269342      2.566144      4.078504
  H       0.601992      4.134394      3.955630
  H       1.518363      2.604556      4.199729
  H       2.147572      3.497376      0.545649
  H       2.945002      3.163752      2.118476
  H       2.004446      4.684583      1.890124
  Si      2.993334     -2.138748     -0.029973
  C       4.524534     -1.178092      0.509481
  C       2.076101     -2.873380      1.446389
  C       3.403348     -3.454968     -1.333140
  H       4.211902     -0.416823      1.254520
  H       5.018796     -0.671228     -0.344456
  H       5.266612     -1.851880      0.985986
  H       1.098677     -3.305395      1.147191
  H       1.895688     -2.071158      2.192190
  H       2.676704     -3.672822      1.928366
  H       2.495296     -4.009018     -1.648735
  H       4.122930     -4.193449     -0.922196
  H       3.861685     -3.004183     -2.238129
  H       2.047129     -1.157470     -0.723434
51
Coordinates from ORCA-job my_molecule E -1977.847312383235
  Pt     -1.957779     -0.103521      1.268089
  O      -0.434565      0.415146      2.346222
  O      -3.858874     -0.205298      0.344706
  P       0.953551      1.110616      1.803128
  P      -3.337809     -1.238140     -0.718052
  O      -4.319721     -2.515452     -0.914755
  O      -1.956329     -1.675430     -0.040387
  O       0.878750      1.052064      0.157132
  O       2.192000      0.463983      2.375763
  C       0.764591      2.920224      2.170891
  C      -3.145726     -0.616052     -2.435558
  C      -2.381032     -1.686818     -3.241063
  C      -2.338457      0.696380     -2.360174
  C      -4.545996     -0.355973     -3.026030
  C      -0.469869      3.504855      1.462589
  C       0.645126      3.063028      3.703056
  C       2.053980      3.602654      1.665435
  H      -4.502296     -2.951533     -0.056826
  H       1.386598      0.259807     -0.156479
  H      -1.389895     -1.896601     -2.794812
  H      -2.221515     -1.312683     -4.272146
  H      -2.944656     -2.637340     -3.304259
  H      -1.352628      0.556739     -1.876056
  H      -2.887122      1.478003     -1.798677
  H      -2.170188      1.067446     -3.390004
  H      -5.135977     -1.286324     -3.109118
  H      -4.434631      0.073555     -4.040627
  H      -5.117869      0.370623     -2.416127
  H      -1.411750      3.039401      1.824017
  H      -0.411029      3.361092      0.363777
  H      -0.535569      4.597856      1.667536
  H      -0.275061      2.580033      4.088651
  H       0.610995      4.140635      3.973986
  H       1.512797      2.601949      4.216014
  H       2.160329      3.500839      0.566145
  H       2.950863      3.158197      2.140487
  H       2.021992      4.686481      1.912398
  Si      2.978062     -2.119997     -0.052417
  C       4.525646     -1.188270      0.492792
  C       2.044786     -2.843888      1.419729
  C       3.366559     -3.440424     -1.358881
  H       4.227037     -0.424543      1.241116
  H       5.028542     -0.686281     -0.359140
  H       5.256007     -1.876551      0.966555
  H       1.057920     -3.251722      1.117458
  H       1.882424     -2.043761      2.171747
  H       2.627036     -3.660035      1.896144
  H       2.455495     -4.003902     -1.648439
  H       4.102579     -4.170197     -0.961742
  H       3.799371     -2.991672     -2.277398
  H       2.053305     -1.119195     -0.746397
51
Coordinates from ORCA-job my_molecule E -1977.847306916874
  Pt     -1.954800     -0.083657      1.266699
  O      -0.426127      0.413657      2.349087
  O      -3.851587     -0.197751      0.332200
  P       0.957082      1.121844      1.812096
  P      -3.320693     -1.234126     -0.721138
  O      -4.289539     -2.523236     -0.906790
  O      -1.934593     -1.653648     -0.041470
  O       0.884556      1.067488      0.165350
  O       2.197791      0.482760      2.388114
  C       0.762061      2.930997      2.183186
  C      -3.135610     -0.624733     -2.443707
  C      -2.365985     -1.695683     -3.243643
  C      -2.337137      0.693798     -2.378726
  C      -4.539100     -0.378169     -3.032446
  C      -0.474754      3.515841      1.480006
  C       0.645886      3.068645      3.716156
  C       2.048929      3.618955      1.677996
  H      -4.466791     -2.954706     -0.045654
  H       1.381858      0.267816     -0.147443
  H      -1.373368     -1.897093     -2.797694
  H      -2.209839     -1.326971     -4.277270
  H      -2.924629     -2.649609     -3.299685
  H      -1.349863      0.563257     -1.895541
  H      -2.890191      1.475347     -1.821194
  H      -2.172387      1.059475     -3.410585
  H      -5.122118     -1.313278     -3.109557
  H      -4.433012      0.046914     -4.049433
  H      -5.115188      0.346941     -2.424902
  H      -1.415769      3.047652      1.841970
  H      -0.418925      3.376510      0.380329
  H      -0.542353      4.607975      1.689527
  H      -0.269912      2.578129      4.103255
  H       0.605287      4.145031      3.990747
  H       1.517845      2.611347      4.225035
  H       2.153112      3.523475      0.577791
  H       2.947410      3.173391      2.148869
  H       2.015806      4.701492      1.931161
  Si      2.966926     -2.122397     -0.057425
  C       4.531239     -1.212795      0.475170
  C       2.039838     -2.837787      1.422119
  C       3.324163     -3.443562     -1.371077
  H       4.246543     -0.443746      1.223361
  H       5.035961     -0.719821     -0.380686
  H       5.254441     -1.910532      0.946150
  H       1.050995     -3.246648      1.127929
  H       1.883367     -2.033792      2.171276
  H       2.624408     -3.652293      1.898569
  H       2.399468     -3.979883     -1.668750
  H       4.037999     -4.195914     -0.975710
  H       3.772466     -3.000446     -2.284700
  H       2.048834     -1.106466     -0.738919
51
Coordinates from ORCA-job my_molecule E -1977.847221170437
  Pt     -1.968957     -0.086125      1.265732
  O      -0.442511      0.414553      2.349168
  O      -3.865149     -0.186454      0.332728
  P       0.946533      1.110742      1.814236
  P      -3.343875     -1.228581     -0.718890
  O      -4.326335     -2.506209     -0.905105
  O      -1.963396     -1.662315     -0.036423
  O       0.879317      1.051016      0.167507
  O       2.181172      0.464918      2.395792
  C       0.761907      2.923176      2.178443
  C      -3.152096     -0.621681     -2.441198
  C      -2.388226     -1.697598     -3.239661
  C      -2.347455      0.692891     -2.376157
  C      -4.553478     -0.366678     -3.031683
  C      -0.468167      3.513952      1.467940
  C       0.640061      3.069895      3.710967
  C       2.055742      3.600364      1.674867
  H      -4.505025     -2.939651     -0.045691
  H       1.381661      0.253344     -0.142748
  H      -1.397692     -1.905271     -2.793472
  H      -2.229471     -1.330294     -4.272940
  H      -2.952744     -2.647713     -3.295803
  H      -1.362026      0.557650     -1.892151
  H      -2.897463      1.478605     -1.820789
  H      -2.179723      1.056584     -3.406901
  H      -5.141398     -1.297252     -3.108615
  H      -4.443970      0.055894     -4.048161
  H      -5.125676      0.362942     -2.426849
  H      -1.414581      3.054276      1.830225
  H      -0.408732      3.366823      0.368569
  H      -0.528173      4.609212      1.670468
  H      -0.278668      2.584601      4.097892
  H       0.602289      4.148680      3.977972
  H       1.507501      2.613021      4.227977
  H       2.164550      3.498458      0.575261
  H       2.949263      3.151077      2.151992
  H       2.028412      4.685212      1.922251
  Si      2.994680     -2.117584     -0.056627
  C       4.550962     -1.205164      0.495242
  C       2.051609     -2.839240      1.410355
  C       3.370053     -3.435877     -1.369282
  H       4.257023     -0.439243      1.243255
  H       5.062580     -0.708018     -0.353880
  H       5.271612     -1.902532      0.970781
  H       1.063819     -3.243005      1.104372
  H       1.890836     -2.039155      2.163483
  H       2.628958     -3.659338      1.886399
  H       2.454647     -3.992522     -1.658724
  H       4.102187     -4.171703     -0.976692
  H       3.804547     -2.986612     -2.287027
  H       2.083066     -1.102073     -0.748410
51
Coordinates from ORCA-job my_molecule E -1977.847294469823
  Pt     -1.955242     -0.088554      1.266154
  O      -0.427680      0.413214      2.347716
  O      -3.852890     -0.198938      0.334682
  P       0.956644      1.118547      1.810152
  P      -3.325142     -1.234332     -0.720939
  O      -4.297359     -2.520118     -0.908760
  O      -1.939984     -1.658660     -0.042294
  O       0.884995      1.062792      0.163458
  O       2.196524      0.477793      2.386193
  C       0.762912      2.928297      2.179899
  C      -3.139625     -0.621859     -2.442237
  C      -2.371419     -1.692359     -3.244171
  C      -2.340322      0.696001     -2.375406
  C      -4.542990     -0.372717     -3.030395
  C      -0.473360      3.513275      1.475543
  C       0.645928      3.068442      3.712985
  C       2.050559      3.614745      1.674230
  H      -4.474842     -2.953588     -0.048777
  H       1.384980      0.264551     -0.148926
  H      -1.379095     -1.895869     -2.799006
  H      -2.215236     -1.321950     -4.277041
  H      -2.931155     -2.645406     -3.301819
  H      -1.352915      0.563988     -1.893547
  H      -2.892510      1.477373     -1.816432
  H      -2.176446      1.063159     -3.406357
  H      -5.127027     -1.306566     -3.108198
  H      -4.436747      0.052883     -4.046718
  H      -5.117935      0.352781     -2.422598
  H      -1.415082      3.046086      1.838189
  H      -0.416768      3.371992      0.375930
  H      -0.540025      4.606295      1.683309
  H      -0.269908      2.578544      4.100563
  H       0.605264      4.145592      3.985191
  H       1.517274      2.612315      4.224040
  H       2.155730      3.517105      0.574234
  H       2.948524      3.169578      2.146705
  H       2.017545      4.698069      1.925214
  Si      2.970911     -2.123475     -0.055075
  C       4.529822     -1.206191      0.481695
  C       2.042171     -2.842506      1.421990
  C       3.338489     -3.443633     -1.367663
  H       4.240383     -0.438881      1.229971
  H       5.033931     -0.710351     -0.372726
  H       5.255553     -1.900873      0.953453
  H       1.054318     -3.252329      1.125029
  H       1.882784     -2.039477      2.172007
  H       2.626927     -3.656972      1.898514
  H       2.417743     -3.987321     -1.664596
  H       4.058161     -4.190311     -0.972041
  H       3.783967     -2.997773     -2.281613
  H       2.049666     -1.112411     -0.739711
51
Coordinates from ORCA-job my_molecule E -1977.847286159385
  Pt     -1.943022     -0.088213      1.265235
  O      -0.412630      0.407949      2.345596
  O      -3.840750     -0.205832      0.333614
  P       0.966615      1.123285      1.808264
  P      -3.308172     -1.235719     -0.724443
  O      -4.270938     -2.528492     -0.911607
  O      -1.918299     -1.651433     -0.050020
  O       0.894052      1.070895      0.161509
  O       2.210909      0.488816      2.381822
  C       0.763448      2.931570      2.181198
  C      -3.131070     -0.620034     -2.445186
  C      -2.359403     -1.685469     -3.250702
  C      -2.338867      0.702178     -2.379039
  C      -4.537406     -0.377874     -3.028658
  C      -0.477958      3.511067      1.481441
  C       0.650135      3.068409      3.715192
  C       2.045722      3.626204      1.672765
  H      -4.445783     -2.962202     -0.051173
  H       1.390402      0.270550     -0.151369
  H      -1.365113     -1.884811     -2.808220
  H      -2.207377     -1.312503     -4.283090
  H      -2.914374     -2.641237     -3.308454
  H      -1.348754      0.574492     -1.901833
  H      -2.892936      1.479486     -1.816231
  H      -2.181456      1.072225     -3.409819
  H      -5.116348     -1.314750     -3.105245
  H      -4.436838      0.049116     -4.044649
  H      -5.114410      0.343934     -2.418691
  H      -1.416096      3.037568      1.845697
  H      -0.423392      3.372676      0.381021
  H      -0.550468      4.603630      1.691917
  H      -0.261918      2.573029      4.104683
  H       0.604623      4.145113      3.989400
  H       1.525260      2.615768      4.222973
  H       2.148081      3.531241      0.572141
  H       2.947517      3.184867      2.141565
  H       2.007624      4.709026      1.926036
  Si      2.952230     -2.131542     -0.050698
  C       4.511520     -1.206120      0.471185
  C       2.038981     -2.851017      1.435708
  C       3.314836     -3.451517     -1.364626
  H       4.224667     -0.438711      1.220524
  H       5.006789     -0.709750     -0.388143
  H       5.243975     -1.897020      0.938129
  H       1.051917     -3.268782      1.147339
  H       1.878948     -2.045629      2.183185
  H       2.632760     -3.659058      1.911984
  H       2.391033     -3.987596     -1.665707
  H       4.027724     -4.204704     -0.969068
  H       3.765745     -3.006151     -2.276178
  H       2.018263     -1.126928     -0.727274
51
Coordinates from ORCA-job my_molecule E -1977.847133371927
  Pt     -1.985730     -0.074347      1.274133
  O      -0.471150      0.441778      2.365169
  O      -3.874584     -0.173793      0.328698
  P       0.928737      1.119598      1.832920
  P      -3.350688     -1.226186     -0.711086
  O      -4.339913     -2.497714     -0.898495
  O      -1.980341     -1.664641     -0.012150
  O       0.867408      1.048428      0.187026
  O       2.153960      0.464881      2.424544
  C       0.760875      2.935939      2.184255
  C      -3.140016     -0.630433     -2.434610
  C      -2.369429     -1.713187     -3.217966
  C      -2.334264      0.683481     -2.368957
  C      -4.534307     -0.375899     -3.040600
  C      -0.453957      3.535020      1.454276
  C       0.622390      3.094984      3.714792
  C       2.067554      3.595231      1.690069
  H      -4.529649     -2.923191     -0.037192
  H       1.373325      0.251262     -0.117561
  H      -1.382447     -1.917869     -2.762360
  H      -2.202603     -1.353679     -4.251970
  H      -2.932877     -2.664024     -3.272136
  H      -1.354388      0.549148     -1.873411
  H      -2.888643      1.473635     -1.824099
  H      -2.154684      1.041152     -3.399484
  H      -5.123268     -1.305393     -3.115647
  H      -4.414370      0.038025     -4.058358
  H      -5.110245      0.360410     -2.447988
  H      -1.409570      3.090144      1.811503
  H      -0.384184      3.375489      0.356211
  H      -0.502226      4.634350      1.644986
  H      -0.305744      2.621969      4.094590
  H       0.592332      4.176777      3.974264
  H       1.479472      2.632570      4.244372
  H       2.188989      3.481834      0.592125
  H       2.950179      3.141262      2.182797
  H       2.048085      4.683349      1.926699
  Si      2.980650     -2.126060     -0.067592
  C       4.530407     -1.196165      0.477975
  C       2.070803     -2.886531      1.401314
  C       3.356658     -3.419957     -1.405880
  H       4.234098     -0.443674      1.239190
  H       5.024422     -0.680683     -0.371161
  H       5.267333     -1.887386      0.936871
  H       1.085100     -3.301745      1.104120
  H       1.910242     -2.101587      2.170080
  H       2.668481     -3.704910      1.854553
  H       2.443843     -3.980221     -1.696114
  H       4.099259     -4.155658     -1.031437
  H       3.779114     -2.952461     -2.320349
  H       2.045563     -1.113322     -0.730928
51
Coordinates from ORCA-job my_molecule E -1977.847111521870
  Pt     -1.965075     -0.076411      1.270803
  O      -0.441548      0.422822      2.357833
  O      -3.855933     -0.189593      0.327975
  P       0.946848      1.122094      1.824623
  P      -3.323685     -1.229222     -0.718994
  O      -4.293332     -2.515536     -0.903869
  O      -1.941263     -1.650312     -0.032875
  O       0.880872      1.059250      0.178390
  O       2.181711      0.479205      2.409282
  C       0.761284      2.936003      2.183993
  C      -3.135254     -0.624794     -2.441320
  C      -2.358850     -1.695466     -3.235749
  C      -2.345207      0.698787     -2.377385
  C      -4.537737     -0.384543     -3.033165
  C      -0.465713      3.525731      1.467171
  C       0.634249      3.087160      3.717202
  C       2.056191      3.612223      1.681185
  H      -4.473992     -2.944238     -0.042198
  H       1.379047      0.258158     -0.129227
  H      -1.366648     -1.892194     -2.788484
  H      -2.203322     -1.328895     -4.268568
  H      -2.912479     -2.651938     -3.290400
  H      -1.358137      0.573066     -1.894561
  H      -2.902603      1.479319     -1.821492
  H      -2.182122      1.064551     -3.407287
  H      -5.115729     -1.320510     -3.105104
  H      -4.432773      0.033400     -4.050068
  H      -5.116708      0.343154     -2.433508
  H      -1.413662      3.067879      1.830019
  H      -0.402778      3.373195      0.366778
  H      -0.525120      4.624542      1.664508
  H      -0.283898      2.600276      4.103700
  H       0.592229      4.168041      3.981168
  H       1.501557      2.633456      4.237734
  H       2.168787      3.506503      0.581007
  H       2.947798      3.164089      2.163063
  H       2.027698      4.699200      1.924587
  Si      2.967216     -2.132002     -0.058705
  C       4.525516     -1.210126      0.476801
  C       2.054422     -2.873744      1.418236
  C       3.330468     -3.436208     -1.390485
  H       4.235559     -0.448079      1.231295
  H       5.024247     -0.707107     -0.377168
  H       5.256204     -1.904003      0.941576
  H       1.069795     -3.294300      1.124492
  H       1.890826     -2.077695      2.175372
  H       2.651952     -3.684653      1.884913
  H       2.407898     -3.972548     -1.694256
  H       4.048001     -4.191840     -1.006075
  H       3.777457     -2.978746     -2.298538
  H       2.035740     -1.117398     -0.724223
51
Coordinates from ORCA-job my_molecule E -1977.847062726507
  Pt     -1.980793     -0.076147      1.268677
  O      -0.460353      0.425861      2.358062
  O      -3.871265     -0.169904      0.326319
  P       0.935982      1.110182      1.827473
  P      -3.351852     -1.220170     -0.716561
  O      -4.341064     -2.491197     -0.901368
  O      -1.978301     -1.660033     -0.024595
  O       0.876082      1.041948      0.181281
  O       2.163753      0.459333      2.418232
  C       0.762850      2.926883      2.180164
  C      -3.150554     -0.622198     -2.439573
  C      -2.383681     -1.703556     -3.228709
  C      -2.346332      0.692756     -2.376511
  C      -4.548277     -0.367406     -3.036575
  C      -0.455237      3.523657      1.453790
  C       0.628039      3.086161      3.711954
  C       2.066361      3.590432      1.681914
  H      -4.527377     -2.918350     -0.040149
  H       1.379551      0.242976     -0.122868
  H      -1.394695     -1.909464     -2.778631
  H      -2.221963     -1.341989     -4.262117
  H      -2.947360     -2.654160     -3.281815
  H      -1.363466      0.558340     -1.887847
  H      -2.898179      1.481855     -1.827240
  H      -2.173623      1.052346     -3.406825
  H      -5.135703     -1.296930     -3.110212
  H      -4.435106      0.048575     -4.053024
  H      -5.121600      0.367010     -2.440051
  H      -1.409156      3.075813      1.814197
  H      -0.387450      3.363888      0.354474
  H      -0.505985      4.624398      1.644499
  H      -0.297651      2.610959      4.095142
  H       0.596298      4.168819      3.970338
  H       1.487116      2.626066      4.240513
  H       2.185577      3.477059      0.583092
  H       2.951474      3.138671      2.172379
  H       2.044359      4.679249      1.918554
  Si      2.987294     -2.129364     -0.057321
  C       4.527709     -1.183728      0.487588
  C       2.077422     -2.888075      1.412719
  C       3.379230     -3.426440     -1.387998
  H       4.223227     -0.431724      1.246575
  H       5.018923     -0.666246     -0.362124
  H       5.269854     -1.867635      0.949092
  H       1.093945     -3.308397      1.114605
  H       1.910806     -2.100003      2.177562
  H       2.677383     -3.701963      1.871080
  H       2.473356     -3.999355     -1.675073
  H       4.130608     -4.151383     -1.009986
  H       3.796186     -2.958200     -2.304931
  H       2.043636     -1.129219     -0.728172
51
Coordinates from ORCA-job my_molecule E -1977.846673245746
  Pt     -1.963132     -0.080117      1.269502
  O      -0.442584      0.412472      2.365139
  O      -3.852936     -0.187935      0.314141
  P       0.942257      1.116457      1.829110
  P      -3.320137     -1.227700     -0.726043
  O      -4.285519     -2.515256     -0.905851
  O      -1.937555     -1.646334     -0.037280
  O       0.868295      1.059522      0.184002
  O       2.176958      0.470923      2.411409
  C       0.764253      2.932368      2.186821
  C      -3.129909     -0.629274     -2.447825
  C      -2.358987     -1.705978     -3.240121
  C      -2.334521      0.691384     -2.387838
  C      -4.530019     -0.383582     -3.037755
  C      -0.468738      3.525903      1.483852
  C       0.654223      3.082727      3.725103
  C       2.053576      3.607192      1.666234
  H      -4.467208     -2.936763     -0.040808
  H       1.368358      0.259850     -0.125485
  H      -1.371759     -1.913440     -2.790284
  H      -2.196327     -1.338003     -4.269252
  H      -2.919181     -2.657583     -3.298013
  H      -1.346501      0.557760     -1.912245
  H      -2.884059      1.475831     -1.827846
  H      -2.175917      1.057233     -3.415298
  H      -5.110727     -1.315357     -3.097901
  H      -4.427913      0.022861     -4.055501
  H      -5.102586      0.352455     -2.445395
  H      -1.415004      3.064890      1.856290
  H      -0.415074      3.378517      0.378361
  H      -0.526891      4.628982      1.687158
  H      -0.257048      2.590892      4.123757
  H       0.609747      4.166007      3.991397
  H       1.528088      2.628253      4.234431
  H       2.149921      3.507313      0.561810
  H       2.949553      3.151025      2.132852
  H       2.033271      4.695893      1.915540
  Si      2.957484     -2.125017     -0.057023
  C       4.516451     -1.199756      0.480518
  C       2.045875     -2.865055      1.422757
  C       3.322567     -3.428476     -1.390057
  H       4.222067     -0.436516      1.233707
  H       5.018621     -0.697216     -0.372564
  H       5.245409     -1.893526      0.948090
  H       1.057774     -3.282261      1.135629
  H       1.890532     -2.066444      2.179625
  H       2.642411     -3.676136      1.890326
  H       2.401698     -3.978918     -1.674725
  H       4.057989     -4.174628     -1.022202
  H       3.738551     -2.961383     -2.308408
  H       2.024304     -1.114058     -0.721838
51
Coordinates from ORCA-job my_molecule E -1977.846847825056
  Pt     -1.970990     -0.086956      1.267644
  O      -0.451084      0.413905      2.359469
  O      -3.865189     -0.175701      0.324389
  P       0.940586      1.105547      1.825712
  P      -3.347958     -1.221520     -0.720149
  O      -4.334680     -2.492512     -0.904283
  O      -1.972784     -1.661796     -0.032068
  O       0.874127      1.040353      0.180295
  O       2.172009      0.457840      2.412372
  C       0.765176      2.922674      2.178130
  C      -3.152461     -0.618988     -2.441680
  C      -2.384158     -1.696236     -3.235348
  C      -2.352845      0.699135     -2.377723
  C      -4.551186     -0.366541     -3.032937
  C      -0.453148      3.518423      1.451137
  C       0.629771      3.082256      3.711645
  C       2.067203      3.588257      1.676646
  H      -4.519416     -2.919794     -0.042742
  H       1.377284      0.241395     -0.125121
  H      -1.393348     -1.899649     -2.790769
  H      -2.228998     -1.331523     -4.267359
  H      -2.942982     -2.649432     -3.287771
  H      -1.367654      0.565704     -1.894505
  H      -2.904925      1.484986     -1.822774
  H      -2.186774      1.062837     -3.406159
  H      -5.134664     -1.297109     -3.103351
  H      -4.444753      0.048943     -4.047768
  H      -5.123789      0.366177     -2.435396
  H      -1.407732      3.070301      1.815801
  H      -0.385757      3.355998      0.349799
  H      -0.503572      4.622565      1.639853
  H      -0.297941      2.610050      4.095739
  H       0.601060      4.166846      3.970852
  H       1.487308      2.617439      4.238971
  H       2.187634      3.471358      0.576616
  H       2.952412      3.138953      2.169297
  H       2.042589      4.679871      1.909243
  Si      2.984987     -2.129326     -0.052989
  C       4.523872     -1.177662      0.491810
  C       2.075303     -2.885600      1.419142
  C       3.381044     -3.428495     -1.381104
  H       4.216239     -0.424217      1.249766
  H       5.015888     -0.660228     -0.358547
  H       5.266945     -1.859299      0.955204
  H       1.092613     -3.308777      1.122405
  H       1.907217     -2.094852      2.180904
  H       2.676364     -3.695900      1.881989
  H       2.474262     -3.998219     -1.672214
  H       4.127667     -4.157285     -1.000883
  H       3.801100     -2.960223     -2.296499
  H       2.038127     -1.133970     -0.724688
51
Coordinates from ORCA-job my_molecule E -1977.846678675871
  Pt     -1.989555     -0.079149      1.260360
  O      -0.466011      0.406822      2.353283
  O      -3.884050     -0.140141      0.319745
  P       0.933888      1.085500      1.829869
  P      -3.386882     -1.200910     -0.719233
  O      -4.397718     -2.452882     -0.897604
  O      -2.020522     -1.663406     -0.029328
  O       0.882684      1.012156      0.184091
  O       2.157370      0.435312      2.430113
  C       0.766223      2.906652      2.171894
  C      -3.186771     -0.607983     -2.443536
  C      -2.427092     -1.693469     -3.233500
  C      -2.380163      0.705913     -2.385769
  C      -4.584562     -0.347394     -3.033721
  C      -0.435211      3.508249      1.421840
  C       0.609097      3.080929      3.701976
  C       2.082117      3.558317      1.686218
  H      -4.584499     -2.880233     -0.037078
  H       1.384940      0.209954     -0.113553
  H      -1.434386     -1.896935     -2.794004
  H      -2.277844     -1.337580     -4.269190
  H      -2.989850     -2.644742     -3.275322
  H      -1.398232      0.571286     -1.897850
  H      -2.930961      1.498887     -1.839867
  H      -2.208103      1.061096     -3.415319
  H      -5.171728     -1.274194     -3.107572
  H      -4.475981      0.070671     -4.046409
  H      -5.153754      0.386624     -2.435209
  H      -1.400467      3.077273      1.781461
  H      -0.356469      3.327639      0.323455
  H      -0.472871      4.616256      1.593771
  H      -0.331345      2.626070      4.075981
  H       0.593558      4.168491      3.950004
  H       1.451382      2.610449      4.248569
  H       2.223767      3.424418      0.590427
  H       2.954932      3.111594      2.202739
  H       2.059360      4.653502      1.902941
  Si      3.027535     -2.132361     -0.044513
  C       4.541728     -1.149516      0.510734
  C       2.121828     -2.910535      1.418533
  C       3.460971     -3.422810     -1.369628
  H       4.215737     -0.408862      1.273852
  H       5.022542     -0.614436     -0.335136
  H       5.300391     -1.816555      0.970172
  H       1.145496     -3.342178      1.112631
  H       1.939824     -2.128991      2.186641
  H       2.730317     -3.718980      1.874986
  H       2.575521     -4.027887     -1.654030
  H       4.235927     -4.120098     -0.986841
  H       3.863392     -2.946069     -2.288899
  H       2.064497     -1.155766     -0.723173
51
Coordinates from ORCA-job my_molecule E -1977.846616001703
  Pt     -1.998451     -0.087788      1.273162
  O      -0.487643      0.430223      2.366423
  O      -3.886483     -0.168464      0.324231
  P       0.916411      1.099501      1.837241
  P      -3.371403     -1.219068     -0.716182
  O      -4.371006     -2.476597     -0.911466
  O      -2.009362     -1.676204     -0.013852
  O       0.858632      1.021118      0.193262
  O       2.138154      0.443160      2.434738
  C       0.755406      2.920496      2.176203
  C      -3.155033     -0.614850     -2.434167
  C      -2.384381     -1.695633     -3.220564
  C      -2.351337      0.699568     -2.362081
  C      -4.546152     -0.354506     -3.038344
  C      -0.452479      3.519308      1.433697
  C       0.608337      3.095999      3.707886
  C       2.066991      3.571384      1.679981
  H      -4.565859     -2.904695     -0.053376
  H       1.376539      0.230749     -0.107404
  H      -1.398749     -1.903714     -2.767453
  H      -2.218330     -1.330989     -4.250175
  H      -2.946304     -2.646008     -3.279026
  H      -1.371571      0.562134     -1.870707
  H      -2.905913      1.488662     -1.813767
  H      -2.175431      1.061759     -3.387508
  H      -5.135056     -1.280002     -3.108496
  H      -4.428264      0.054374     -4.052996
  H      -5.117901      0.386435     -2.451087
  H      -1.413978      3.082052      1.795286
  H      -0.376614      3.343175      0.333861
  H      -0.493733      4.627283      1.610083
  H      -0.321899      2.625908      4.089855
  H       0.576668      4.184088      3.955801
  H       1.462501      2.638754      4.247229
  H       2.196236      3.443044      0.581767
  H       2.944454      3.120366      2.185047
  H       2.048612      4.665714      1.901979
  Si      3.008079     -2.131190     -0.056704
  C       4.552192     -1.179687      0.476967
  C       2.114642     -2.894965      1.421538
  C       3.389563     -3.426705     -1.394113
  H       4.250976     -0.425997      1.237690
  H       5.037298     -0.661929     -0.377621
  H       5.299260     -1.860367      0.934763
  H       1.132000     -3.323319      1.132037
  H       1.948659     -2.107952      2.187349
  H       2.724613     -3.702861      1.876629
  H       2.477941     -3.989936     -1.681180
  H       4.135556     -4.161274     -1.021315
  H       3.807813     -2.957779     -2.310104
  H       2.055800     -1.132774     -0.715018
51
Coordinates from ORCA-job my_molecule E -1977.846558019416
  Pt     -1.999848     -0.066887      1.265653
  O      -0.485713      0.429308      2.364940
  O      -3.882438     -0.142448      0.304419
  P       0.920394      1.099519      1.848086
  P      -3.371359     -1.207517     -0.722743
  O      -4.371567     -2.467734     -0.897634
  O      -2.006120     -1.655704     -0.020886
  O       0.874889      1.027561      0.202528
  O       2.136420      0.440924      2.454457
  C       0.762783      2.921534      2.190079
  C      -3.165654     -0.624490     -2.448537
  C      -2.395867     -1.710797     -3.227181
  C      -2.368383      0.694676     -2.396161
  C      -4.561808     -0.376883     -3.046325
  C      -0.438452      3.528237      1.444716
  C       0.613165      3.096243      3.721562
  C       2.080081      3.567823      1.701356
  H      -4.561088     -2.886707     -0.034481
  H       1.383293      0.229956     -0.095418
  H      -1.405415     -1.907642     -2.779454
  H      -2.240631     -1.359989     -4.263331
  H      -2.954115     -2.664345     -3.267255
  H      -1.389482      0.569382     -1.900394
  H      -2.928343      1.489213     -1.861654
  H      -2.190849      1.042066     -3.425897
  H      -5.141891     -1.307839     -3.115034
  H      -4.451450      0.034196     -4.060717
  H      -5.138235      0.358499     -2.456751
  H      -1.404551      3.101191      1.806284
  H      -0.364654      3.348055      0.345131
  H      -0.469853      4.636761      1.617851
  H      -0.325912      2.640435      4.099856
  H       0.599032      4.184151      3.970447
  H       1.458023      2.626037      4.264147
  H       2.215579      3.437959      0.604090
  H       2.952606      3.114340      2.212442
  H       2.065302      4.661813      1.923490
  Si      3.009290     -2.126682     -0.059314
  C       4.549968     -1.174163      0.477181
  C       2.111987     -2.892511      1.415490
  C       3.396746     -3.422033     -1.394321
  H       4.247527     -0.429726      1.246368
  H       5.029096     -0.645700     -0.374310
  H       5.302020     -1.855917      0.925062
  H       1.124908     -3.308867      1.124269
  H       1.954846     -2.110213      2.187696
  H       2.714813     -3.710753      1.861493
  H       2.492499     -3.998638     -1.676676
  H       4.153449     -4.144528     -1.019599
  H       3.807499     -2.952587     -2.313386
  H       2.057458     -1.128579     -0.721637
51
Coordinates from ORCA-job my_molecule E -1977.846302483815
  Pt     -2.001004     -0.080510      1.264963
  O      -0.493877      0.433061      2.364725
  O      -3.885455     -0.155911      0.310629
  P       0.914100      1.100818      1.844476
  P      -3.371983     -1.212432     -0.722933
  O      -4.376332     -2.465457     -0.911036
  O      -2.009917     -1.674482     -0.019919
  O       0.864639      1.015538      0.203446
  O       2.132191      0.446351      2.451281
  C       0.750609      2.919930      2.181307
  C      -3.148518     -0.617829     -2.439791
  C      -2.389794     -1.711153     -3.220571
  C      -2.332392      0.688058     -2.373998
  C      -4.534597     -0.344910     -3.043752
  C      -0.463579      3.515866      1.446073
  C       0.614014      3.094594      3.716753
  C       2.056102      3.575656      1.679050
  H      -4.562584     -2.891710     -0.052601
  H       1.378036      0.224054     -0.098127
  H      -1.409430     -1.931167     -2.761942
  H      -2.213548     -1.350998     -4.249706
  H      -2.963766     -2.652902     -3.277117
  H      -1.355862      0.538768     -1.883169
  H      -2.874699      1.490134     -1.830835
  H      -2.151997      1.041613     -3.398824
  H      -5.129380     -1.265602     -3.113592
  H      -4.412583      0.061836     -4.055943
  H      -5.100790      0.399701     -2.456363
  H      -1.423169      3.076384      1.809334
  H      -0.389521      3.338587      0.344808
  H      -0.505254      4.623330      1.622347
  H      -0.316223      2.620707      4.098942
  H       0.583966      4.181018      3.972201
  H       1.463731      2.627757      4.253200
  H       2.174730      3.452496      0.579612
  H       2.940768      3.126502      2.172939
  H       2.037569      4.667871      1.905256
  Si      3.003495     -2.129729     -0.058785
  C       4.554454     -1.176331      0.463733
  C       2.132065     -2.888073      1.433420
  C       3.364901     -3.428615     -1.399957
  H       4.254736     -0.425445      1.227661
  H       5.033105     -0.655812     -0.392934
  H       5.305064     -1.855046      0.917101
  H       1.142329     -3.316498      1.168698
  H       1.985706     -2.095520      2.197630
  H       2.751690     -3.691842      1.882993
  H       2.445989     -3.993149     -1.665357
  H       4.121109     -4.159760     -1.045221
  H       3.757799     -2.956986     -2.326265
  H       2.053358     -1.132761     -0.713839
51
Coordinates from ORCA-job my_molecule E -1977.846102617390
  Pt     -1.998985     -0.085949      1.285523
  O      -0.503902      0.445576      2.386923
  O      -3.881693     -0.177285      0.329666
  P       0.901390      1.120249      1.857153
  P      -3.355474     -1.226478     -0.710380
  O      -4.360317     -2.481663     -0.911658
  O      -1.999408     -1.677952      0.002664
  O       0.839400      1.021676      0.220868
  O       2.121556      0.474973      2.464784
  C       0.741865      2.937628      2.185496
  C      -3.109266     -0.623688     -2.425075
  C      -2.326246     -1.713651     -3.193523
  C      -2.295888      0.687023     -2.340297
  C      -4.481920     -0.357221     -3.053043
  C      -0.472644      3.534325      1.443962
  C       0.606236      3.114428      3.717180
  C       2.043273      3.587740      1.676345
  H      -4.555669     -2.904099     -0.049304
  H       1.347379      0.224015     -0.085301
  H      -1.347550     -1.929457     -2.724474
  H      -2.141349     -1.348751     -4.218916
  H      -2.887074     -2.666354     -3.265987
  H      -1.328347      0.540694     -1.823439
  H      -2.855974      1.481773     -1.799620
  H      -2.094999      1.048724     -3.362293
  H      -5.080577     -1.278833     -3.133065
  H      -4.349895      0.047679     -4.068585
  H      -5.059990      0.384690     -2.467093
  H      -1.428326      3.102911      1.817671
  H      -0.406911      3.352327      0.346559
  H      -0.509181      4.639467      1.613147
  H      -0.330109      2.649348      4.105611
  H       0.583351      4.203469      3.977782
  H       1.458947      2.636341      4.246294
  H       2.166508      3.456843      0.574696
  H       2.920754      3.142245      2.178312
  H       2.016934      4.686006      1.889725
  Si      2.965882     -2.137479     -0.080201
  C       4.529479     -1.190572      0.429228
  C       2.118662     -2.904202      1.417151
  C       3.296470     -3.434638     -1.435977
  H       4.248084     -0.433890      1.199578
  H       4.997608     -0.670023     -0.437804
  H       5.285657     -1.870986      0.879523
  H       1.129136     -3.335879      1.172632
  H       1.987536     -2.114723      2.182135
  H       2.747279     -3.703574      1.853597
  H       2.367110     -3.990610     -1.697993
  H       4.046770     -4.169231     -1.087005
  H       3.681002     -2.965656     -2.369566
  H       2.013425     -1.127308     -0.713604
51
Coordinates from ORCA-job my_molecule E -1977.845980516163
  Pt     -2.005913     -0.103254      1.286881
  O      -0.514586      0.445373      2.382493
  O      -3.891472     -0.189014      0.344167
  P       0.895031      1.110572      1.849941
  P      -3.371691     -1.230687     -0.707918
  O      -4.385363     -2.474619     -0.924915
  O      -2.023131     -1.698954      0.005452
  O       0.832750      1.005158      0.213831
  O       2.113714      0.462963      2.457525
  C       0.739171      2.929637      2.174353
  C      -3.121936     -0.608625     -2.416778
  C      -2.328504     -1.686400     -3.191835
  C      -2.317948      0.706685     -2.317393
  C      -4.493353     -0.343587     -3.047153
  C      -0.464153      3.527449      1.413901
  C       0.583751      3.113514      3.702791
  C       2.049867      3.573510      1.680036
  H      -4.588775     -2.898698     -0.066661
  H       1.348285      0.212041     -0.090356
  H      -1.344512     -1.893046     -2.729345
  H      -2.154011     -1.314814     -4.216357
  H      -2.876938     -2.645044     -3.268101
  H      -1.351570      0.564063     -1.798840
  H      -2.887292      1.491208     -1.771884
  H      -2.119195      1.079105     -3.334390
  H      -5.089536     -1.265272     -3.132902
  H      -4.362052      0.065202     -4.060225
  H      -5.074834      0.394567     -2.460179
  H      -1.426129      3.107589      1.786376
  H      -0.390916      3.330122      0.318845
  H      -0.491901      4.635687      1.569740
  H      -0.360912      2.658460      4.082189
  H       0.566121      4.204006      3.957788
  H       1.428726      2.635464      4.244246
  H       2.194739      3.427727      0.582921
  H       2.917367      3.135862      2.205697
  H       2.017620      4.674097      1.878388
  Si      2.986280     -2.145664     -0.074474
  C       4.541312     -1.179893      0.423720
  C       2.147020     -2.913962      1.427114
  C       3.330066     -3.450393     -1.420894
  H       4.260263     -0.420596      1.191168
  H       4.997740     -0.661149     -0.450198
  H       5.307665     -1.848391      0.873796
  H       1.160719     -3.353660      1.181098
  H       2.008208     -2.124599      2.191154
  H       2.781204     -3.708822      1.863777
  H       2.408297     -4.016721     -1.681009
  H       4.085973     -4.175784     -1.060513
  H       3.715991     -2.988457     -2.357103
  H       2.018745     -1.149954     -0.709964
51
Coordinates from ORCA-job my_molecule E -1977.845909381289
  Pt     -1.998858     -0.083654      1.289755
  O      -0.506657      0.448710      2.393551
  O      -3.876387     -0.178099      0.328793
  P       0.899436      1.122771      1.863369
  P      -3.350447     -1.228563     -0.710164
  O      -4.355141     -2.482857     -0.909428
  O      -1.996960     -1.677458      0.007505
  O       0.837869      1.021999      0.225869
  O       2.118974      0.478596      2.473024
  C       0.740763      2.941927      2.188468
  C      -3.105638     -0.626311     -2.425634
  C      -2.318540     -1.714447     -3.192788
  C      -2.297904      0.687595     -2.342251
  C      -4.478963     -0.364554     -3.052417
  C      -0.472979      3.536713      1.444220
  C       0.604577      3.122643      3.719222
  C       2.043780      3.589592      1.678726
  H      -4.560846     -2.885595     -0.042834
  H       1.346338      0.223489     -0.077927
  H      -1.337949     -1.926676     -2.725588
  H      -2.137295     -1.350355     -4.218489
  H      -2.874673     -2.668582     -3.263196
  H      -1.333269      0.546831     -1.821004
  H      -2.864904      1.480710     -1.807151
  H      -2.095949      1.046789     -3.361672
  H      -5.072700     -1.287545     -3.133798
  H      -4.351560      0.042381     -4.065786
  H      -5.060017      0.374051     -2.466358
  H      -1.429589      3.109892      1.824722
  H      -0.411749      3.347075      0.345759
  H      -0.504773      4.644800      1.606720
  H      -0.334955      2.665584      4.109982
  H       0.589389      4.212148      3.977821
  H       1.457023      2.643051      4.247126
  H       2.169393      3.456474      0.577588
  H       2.918836      3.144270      2.185143
  H       2.017707      4.687623      1.890599
  Si      2.964389     -2.138686     -0.084490
  C       4.527936     -1.194774      0.428023
  C       2.112700     -2.910881      1.408251
  C       3.296384     -3.434300     -1.442382
  H       4.249811     -0.440164      1.200655
  H       4.994617     -0.673750     -0.438325
  H       5.283636     -1.876232      0.876417
  H       1.121576     -3.337607      1.158299
  H       1.983857     -2.125981      2.178699
  H       2.737196     -3.716915      1.838750
  H       2.372522     -3.997148     -1.701272
  H       4.053186     -4.163063     -1.091258
  H       3.676289     -2.966588     -2.378102
  H       2.010519     -1.124930     -0.714744
51
Coordinates from ORCA-job my_molecule E -1977.845845038881
  Pt     -2.001644     -0.100639      1.291068
  O      -0.509220      0.443764      2.388219
  O      -3.883171     -0.188475      0.340498
  P       0.896783      1.115341      1.851653
  P      -3.361847     -1.230252     -0.709290
  O      -4.370757     -2.477457     -0.920983
  O      -2.011350     -1.692456      0.004517
  O       0.829321      1.010794      0.214218
  O       2.118331      0.470764      2.456643
  C       0.739848      2.934456      2.177680
  C      -3.115736     -0.611232     -2.419858
  C      -2.316857     -1.686223     -3.193103
  C      -2.319124      0.708656     -2.323686
  C      -4.488988     -0.354605     -3.049084
  C      -0.466547      3.531617      1.422329
  C       0.590170      3.114624      3.706837
  C       2.048493      3.580570      1.679113
  H      -4.572668     -2.899726     -0.064599
  H       1.340062      0.214004     -0.089558
  H      -1.330359     -1.885784     -2.732934
  H      -2.147666     -1.316455     -4.218780
  H      -2.858972     -2.647762     -3.265450
  H      -1.351095      0.570887     -1.808314
  H      -2.891153      1.489944     -1.776774
  H      -2.126415      1.081542     -3.339287
  H      -5.080402     -1.278776     -3.129896
  H      -4.362588      0.049972     -4.063105
  H      -5.072800      0.383087     -2.464855
  H      -1.427324      3.112937      1.802625
  H      -0.401065      3.332082      0.325300
  H      -0.491865      4.641322      1.577058
  H      -0.355886      2.663796      4.089014
  H       0.579384      4.203784      3.966073
  H       1.435912      2.630934      4.241542
  H       2.190671      3.436830      0.580959
  H       2.917340      3.142871      2.202479
  H       2.015625      4.680436      1.879912
  Si      2.976928     -2.147198     -0.075389
  C       4.534351     -1.185545      0.421975
  C       2.136699     -2.916288      1.425828
  C       3.317959     -3.450828     -1.423605
  H       4.256772     -0.425264      1.188740
  H       4.991223     -0.669575     -0.452226
  H       5.298690     -1.855970      0.871944
  H       1.150126     -3.356021      1.178858
  H       1.998296     -2.126508      2.189912
  H       2.770141     -3.712201      1.862243
  H       2.396175     -4.016100     -1.684196
  H       4.073238     -4.176675     -1.063621
  H       3.703099     -2.988796     -2.360004
  H       2.009861     -1.148207     -0.708640
51
Coordinates from ORCA-job my_molecule E -1977.845591768914
  Pt     -1.997664     -0.091984      1.298145
  O      -0.505546      0.440666      2.405757
  O      -3.874431     -0.187213      0.326880
  P       0.893094      1.120324      1.866051
  P      -3.341862     -1.232754     -0.711601
  O      -4.340280     -2.490985     -0.911738
  O      -1.990111     -1.676388      0.009359
  O       0.818749      1.023297      0.226362
  O       2.115572      0.478286      2.471574
  C       0.740132      2.942357      2.187002
  C      -3.091573     -0.625525     -2.420426
  C      -2.291939     -1.706217     -3.186496
  C      -2.294044      0.693111     -2.327508
  C      -4.461922     -0.372806     -3.054782
  C      -0.472085      3.539323      1.446814
  C       0.609963      3.127010      3.718094
  C       2.045833      3.582824      1.672416
  H      -4.541368     -2.893787     -0.047218
  H       1.322811      0.222812     -0.083054
  H      -1.311743     -1.908856     -2.714568
  H      -2.108512     -1.343215     -4.211452
  H      -2.838989     -2.665143     -3.249382
  H      -1.332263      0.555624     -1.799407
  H      -2.872162      1.479475     -1.794376
  H      -2.086545      1.057193     -3.340663
  H      -5.045485     -1.300762     -3.138378
  H      -4.330286      0.034643     -4.065055
  H      -5.052278      0.364629     -2.477432
  H      -1.431949      3.119381      1.830867
  H      -0.418540      3.346932      0.344861
  H      -0.494841      4.650200      1.604310
  H      -0.329522      2.670290      4.113412
  H       0.596449      4.215578      3.976612
  H       1.464606      2.646926      4.241014
  H       2.168003      3.442215      0.570766
  H       2.918000      3.135905      2.181902
  H       2.028261      4.681954      1.878471
  Si      2.944958     -2.138370     -0.091463
  C       4.505361     -1.186080      0.415856
  C       2.103479     -2.909335      1.406688
  C       3.275254     -3.437119     -1.447525
  H       4.220329     -0.439237      1.192131
  H       4.966344     -0.658760     -0.447684
  H       5.264826     -1.864735      0.861600
  H       1.110176     -3.337147      1.167723
  H       1.981789     -2.123230      2.176528
  H       2.733128     -3.713417      1.833623
  H       2.353911     -4.004333     -1.707580
  H       4.033225     -4.160793     -1.089578
  H       3.657684     -2.974724     -2.384737
  H       1.984001     -1.128039     -0.722714
51
Coordinates from ORCA-job my_molecule E -1977.845302568162
  Pt     -1.986244     -0.071387      1.291446
  O      -0.494370      0.451002      2.404225
  O      -3.860087     -0.169428      0.312748
  P       0.905705      1.138621      1.873523
  P      -3.329290     -1.223089     -0.714514
  O      -4.316864     -2.488116     -0.890407
  O      -1.971007     -1.653809      0.000198
  O       0.840297      1.038912      0.233714
  O       2.128151      0.502593      2.486189
  C       0.743387      2.958464      2.199967
  C      -3.098167     -0.634805     -2.432652
  C      -2.290950     -1.713626     -3.191357
  C      -2.317771      0.695226     -2.361688
  C      -4.476914     -0.404188     -3.056793
  C      -0.471063      3.550868      1.459315
  C       0.610563      3.135392      3.731365
  C       2.046140      3.610248      1.691668
  H      -4.504842     -2.896925     -0.029856
  H       1.339394      0.233000     -0.068564
  H      -1.303129     -1.897278     -2.728010
  H      -2.124282     -1.359675     -4.222426
  H      -2.825338     -2.679315     -3.241688
  H      -1.349372      0.577138     -1.839591
  H      -2.901662      1.481922     -1.833932
  H      -2.123344      1.048211     -3.380870
  H      -5.048844     -1.339941     -3.129701
  H      -4.360704     -0.001776     -4.069965
  H      -5.071898      0.327847     -2.477667
  H      -1.429136      3.130312      1.848186
  H      -0.419389      3.351551      0.357256
  H      -0.493903      4.662717      1.614679
  H      -0.334662      2.683028      4.122013
  H       0.604763      4.222666      3.998005
  H       1.462769      2.647372      4.250205
  H       2.179825      3.467759      0.590456
  H       2.918318      3.175026      2.211120
  H       2.013789      4.709659      1.894126
  Si      2.947491     -2.146568     -0.092933
  C       4.520988     -1.222293      0.428431
  C       2.089305     -2.920414      1.394351
  C       3.264888     -3.435194     -1.461332
  H       4.248751     -0.472724      1.206711
  H       4.993543     -0.699705     -0.431687
  H       5.268622     -1.914765      0.871982
  H       1.096251     -3.341467      1.142014
  H       1.964427     -2.138586      2.167446
  H       2.709752     -3.730784      1.822330
  H       2.332298     -3.975888     -1.739800
  H       4.000877     -4.182401     -1.105436
  H       3.668914     -2.969085     -2.387198
  H       2.004027     -1.116303     -0.715604
51
Coordinates from ORCA-job my_molecule E -1977.845227110719
  Pt     -2.000949     -0.089490      1.291736
  O      -0.512403      0.451538      2.399757
  O      -3.878311     -0.177835      0.325681
  P       0.893677      1.123894      1.870000
  P      -3.354879     -1.227546     -0.711150
  O      -4.356865     -2.478053     -0.905198
  O      -2.005194     -1.679553      0.005508
  O       0.832162      1.013553      0.230045
  O       2.111764      0.483482      2.486347
  C       0.739549      2.946715      2.187274
  C      -3.113349     -0.620143     -2.421783
  C      -2.305931     -1.694059     -3.187482
  C      -2.329830      0.706985     -2.333662
  C      -4.487182     -0.378992     -3.052183
  C      -0.459713      3.542215      1.423990
  C       0.583762      3.138162      3.714861
  C       2.055483      3.585105      1.693166
  H      -4.555041     -2.880308     -0.044733
  H       1.337954      0.210788     -0.069259
  H      -1.319688     -1.883007     -2.723548
  H      -2.136902     -1.332175     -4.215587
  H      -2.841697     -2.658620     -3.247343
  H      -1.364655      0.582581     -1.806857
  H      -2.915581      1.489444     -1.801753
  H      -2.129523      1.069545     -3.348407
  H      -5.065478     -1.310115     -3.128314
  H      -4.362903      0.021153     -4.064626
  H      -5.080197      0.357789     -2.477135
  H      -1.426149      3.130013      1.800900
  H      -0.391301      3.333861      0.324511
  H      -0.477422      4.655212      1.570433
  H      -0.363464      2.683488      4.097418
  H       0.567028      4.227852      3.967855
  H       1.430496      2.663348      4.254122
  H       2.200093      3.435299      0.594428
  H       2.919233      3.144945      2.222539
  H       2.031027      4.685521      1.890752
  Si      2.972378     -2.149509     -0.086426
  C       4.535150     -1.202355      0.426130
  C       2.126992     -2.931511      1.404691
  C       3.305815     -3.441781     -1.449626
  H       4.256412     -0.454071      1.203391
  H       4.996418     -0.676395     -0.437795
  H       5.294809     -1.882339      0.868827
  H       1.133601     -3.354624      1.156886
  H       2.004262     -2.153087      2.181675
  H       2.753026     -3.742780      1.823250
  H       2.384130     -4.007764     -1.713520
  H       4.064312     -4.168577     -1.095835
  H       3.691240     -2.974261     -2.382925
  H       2.013831     -1.133540     -0.711023
51
Coordinates from ORCA-job my_molecule E -1977.845338418753
  Pt     -2.021391     -0.087635      1.293717
  O      -0.536291      0.464498      2.399889
  O      -3.896469     -0.162120      0.333796
  P       0.879643      1.114651      1.881994
  P      -3.381263     -1.221193     -0.702565
  O      -4.402954     -2.457339     -0.905551
  O      -2.042694     -1.693610      0.020419
  O       0.836090      0.993688      0.242418
  O       2.087430      0.470805      2.513739
  C       0.732335      2.941584      2.185241
  C      -3.124308     -0.612385     -2.409800
  C      -2.317034     -1.690785     -3.170708
  C      -2.336280      0.709747     -2.311186
  C      -4.491181     -0.365728     -3.061286
  C      -0.446015      3.539849      1.393199
  C       0.547042      3.156551      3.704027
  C       2.065063      3.557081      1.710664
  H      -4.600938     -2.859736     -0.039574
  H       1.344276      0.192251     -0.055191
  H      -1.332589     -1.879712     -2.702107
  H      -2.143804     -1.336240     -4.201225
  H      -2.857037     -2.654173     -3.223880
  H      -1.379701      0.581350     -1.771439
  H      -2.927256      1.490710     -1.784257
  H      -2.120164      1.077474     -3.321618
  H      -5.076576     -1.291873     -3.138909
  H      -4.345843      0.024078     -4.076828
  H      -5.088309      0.380454     -2.503100
  H      -1.424936      3.137792      1.749401
  H      -0.353473      3.322722      0.300067
  H      -0.458983      4.652312      1.526380
  H      -0.405755      2.709496      4.075119
  H       0.527610      4.249492      3.930662
  H       1.375934      2.690697      4.276994
  H       2.219977      3.397302      0.616753
  H       2.916710      3.107403      2.252615
  H       2.053847      4.658051      1.897961
  Si      2.997305     -2.150615     -0.091733
  C       4.552807     -1.190926      0.412790
  C       2.170554     -2.950116      1.400513
  C       3.327985     -3.440629     -1.459772
  H       4.265615     -0.456904      1.200104
  H       4.999357     -0.649430     -0.449633
  H       5.324950     -1.862056      0.845612
  H       1.175442     -3.372641      1.159910
  H       2.055000     -2.182281      2.187838
  H       2.805052     -3.766511      1.795678
  H       2.415011     -4.020492     -1.712790
  H       4.101548     -4.156498     -1.111046
  H       3.704829     -2.972673     -2.395576
  H       2.029834     -1.135739     -0.707725
51
Coordinates from ORCA-job my_molecule E -1977.845041867331
  Pt     -2.008348     -0.111708      1.296996
  O      -0.526918      0.462157      2.397102
  O      -3.887551     -0.191371      0.354729
  P       0.884018      1.115604      1.873592
  P      -3.373218     -1.236208     -0.698497
  O      -4.396677     -2.467756     -0.919159
  O      -2.035374     -1.717818      0.018611
  O       0.835954      0.991548      0.233608
  O       2.097844      0.477106      2.497656
  C       0.726810      2.942077      2.179074
  C      -3.116146     -0.601957     -2.399553
  C      -2.295087     -1.665321     -3.169900
  C      -2.340361      0.726667     -2.281990
  C      -4.480335     -0.359992     -3.054857
  C      -0.449340      3.536024      1.377888
  C       0.529160      3.159642      3.695648
  C       2.060492      3.558894      1.705175
  H      -4.596621     -2.867926     -0.052916
  H       1.344236      0.189721     -0.065269
  H      -1.305846     -1.844869     -2.708342
  H      -2.132634     -1.300476     -4.197837
  H      -2.820824     -2.635975     -3.231597
  H      -1.379384      0.600551     -1.749160
  H      -2.936497      1.491220     -1.737330
  H      -2.135982      1.114345     -3.287003
  H      -5.060956     -1.287849     -3.136704
  H      -4.335761      0.030654     -4.068473
  H      -5.085398      0.378320     -2.496417
  H      -1.425931      3.123517      1.728492
  H      -0.343678      3.321733      0.284592
  H      -0.473463      4.649051      1.512612
  H      -0.421442      2.707194      4.065190
  H       0.499114      4.253356      3.914192
  H       1.355733      2.702517      4.278941
  H       2.209120      3.403218      0.609765
  H       2.917120      3.107958      2.237468
  H       2.048251      4.659834      1.895124
  Si      2.992928     -2.157398     -0.087548
  C       4.553155     -1.198695      0.399837
  C       2.168201     -2.950160      1.411040
  C       3.316668     -3.455707     -1.451092
  H       4.274991     -0.454776      1.180736
  H       4.995784     -0.669460     -0.471497
  H       5.326214     -1.867085      0.835701
  H       1.166809     -3.361060      1.175000
  H       2.064118     -2.179452      2.197815
  H       2.795645     -3.775144      1.799777
  H       2.402220     -4.038258     -1.694009
  H       4.091989     -4.170975     -1.107183
  H       3.687904     -2.990354     -2.391053
  H       2.019296     -1.145157     -0.698974
51
Coordinates from ORCA-job my_molecule E -1977.845004852173
  Pt     -2.031481     -0.081760      1.289634
  O      -0.547825      0.470797      2.399155
  O      -3.904178     -0.151291      0.331923
  P       0.874178      1.111503      1.890542
  P      -3.396944     -1.216161     -0.702237
  O      -4.425853     -2.445964     -0.901405
  O      -2.062241     -1.696659      0.022633
  O       0.837224      0.983579      0.251601
  O       2.077516      0.465701      2.528100
  C       0.731701      2.940411      2.190300
  C      -3.137836     -0.610170     -2.411783
  C      -2.333882     -1.692919     -3.170791
  C      -2.346341      0.710685     -2.315655
  C      -4.502126     -0.361760     -3.064128
  C      -0.435872      3.541928      1.383129
  C       0.531889      3.163680      3.706851
  C       2.074389      3.544501      1.717702
  H      -4.624979     -2.845595     -0.037193
  H       1.349141      0.184824     -0.046416
  H      -1.348887     -1.880591     -2.705578
  H      -2.165041     -1.343101     -4.202632
  H      -2.874180     -2.656782     -3.217644
  H      -1.389601      0.582908     -1.772953
  H      -2.935921      1.493588     -1.791615
  H      -2.128560      1.074668     -3.327687
  H      -5.088358     -1.286466     -3.138624
  H      -4.356012      0.023193     -4.078481
  H      -5.098096      0.386626     -2.509761
  H      -1.418370      3.147137      1.735031
  H      -0.332506      3.311856      0.291830
  H      -0.444326      4.657585      1.503252
  H      -0.428443      2.727184      4.070956
  H       0.519717      4.258204      3.926481
  H       1.347671      2.690746      4.293052
  H       2.224717      3.384106      0.623296
  H       2.925791      3.086606      2.251843
  H       2.076344      4.645940      1.908535
  Si      3.014515     -2.151617     -0.089496
  C       4.564534     -1.183120      0.415368
  C       2.193914     -2.962482      1.398656
  C       3.350216     -3.438383     -1.460465
  H       4.271073     -0.456093      1.207277
  H       5.004134     -0.631294     -0.443764
  H       5.344535     -1.850039      0.842453
  H       1.202409     -3.392907      1.156532
  H       2.069509     -2.197966      2.188537
  H       2.836997     -3.775130      1.788654
  H       2.437081     -4.016257     -1.719390
  H       4.120949     -4.157643     -1.112216
  H       3.735121     -2.967409     -2.391447
  H       2.042594     -1.138398     -0.701961
51
Coordinates from ORCA-job my_molecule E -1977.844907368242
  Pt     -2.016264     -0.106193      1.298315
  O      -0.534706      0.464503      2.403122
  O      -3.891457     -0.177854      0.349408
  P       0.878068      1.113630      1.881355
  P      -3.382625     -1.228581     -0.698712
  O      -4.410199     -2.457018     -0.910951
  O      -2.046306     -1.714087      0.020096
  O       0.832010      0.987702      0.241537
  O       2.090464      0.474021      2.507351
  C       0.725911      2.942426      2.181049
  C      -3.121932     -0.601874     -2.401245
  C      -2.305423     -1.669840     -3.168459
  C      -2.341765      0.724536     -2.285441
  C      -4.484714     -0.357717     -3.058860
  C      -0.444559      3.537514      1.373294
  C       0.523582      3.166639      3.697264
  C       2.066035      3.552192      1.706116
  H      -4.596483     -2.868839     -0.049898
  H       1.339760      0.185248     -0.056197
  H      -1.317549     -1.850392     -2.707297
  H      -2.142629     -1.309796     -4.197717
  H      -2.835004     -2.639620     -3.223855
  H      -1.381794      0.595837     -1.748728
  H      -2.935147      1.493040     -1.744972
  H      -2.129523      1.109592     -3.291977
  H      -5.066355     -1.284878     -3.137266
  H      -4.337509      0.028139     -4.072020
  H      -5.088978      0.384480     -2.505453
  H      -1.422187      3.128956      1.718919
  H      -0.333847      3.317229      0.280769
  H      -0.466644      4.652394      1.500377
  H      -0.428726      2.716562      4.064301
  H       0.494398      4.261548      3.910947
  H       1.345226      2.707709      4.286296
  H       2.208489      3.399071      0.609772
  H       2.922628      3.093024      2.230348
  H       2.066335      4.653018      1.901603
  Si      2.998673     -2.159122     -0.086150
  C       4.553814     -1.194570      0.405581
  C       2.182869     -2.964358      1.409664
  C       3.325744     -3.448028     -1.457614
  H       4.266751     -0.457543      1.190389
  H       4.994648     -0.655815     -0.461067
  H       5.330867     -1.861895      0.837949
  H       1.184098     -3.381421      1.176038
  H       2.076901     -2.197045      2.199566
  H       2.818172     -3.786675      1.792447
  H       2.413745     -4.033052     -1.702328
  H       4.106181     -4.163485     -1.121079
  H       3.694332     -2.973965     -2.393824
  H       2.022624     -1.145344     -0.692766
51
Coordinates from ORCA-job my_molecule E -1977.844903549286
  Pt     -1.996622     -0.134132      1.303870
  O      -0.518121      0.454265      2.403959
  O      -3.879277     -0.210654      0.371562
  P       0.883839      1.112056      1.864605
  P      -3.368589     -1.241941     -0.695801
  O      -4.395353     -2.468942     -0.926664
  O      -2.029340     -1.735046      0.014136
  O       0.824015      0.989587      0.223367
  O       2.106651      0.477251      2.474786
  C       0.720549      2.939174      2.166073
  C      -3.107461     -0.588377     -2.389401
  C      -2.276460     -1.637142     -3.167508
  C      -2.342740      0.744141     -2.250624
  C      -4.469814     -0.349002     -3.051441
  C      -0.454233      3.527957      1.360209
  C       0.517481      3.161905      3.681925
  C       2.056011      3.556317      1.690957
  H      -4.571487     -2.899176     -0.070709
  H       1.329070      0.183057     -0.071266
  H      -1.283678     -1.808912     -2.712128
  H      -2.122659     -1.264528     -4.193735
  H      -2.793288     -2.612910     -3.234420
  H      -1.379893      0.615170     -1.720003
  H      -2.941519      1.496513     -1.693185
  H      -2.136222      1.151665     -3.248254
  H      -5.045551     -1.279439     -3.137093
  H      -4.322366      0.042767     -4.063143
  H      -5.084065      0.381883     -2.494977
  H      -1.428252      3.104918      1.700789
  H      -0.338457      3.319279      0.267325
  H      -0.489790      4.640696      1.496438
  H      -0.426137      2.697811      4.052127
  H       0.471774      4.256316      3.890235
  H       1.344890      2.716473      4.272906
  H       2.191638      3.412869      0.592941
  H       2.917355      3.095335      2.206123
  H       2.051556      4.655641      1.891311
  Si      2.984825     -2.166425     -0.078387
  C       4.544338     -1.203514      0.396363
  C       2.174253     -2.959162      1.429873
  C       3.305336     -3.462155     -1.445072
  H       4.264850     -0.453772      1.171135
  H       4.984169     -0.681967     -0.480647
  H       5.319436     -1.868784      0.834871
  H       1.169018     -3.365510      1.205840
  H       2.086754     -2.182908      2.213200
  H       2.801628     -3.787563      1.812507
  H       2.395090     -4.055653     -1.674958
  H       4.094753     -4.173143     -1.119225
  H       3.658211     -2.986195     -2.386535
  H       2.003887     -1.156092     -0.684255
51
Coordinates from ORCA-job my_molecule E -1977.844676297085
  Pt     -1.985705     -0.155268      1.310936
  O      -0.512358      0.453463      2.408116
  O      -3.870203     -0.225436      0.384369
  P       0.884459      1.112847      1.859784
  P      -3.362441     -1.249957     -0.691558
  O      -4.394409     -2.470784     -0.931582
  O      -2.025207     -1.753673      0.015551
  O       0.819528      0.991693      0.217757
  O       2.111720      0.479282      2.461979
  C       0.716774      2.939824      2.160041
  C      -3.096589     -0.583364     -2.380502
  C      -2.251915     -1.619572     -3.160814
  C      -2.344953      0.754651     -2.226148
  C      -4.456625     -0.351518     -3.050501
  C      -0.454041      3.524995      1.346211
  C       0.505016      3.166522      3.673703
  C       2.054895      3.556287      1.689598
  H      -4.561336     -2.913127     -0.080316
  H       1.320605      0.180968     -0.072604
  H      -1.254362     -1.778064     -2.710916
  H      -2.108183     -1.243863     -4.187409
  H      -2.755631     -2.602226     -3.229820
  H      -1.381587      0.628175     -1.695659
  H      -2.950130      1.494589     -1.659817
  H      -2.138519      1.177479     -3.218321
  H      -5.026627     -1.285632     -3.138466
  H      -4.306624      0.039003     -4.062242
  H      -5.080851      0.373515     -2.497548
  H      -1.427172      3.094934      1.676854
  H      -0.328495      3.320690      0.253882
  H      -0.496878      4.636511      1.484998
  H      -0.437590      2.698949      4.041315
  H       0.453364      4.261119      3.875505
  H       1.331050      2.727692      4.271221
  H       2.186149      3.420322      0.590527
  H       2.916890      3.089399      2.197861
  H       2.054278      4.653960      1.896084
  Si      2.975178     -2.169360     -0.076883
  C       4.539663     -1.211590      0.387286
  C       2.169752     -2.959459      1.437334
  C       3.285432     -3.464324     -1.446730
  H       4.267970     -0.456250      1.159138
  H       4.977223     -0.698359     -0.496098
  H       5.314116     -1.877566      0.825320
  H       1.157011     -3.349776      1.220298
  H       2.102474     -2.182635      2.221786
  H       2.787850     -3.798889      1.810704
  H       2.376930     -4.064005     -1.665825
  H       4.082547     -4.171892     -1.132408
  H       3.625415     -2.984599     -2.390977
  H       1.992145     -1.155676     -0.675014
51
Coordinates from ORCA-job my_molecule E -1977.844476733904
  Pt     -1.975365     -0.169612      1.317647
  O      -0.507423      0.455123      2.413471
  O      -3.861504     -0.234950      0.395749
  P       0.885753      1.115865      1.857050
  P      -3.356956     -1.255604     -0.685914
  O      -4.394496     -2.471160     -0.932799
  O      -2.022193     -1.768136      0.020273
  O       0.816989      0.994891      0.214209
  O       2.116569      0.483082      2.452872
  C       0.714780      2.942688      2.155678
  C      -3.085889     -0.581401     -2.372415
  C      -2.226927     -1.606894     -3.150720
  C      -2.348405      0.762820     -2.207347
  C      -4.443735     -0.359715     -3.052241
  C      -0.450771      3.526699      1.333579
  C       0.492947      3.172681      3.666906
  C       2.055784      3.557910      1.693027
  H      -4.553798     -2.926916     -0.086262
  H       1.310864      0.177368     -0.070730
  H      -1.224840     -1.749422     -2.704772
  H      -2.093094     -1.232294     -4.179425
  H      -2.716663     -2.596625     -3.217962
  H      -1.383865      0.641283     -1.678010
  H      -2.960441      1.491862     -1.634397
  H      -2.144530      1.196764     -3.194934
  H      -5.007903     -1.297646     -3.140984
  H      -4.290150      0.027888     -4.065486
  H      -5.077448      0.360940     -2.504823
  H      -1.425636      3.092663      1.654498
  H      -0.315603      3.326929      0.242708
  H      -0.498032      4.637182      1.475377
  H      -0.448843      2.701966      4.030630
  H       0.435247      4.267464      3.863128
  H       1.317403      2.740156      4.271096
  H       2.187579      3.429286      0.593764
  H       2.915843      3.084374      2.198938
  H       2.057636      4.654023      1.905197
  Si      2.964702     -2.172808     -0.077434
  C       4.533954     -1.221027      0.379581
  C       2.163978     -2.963746      1.440000
  C       3.265037     -3.462569     -1.454090
  H       4.269533     -0.461436      1.149368
  H       4.970399     -0.715028     -0.508334
  H       5.307145     -1.888973      0.816672
  H       1.143943     -3.337686      1.228892
  H       2.115634     -2.188574      2.227564
  H       2.772995     -3.814237      1.803301
  H       2.358584     -4.068185     -1.663594
  H       4.070629     -4.166701     -1.153191
  H       3.590418     -2.976560     -2.400135
  H       1.980165     -1.154003     -0.665173
51
Coordinates from ORCA-job my_molecule E -1977.844311117543
  Pt     -1.962461     -0.181975      1.323100
  O      -0.499948      0.457832      2.417928
  O      -3.849523     -0.241536      0.404092
  P       0.889907      1.120527      1.855177
  P      -3.348831     -1.261674     -0.680622
  O      -4.392168     -2.472098     -0.930514
  O      -2.016766     -1.781750      0.025729
  O       0.817948      1.003152      0.211470
  O       2.123658      0.486978      2.444404
  C       0.715652      2.946522      2.154831
  C      -3.073635     -0.583925     -2.366268
  C      -2.199850     -1.599759     -3.140403
  C      -2.351042      0.767265     -2.193798
  C      -4.429604     -0.375045     -3.055202
  C      -0.445314      3.528975      1.325582
  C       0.485028      3.177532      3.663948
  C       2.059139      3.561751      1.699659
  H      -4.544030     -2.937943     -0.087979
  H       1.302307      0.178536     -0.069686
  H      -1.193024     -1.722966     -2.698532
  H      -2.077026     -1.230016     -4.172567
  H      -2.673967     -2.597562     -3.201587
  H      -1.385167      0.652765     -1.665015
  H      -2.970311      1.485960     -1.616395
  H      -2.149813      1.209865     -3.178877
  H      -4.986536     -1.317963     -3.143288
  H      -4.273067      0.009180     -4.070073
  H      -5.072844      0.341905     -2.513907
  H      -1.420522      3.090554      1.636630
  H      -0.301820      3.334188      0.235486
  H      -0.497558      4.637835      1.471171
  H      -0.456818      2.704738      4.023327
  H       0.423341      4.272022      3.857026
  H       1.308355      2.749594      4.272759
  H       2.190385      3.442025      0.599879
  H       2.917753      3.081148      2.201450
  H       2.064537      4.655503      1.920399
  Si      2.948911     -2.172322     -0.080478
  C       4.523856     -1.229577      0.372127
  C       2.148693     -2.963127      1.438218
  C       3.239416     -3.456670     -1.463443
  H       4.267528     -0.467192      1.141362
  H       4.960599     -0.729087     -0.518868
  H       5.294379     -1.901727      0.807062
  H       1.120321     -3.315529      1.231459
  H       2.120748     -2.192116      2.230733
  H       2.744319     -3.827487      1.790805
  H       2.334318     -4.066220     -1.666535
  H       4.050755     -4.158183     -1.172443
  H       3.554275     -2.966082     -2.410526
  H       1.965518     -1.146822     -0.658807
51
Coordinates from ORCA-job my_molecule E -1977.844149397290
  Pt     -1.948984     -0.191789      1.328058
  O      -0.491933      0.460689      2.422699
  O      -3.836663     -0.246000      0.411218
  P       0.895024      1.125723      1.854087
  P      -3.339922     -1.267206     -0.674923
  O      -4.388955     -2.473103     -0.926188
  O      -2.010846     -1.793887      0.032533
  O       0.819920      1.012142      0.209533
  O       2.131286      0.490826      2.437074
  C       0.718332      2.950912      2.155233
  C      -3.060577     -0.588722     -2.360862
  C      -2.171764     -1.595954     -3.128492
  C      -2.353594      0.769949     -2.184222
  C      -4.414677     -0.394421     -3.059554
  C      -0.438337      3.533472      1.320236
  C       0.479667      3.182028      3.662636
  C       2.064245      3.566069      1.707844
  H      -4.534151     -2.948317     -0.087108
  H       1.292256      0.179150     -0.068211
  H      -1.160849     -1.698259     -2.690003
  H      -2.059563     -1.233663     -4.164901
  H      -2.629636     -2.601841     -3.181090
  H      -1.385993      0.664277     -1.656441
  H      -2.980468      1.479463     -1.604034
  H      -2.156437      1.218238     -3.167806
  H      -4.964066     -1.342391     -3.145705
  H      -4.254804     -0.014752     -4.076555
  H      -5.067158      0.319790     -2.525666
  H      -1.414928      3.092013      1.622146
  H      -0.287348      3.344148      0.231147
  H      -0.493983      4.641066      1.470358
  H      -0.461845      2.706780      4.017790
  H       0.413661      4.276258      3.853474
  H       1.302269      2.758523      4.275424
  H       2.196453      3.455346      0.607772
  H       2.920655      3.078103      2.206810
  H       2.072784      4.657578      1.937245
  Si      2.930454     -2.170357     -0.085031
  C       4.510988     -1.236995      0.365381
  C       2.129412     -2.962030      1.433363
  C       3.212294     -3.447970     -1.475045
  H       4.262037     -0.472644      1.134733
  H       4.949026     -0.740839     -0.527361
  H       5.278342     -1.914240      0.797909
  H       1.092904     -3.292116      1.230426
  H       2.121184     -2.196626      2.231942
  H       2.710902     -3.840368      1.775052
  H       2.308260     -4.060355     -1.673394
  H       4.028609     -4.147548     -1.193344
  H       3.517710     -2.952359     -2.422373
  H       1.948806     -1.137789     -0.653812
51
Coordinates from ORCA-job my_molecule E -1977.844010714000
  Pt     -1.933995     -0.199620      1.332285
  O      -0.482679      0.465242      2.427117
  O      -3.821857     -0.248091      0.416265
  P       0.901815      1.132829      1.853928
  P      -3.329379     -1.273079     -0.669088
  O      -4.384491     -2.474481     -0.919387
  O      -2.003773     -1.805644      0.040633
  O       0.823915      1.025115      0.208608
  O       2.139997      0.495503      2.430716
  C       0.722771      2.956671      2.158565
  C      -3.045932     -0.597014     -2.356534
  C      -2.141701     -1.596855     -3.115386
  C      -2.354870      0.769565     -2.178622
  C      -4.397974     -0.419071     -3.065094
  C      -0.430082      3.539404      1.318706
  C       0.476849      3.186037      3.664523
  C       2.070782      3.572610      1.719050
  H      -4.524293     -2.955856     -0.082606
  H       1.282279      0.183570     -0.067291
  H      -1.127047     -1.676103     -2.679950
  H      -2.040106     -1.245241     -4.156971
  H      -2.582407     -2.611021     -3.156243
  H      -1.385752      0.674354     -1.651207
  H      -2.989598      1.470816     -1.597656
  H      -2.161755      1.221131     -3.162267
  H      -4.939285     -1.372557     -3.148177
  H      -4.234572     -0.044749     -4.084457
  H      -5.059708      0.293078     -2.539502
  H      -1.407221      3.094779      1.611694
  H      -0.272505      3.355728      0.230271
  H      -0.489299      4.645270      1.473833
  H      -0.464724      2.708710      4.014988
  H       0.407498      4.279622      3.854840
  H       1.298808      2.765772      4.280244
  H       2.203535      3.471882      0.618654
  H       2.925355      3.077377      2.214251
  H       2.082619      4.661234      1.958729
  Si      2.908326     -2.165892     -0.092298
  C       4.495360     -1.244381      0.357552
  C       2.103544     -2.957698      1.424492
  C       3.181380     -3.437103     -1.488783
  H       4.254720     -0.479000      1.128060
  H       4.935522     -0.751543     -0.535972
  H       5.258456     -1.928296      0.786811
  H       1.058592     -3.261952      1.224596
  H       2.116046     -2.200046      2.230460
  H       2.667716     -3.851702      1.754471
  H       2.277349     -4.050122     -1.684762
  H       4.000157     -4.136211     -1.213659
  H       3.481051     -2.937823     -2.435836
  H       1.930563     -1.125147     -0.652592
51
Coordinates from ORCA-job my_molecule E -1977.843865843877
  Pt     -1.917984     -0.205882      1.336076
  O      -0.472937      0.470546      2.431659
  O      -3.805605     -0.248876      0.420151
  P       0.909437      1.140982      1.854657
  P      -3.317508     -1.279071     -0.662960
  O      -4.378660     -2.476271     -0.910967
  O      -1.995701     -1.816893      0.049869
  O       0.829071      1.039799      0.208649
  O       2.149100      0.500665      2.425565
  C       0.728391      2.963425      2.163555
  C      -3.029920     -0.607544     -2.352687
  C      -2.110169     -1.600807     -3.100955
  C      -2.355299      0.767282     -2.176106
  C      -4.379672     -0.447397     -3.071527
  C      -0.421039      3.547361      1.319990
  C       0.475847      3.190049      3.668434
  C       2.078364      3.580340      1.731976
  H      -4.514186     -2.962198     -0.075597
  H       1.271528      0.189232     -0.066290
  H      -1.092520     -1.655824     -2.668347
  H      -2.018770     -1.262066     -4.148140
  H      -2.533147     -2.623040     -3.127920
  H      -1.384669      0.684010     -1.649016
  H      -2.998233      1.461252     -1.595866
  H      -2.166837      1.219753     -3.160765
  H      -4.912603     -1.406419     -3.150405
  H      -4.212394     -0.079501     -4.093503
  H      -5.050617      0.263336     -2.555406
  H      -1.399152      3.100134      1.604637
  H      -0.257453      3.369704      0.232279
  H      -0.483009      4.651742      1.480636
  H      -0.465530      2.710212      4.014269
  H       0.402909      4.282993      3.859089
  H       1.297375      2.772678      4.286571
  H       2.212317      3.489812      0.631331
  H       2.930903      3.077792      2.223789
  H       2.093142      4.666143      1.982125
  Si      2.883510     -2.160084     -0.101553
  C       4.477450     -1.251530      0.349009
  C       2.073413     -2.952010      1.412648
  C       3.148079     -3.424789     -1.504452
  H       4.245174     -0.485773      1.121390
  H       4.920437     -0.761134     -0.544426
  H       5.235657     -1.943117      0.774512
  H       1.020256     -3.228919      1.215638
  H       2.106750     -2.203607      2.226859
  H       2.618736     -3.862085      1.730380
  H       2.243179     -4.036626     -1.699615
  H       3.967681     -4.124927     -1.234689
  H       3.444205     -2.922192     -2.450659
  H       1.910703     -1.110663     -0.653893
51
Coordinates from ORCA-job my_molecule E -1977.843729719503
  Pt     -1.900141     -0.211146      1.339247
  O      -0.462048      0.477563      2.436068
  O      -3.787201     -0.248851      0.422619
  P       0.918477      1.151346      1.856251
  P      -3.303587     -1.285900     -0.656781
  O      -4.370840     -2.479056     -0.901038
  O      -1.985886     -1.828310      0.059944
  O       0.835934      1.058242      0.209675
  O       2.159259      0.507491      2.421323
  C       0.734987      2.971886      2.171162
  C      -3.011766     -0.620956     -2.349505
  C      -2.076434     -1.608533     -3.085547
  C      -2.353577      0.762206     -2.176446
  C      -4.358819     -0.479689     -3.078812
  C      -0.411768      3.557001      1.324954
  C       0.476594      3.193967      3.675303
  C       2.086378      3.590855      1.747432
  H      -4.503113     -2.967230     -0.066123
  H       1.261017      0.198881     -0.065841
  H      -1.056409     -1.638298     -2.655561
  H      -1.994699     -1.284956     -4.138720
  H      -2.481301     -2.638473     -3.096511
  H      -1.381792      0.691890     -1.649164
  H      -3.004778      1.449753     -1.598420
  H      -2.169580      1.213667     -3.163158
  H      -4.883174     -1.444340     -3.152602
  H      -4.187299     -0.119003     -4.103518
  H      -5.039010      0.230085     -2.573038
  H      -1.390125      3.106648      1.601595
  H      -0.242887      3.385830      0.237680
  H      -0.476883      4.659564      1.491688
  H      -0.464575      2.711312      4.016203
  H       0.400281      4.285922      3.867864
  H       1.297891      2.778602      4.294953
  H       2.221011      3.511524      0.646513
  H       2.937482      3.081312      2.234831
  H       2.103730      4.673316      2.009250
  Si      2.855132     -2.152591     -0.113435
  C       4.457255     -1.259526      0.338100
  C       2.037816     -2.943160      1.397835
  C       3.109935     -3.411868     -1.521921
  H       4.234709     -0.493842      1.113057
  H       4.903533     -0.771292     -0.554828
  H       5.209542     -1.960158      0.759096
  H       0.976484     -3.189795      1.203981
  H       2.093374     -2.205677      2.220903
  H       2.561507     -3.870277      1.702552
  H       2.202607     -4.019872     -1.717650
  H       3.927742     -4.115177     -1.255527
  H       3.405732     -2.907432     -2.467088
  H       1.889280     -1.093456     -0.658846
51
Coordinates from ORCA-job my_molecule E -1977.843576448464
  Pt     -1.881418     -0.216505      1.341894
  O      -0.451380      0.485327      2.440040
  O      -3.767807     -0.248433      0.424504
  P       0.927696      1.162408      1.858308
  P      -3.289236     -1.293092     -0.650508
  O      -4.363178     -2.481586     -0.890648
  O      -1.976324     -1.840670      0.070739
  O       0.843580      1.077755      0.211319
  O       2.169120      0.514562      2.417997
  C       0.741890      2.981020      2.179796
  C      -2.992548     -0.635576     -2.346346
  C      -2.042217     -1.618305     -3.069165
  C      -2.350261      0.755584     -2.178155
  C      -4.336270     -0.513144     -3.086462
  C      -0.402800      3.567765      1.332020
  C       0.478409      3.197870      3.683539
  C       2.094447      3.602354      1.763602
  H      -4.492949     -2.971278     -0.055813
  H       1.250312      0.209881     -0.065695
  H      -1.020736     -1.623226     -2.641487
  H      -1.969032     -1.311079     -4.128246
  H      -2.429521     -2.655141     -3.063160
  H      -1.377653      0.698494     -1.650353
  H      -3.009643      1.437726     -1.603433
  H      -2.170415      1.204429     -3.167419
  H      -4.852469     -1.483000     -3.154439
  H      -4.159727     -0.160546     -4.113872
  H      -5.025366      0.196385     -2.592083
  H      -1.381455      3.114162      1.600990
  H      -0.228940      3.403495      0.245158
  H      -0.470822      4.668627      1.505298
  H      -0.462162      2.711613      4.019697
  H       0.398220      4.288817      3.878624
  H       1.299748      2.784422      4.304278
  H       2.229748      3.534424      0.662391
  H       2.944290      3.085938      2.246389
  H       2.114061      4.681514      2.037136
  Si      2.825368     -2.144339     -0.126827
  C       4.435893     -1.267166      0.325873
  C       2.000230     -2.932878      1.381422
  C       3.070359     -3.398974     -1.540242
  H       4.223035     -0.501971      1.103840
  H       4.885652     -0.780546     -0.566154
  H       5.182011     -1.977201      0.742016
  H       0.931275     -3.148301      1.191402
  H       2.078346     -2.207454      2.213561
  H       2.501203     -3.876806      1.672621
  H       2.159644     -4.001437     -1.737325
  H       3.884809     -4.106925     -1.276179
  H       3.367772     -2.893436     -2.484139
  H       1.867211     -1.075557     -0.666299
51
Coordinates from ORCA-job my_molecule E -1977.843423923739
  Pt     -1.862437     -0.221904      1.344093
  O      -0.441440      0.494541      2.443791
  O      -3.747853     -0.246994      0.425340
  P       0.936766      1.174728      1.861226
  P      -3.275053     -1.300652     -0.644215
  O      -4.356870     -2.483391     -0.879839
  O      -1.968059     -1.854282      0.082667
  O       0.851657      1.099322      0.213985
  O       2.178302      0.522411      2.415983
  C       0.749096      2.991169      2.190271
  C      -2.972014     -0.652175     -2.343488
  C      -2.007372     -1.631605     -3.051465
  C      -2.344196      0.746282     -2.181527
  C      -4.311515     -0.548036     -3.095203
  C      -0.394053      3.579791      1.341812
  C       0.481381      3.201680      3.693852
  C       2.102600      3.615093      1.781249
  H      -4.485361     -2.973168     -0.044535
  H       1.239567      0.223704     -0.065826
  H      -0.985300     -1.612561     -2.625355
  H      -1.941012     -1.342299     -4.116450
  H      -2.378325     -2.674272     -3.027482
  H      -1.371497      0.702104     -1.652309
  H      -3.011361      1.424381     -1.611576
  H      -2.167265      1.190884     -3.173932
  H      -4.820502     -1.522541     -3.156869
  H      -4.128692     -0.204487     -4.125324
  H      -5.009128      0.162200     -2.613388
  H      -1.372571      3.122738      1.603411
  H      -0.215800      3.422699      0.255183
  H      -0.464942      4.678713      1.521973
  H      -0.458643      2.711770      4.025094
  H       0.397753      4.291350      3.892613
  H       1.302805      2.789188      4.314958
  H       2.237939      3.559163      0.679786
  H       2.951569      3.091859      2.258514
  H       2.124575      4.690540      2.067135
  Si      2.794097     -2.134657     -0.142162
  C       4.413587     -1.274457      0.311113
  C       1.961043     -2.920238      1.363387
  C       3.028058     -3.385737     -1.559714
  H       4.211215     -0.510252      1.092591
  H       4.866512     -0.789077     -0.579916
  H       5.153259     -1.994315      0.721717
  H       0.885063     -3.103215      1.178312
  H       2.062627     -2.208281      2.204743
  H       2.437957     -3.880861      1.640198
  H       2.112816     -3.980733     -1.758509
  H       3.837354     -4.099861     -1.296904
  H       3.328924     -2.880294     -2.502434
  H       1.844734     -1.055968     -0.676579
51
Coordinates from ORCA-job my_molecule E -1977.843270553511
  Pt     -1.842933     -0.227306      1.346288
  O      -0.432041      0.504829      2.447581
  O      -3.726864     -0.244473      0.425347
  P       0.945725      1.187925      1.864837
  P      -3.260459     -1.308361     -0.637616
  O      -4.351448     -2.484011     -0.868604
  O      -1.960665     -1.869023      0.096298
  O       0.859839      1.122338      0.217497
  O       2.186933      0.530652      2.414957
  C       0.756321      3.002039      2.202101
  C      -2.949187     -0.670706     -2.340554
  C      -1.971217     -1.648630     -3.031971
  C      -2.334057      0.734186     -2.186097
  C      -4.283520     -0.583887     -3.104702
  C      -0.386176      3.592839      1.354316
  C       0.485630      3.205272      3.705925
  C       2.110288      3.628920      1.799425
  H      -4.480189     -2.972535     -0.032191
  H       1.228024      0.239542     -0.066323
  H      -0.949527     -1.607360     -2.606389
  H      -1.909403     -1.378298     -4.102634
  H      -2.327724     -2.695881     -2.989579
  H      -1.361958      0.702275     -1.654596
  H      -3.008556      1.409829     -1.622343
  H      -2.158666      1.172896     -3.182037
  H      -4.786515     -1.562264     -3.159583
  H      -4.093123     -0.250408     -4.137463
  H      -4.988996      0.128144     -2.636699
  H      -1.364360      3.132087      1.609235
  H      -0.204369      3.443473      0.267763
  H      -0.459836      4.689814      1.541861
  H      -0.453469      2.711183      4.032632
  H       0.398444      4.293562      3.909307
  H       1.307627      2.793260      4.326449
  H       2.245050      3.585387      0.697679
  H       2.958792      3.098992      2.270465
  H       2.134462      4.700545      2.097876
  Si      2.760564     -2.123505     -0.159481
  C       4.389368     -1.281039      0.293815
  C       1.919954     -2.905638      1.343753
  C       2.982281     -3.371680     -1.580772
  H       4.197964     -0.518401      1.079366
  H       4.845154     -0.796332     -0.596072
  H       5.122415     -2.011062      0.698198
  H       0.837703     -3.055610      1.164919
  H       2.045703     -2.208420      2.194328
  H       2.372000     -3.882466      1.605405
  H       2.061517     -3.957441     -1.781428
  H       3.784892     -4.093449     -1.318735
  H       3.287800     -2.867107     -2.522357
  H       1.820808     -1.034696     -0.689395
51
Coordinates from ORCA-job my_molecule E -1977.843129053640
  Pt     -1.823792     -0.231996      1.348861
  O      -0.423889      0.516859      2.451795
  O      -3.705423     -0.240105      0.424122
  P       0.954058      1.202331      1.869576
  P      -3.245840     -1.315973     -0.630554
  O      -4.347448     -2.483088     -0.856760
  O      -1.954832     -1.884458      0.112376
  O       0.867631      1.147093      0.222277
  O       2.194371      0.539535      2.415485
  C       0.763410      3.013984      2.215735
  C      -2.923738     -0.691645     -2.337526
  C      -1.933382     -1.670278     -3.010065
  C      -2.319082      0.718735     -2.191960
  C      -4.251786     -0.621097     -3.115261
  C      -0.379250      3.607160      1.369890
  C       0.491136      3.209049      3.720143
  C       2.117497      3.643993      1.818459
  H      -4.478456     -2.968324     -0.018394
  H       1.215356      0.257832     -0.066783
  H      -0.912971     -1.608655     -2.583542
  H      -1.873358     -1.420198     -4.086190
  H      -2.277762     -2.720799     -2.948759
  H      -1.348515      0.698296     -1.656851
  H      -3.000441      1.393737     -1.636249
  H      -2.143234      1.149782     -3.191842
  H      -4.750177     -1.602575     -3.163046
  H      -4.052237     -0.298742     -4.150540
  H      -4.964495      0.093904     -2.662453
  H      -1.356716      3.142631      1.618882
  H      -0.194966      3.465781      0.283199
  H      -0.455512      4.702021      1.565099
  H      -0.446901      2.710737      4.042638
  H       0.400849      4.295743      3.929171
  H       1.314087      2.796739      4.339047
  H       2.250763      3.613213      0.716455
  H       2.966018      3.107519      2.282323
  H       2.144054      4.711482      2.129817
  Si      2.724759     -2.110822     -0.179381
  C       4.363285     -1.287053      0.273348
  C       1.877077     -2.889230      1.321871
  C       2.932682     -3.356627     -1.604147
  H       4.183502     -0.526797      1.063715
  H       4.821456     -0.802285     -0.615193
  H       5.089598     -2.027600      0.670562
  H       0.789404     -3.005715      1.150580
  H       2.027651     -2.208273      2.181709
  H       2.303464     -3.881743      1.567347
  H       2.005402     -3.931322     -1.806835
  H       3.726962     -4.087495     -1.342372
  H       3.244174     -2.853845     -2.544651
  H       1.795554     -1.011417     -0.705128
51
Coordinates from ORCA-job my_molecule E -1977.843012608397
  Pt     -1.804216     -0.236114      1.352068
  O      -0.415948      0.529768      2.456690
  O      -3.682529     -0.234829      0.421702
  P       0.962157      1.217857      1.875032
  P      -3.229598     -1.323894     -0.623123
  O      -4.342494     -2.481706     -0.844496
  O      -1.948496     -1.900100      0.130575
  O       0.874719      1.173948      0.227879
  O       2.201426      0.549159      2.416448
  C       0.770585      3.026857      2.231011
  C      -2.894561     -0.715218     -2.334369
  C      -1.892630     -1.696297     -2.985933
  C      -2.298548      0.699871     -2.199006
  C      -4.215450     -0.660226     -3.126489
  C      -0.373535      3.622775      1.389143
  C       0.498823      3.212528      3.736561
  C       2.124102      3.660444      1.837636
  H      -4.477941     -2.961447     -0.003202
  H       1.200636      0.278756     -0.067681
  H      -0.874333     -1.616149     -2.557040
  H      -1.831742     -1.467186     -4.067111
  H      -2.227041     -2.748906     -2.905623
  H      -1.330214      0.690301     -1.659325
  H      -2.986360      1.375750     -1.652850
  H      -2.120686      1.121719     -3.203114
  H      -4.710257     -1.644192     -3.167028
  H      -4.005668     -0.349690     -4.164082
  H      -4.934857      0.058487     -2.689896
  H      -1.349898      3.154262      1.633483
  H      -0.188430      3.490104      0.301983
  H      -0.452259      4.715428      1.592713
  H      -0.437664      2.709681      4.055719
  H       0.405653      4.297460      3.952418
  H       1.323630      2.799309      4.352249
  H       2.254601      3.642966      0.735328
  H       2.973299      3.117525      2.293043
  H       2.153150      4.723548      2.162336
  Si      2.684937     -2.096302     -0.201876
  C       4.333571     -1.292283      0.249686
  C       1.830343     -2.870232      1.297845
  C       2.877735     -3.340363     -1.629661
  H       4.166125     -0.534994      1.045373
  H       4.793935     -0.807062     -0.637380
  H       5.052785     -2.043807      0.639021
  H       0.738168     -2.952783      1.135195
  H       2.006276     -2.206739      2.166638
  H       2.230082     -3.877774      1.526731
  H       1.943041     -3.902105     -1.834662
  H       3.661885     -4.081803     -1.367485
  H       3.196579     -2.840364     -2.569124
  H       1.767111     -0.985937     -0.723952
51
Coordinates from ORCA-job my_molecule E -1977.842914998574
  Pt     -1.784960     -0.240464      1.355060
  O      -0.408786      0.543088      2.461080
  O      -3.659507     -0.228997      0.418338
  P       0.969725      1.233472      1.880346
  P      -3.213685     -1.331841     -0.615871
  O      -4.338549     -2.479351     -0.832791
  O      -1.943543     -1.916288      0.149423
  O       0.881318      1.201400      0.233378
  O       2.207597      0.558313      2.417229
  C       0.777719      3.039710      2.246940
  C      -2.864418     -0.739788     -2.331186
  C      -1.852098     -1.724523     -2.960901
  C      -2.275253      0.679229     -2.206713
  C      -4.177593     -0.699149     -3.137688
  C      -0.368906      3.638630      1.410727
  C       0.508280      3.215240      3.754055
  C       2.130220      3.677145      1.856274
  H      -4.480268     -2.952160      0.011801
  H       1.185039      0.301035     -0.069410
  H      -0.836492     -1.627756     -2.528688
  H      -1.788372     -1.516226     -4.046533
  H      -2.178636     -2.778202     -2.862088
  H      -1.309606      0.679805     -1.661922
  H      -2.968947      1.357198     -1.671086
  H      -2.094198      1.090881     -3.215099
  H      -4.669847     -1.685004     -3.171039
  H      -3.956937     -0.400632     -4.177204
  H      -4.902913      0.023819     -2.717678
  H      -1.343810      3.165992      1.651399
  H      -0.184292      3.515044      0.322853
  H      -0.449869      4.728940      1.623162
  H      -0.426409      2.707785      4.070686
  H       0.412707      4.298279      3.977466
  H       1.335572      2.800707      4.365364
  H       2.256990      3.672972      0.753663
  H       2.980642      3.128184      2.302394
  H       2.161833      4.735727      2.194267
  Si      2.644424     -2.080895     -0.225566
  C       4.302693     -1.296009      0.224707
  C       1.782565     -2.849253      1.272955
  C       2.822903     -3.324559     -1.655022
  H       4.147307     -0.541973      1.025774
  H       4.765133     -0.810031     -0.660787
  H       5.014998     -2.058134      0.606045
  H       0.687009     -2.898249      1.119023
  H       1.983054     -2.203764      2.150067
  H       2.155159     -3.870722      1.485705
  H       1.880483     -3.872227     -1.863175
  H       3.595374     -4.077315     -1.390804
  H       3.151165     -2.828699     -2.593355
  H       1.737986     -0.960384     -0.745575
51
Coordinates from ORCA-job my_molecule E -1977.842788300224
  Pt     -1.768579     -0.246444      1.356461
  O      -0.405780      0.557165      2.463158
  O      -3.639510     -0.222000      0.414739
  P       0.974979      1.247646      1.886014
  P      -3.202998     -1.338555     -0.609262
  O      -4.341521     -2.473183     -0.823412
  O      -1.945939     -1.934507      0.167734
  O       0.888774      1.225576      0.239233
  O       2.210105      0.565623      2.420923
  C       0.783530      3.051849      2.262228
  C      -2.838674     -0.761727     -2.327612
  C      -1.816439     -1.749855     -2.935850
  C      -2.256333      0.661081     -2.213593
  C      -4.143463     -0.734716     -3.148553
  C      -0.364722      3.653979      1.430601
  C       0.515388      3.219003      3.770649
  C       2.135935      3.692144      1.875053
  H      -4.490053     -2.940726      0.023203
  H       1.173301      0.321372     -0.070009
  H      -0.803939     -1.637031     -2.500416
  H      -1.749374     -1.561763     -4.025222
  H      -2.135675     -2.804162     -2.818929
  H      -1.293773      0.671915     -1.663279
  H      -2.956199      1.341326     -1.689129
  H      -2.071367      1.062414     -3.225819
  H      -4.633620     -1.722023     -3.174703
  H      -3.910987     -0.448479     -4.189271
  H      -4.874296     -0.007219     -2.745958
  H      -1.338848      3.177799      1.666833
  H      -0.179240      3.538176      0.342369
  H      -0.447233      4.742354      1.650885
  H      -0.417821      2.707012      4.084615
  H       0.417380      4.300532      4.000049
  H       1.344349      2.803982      4.379199
  H       2.260491      3.699494      0.772273
  H       2.986889      3.137694      2.313694
  H       2.169989      4.746853      2.224581
  Si      2.611294     -2.068180     -0.248782
  C       4.278219     -1.299342      0.199250
  C       1.743110     -2.829959      1.249478
  C       2.776522     -3.313650     -1.678076
  H       4.133442     -0.548619      1.005595
  H       4.741817     -0.811849     -0.684795
  H       4.985266     -2.070515      0.572415
  H       0.645380     -2.848849      1.103921
  H       1.965308     -2.201415      2.133774
  H       2.090809     -3.863197      1.447408
  H       1.826357     -3.846968     -1.889128
  H       3.536743     -4.077797     -1.410856
  H       3.115491     -2.823365     -2.615384
  H       1.715515     -0.938894     -0.768299
51
Coordinates from ORCA-job my_molecule E -1977.842643237248
  Pt     -1.754935     -0.254566      1.357283
  O      -0.403819      0.567451      2.463495
  O      -3.622294     -0.214664      0.412079
  P       0.979289      1.258275      1.890691
  P      -3.196457     -1.343238     -0.603986
  O      -4.349150     -2.463533     -0.817952
  O      -1.953754     -1.953312      0.183516
  O       0.896936      1.244637      0.244183
  O       2.211691      0.570991      2.425530
  C       0.787149      3.060618      2.275016
  C      -2.817482     -0.777926     -2.323974
  C      -1.786538     -1.768888     -2.913267
  C      -2.240376      0.647743     -2.218121
  C      -4.113984     -0.761537     -3.158759
  C      -0.363640      3.663757      1.447678
  C       0.520645      3.220271      3.784568
  C       2.138654      3.704991      1.890485
  H      -4.503692     -2.929494      0.028619
  H       1.164620      0.337697     -0.070745
  H      -0.776640     -1.640598     -2.476386
  H      -1.717511     -1.600008     -4.005895
  H      -2.098574     -2.823501     -2.778530
  H      -1.280579      0.666907     -1.663031
  H      -2.945091      1.329933     -1.703067
  H      -2.051713      1.040425     -3.233598
  H      -4.603611     -1.749432     -3.179285
  H      -3.869173     -0.486077     -4.199905
  H      -4.849046     -0.029291     -2.772358
  H      -1.336096      3.182620      1.679656
  H      -0.177082      3.555175      0.359158
  H      -0.449330      4.750027      1.674990
  H      -0.410346      2.702856      4.096329
  H       0.419005      4.300222      4.019050
  H       1.351967      2.806307      4.390469
  H       2.260528      3.723669      0.787643
  H       2.990943      3.146309      2.321326
  H       2.174297      4.755677      2.251273
  Si      2.585638     -2.058271     -0.269188
  C       4.259802     -1.300045      0.171690
  C       1.714411     -2.809936      1.232449
  C       2.738670     -3.311106     -1.693138
  H       4.125213     -0.551460      0.981812
  H       4.721642     -0.811485     -0.712661
  H       4.964278     -2.077464      0.536919
  H       0.615437     -2.804531      1.095207
  H       1.954512     -2.193994      2.120917
  H       2.041444     -3.851883      1.420160
  H       1.781172     -3.830946     -1.905041
  H       3.486516     -4.085332     -1.419945
  H       3.088361     -2.830057     -2.631163
  H       1.698091     -0.923985     -0.792196
51
Coordinates from ORCA-job my_molecule E -1977.842479350173
  Pt     -1.743282     -0.262026      1.358026
  O      -0.403620      0.576455      2.464709
  O      -3.605611     -0.205043      0.406689
  P       0.981993      1.267449      1.896282
  P      -3.190441     -1.346582     -0.599962
  O      -4.357495     -2.451790     -0.813843
  O      -1.963482     -1.970526      0.199587
  O       0.902920      1.262458      0.249977
  O       2.211290      0.574398      2.431104
  C       0.791117      3.068157      2.288611
  C      -2.795384     -0.794968     -2.321447
  C      -1.756806     -1.790389     -2.890367
  C      -2.221586      0.632775     -2.224704
  C      -4.083048     -0.788047     -3.170481
  C      -0.362539      3.673777      1.467040
  C       0.528044      3.219971      3.799742
  C       2.141653      3.715571      1.905098
  H      -4.518006     -2.917237      0.032064
  H       1.153772      0.353243     -0.070881
  H      -0.749468     -1.647516     -2.452551
  H      -1.685412     -1.641905     -3.985903
  H      -2.062718     -2.844386     -2.736474
  H      -1.264860      0.659207     -1.664476
  H      -2.930321      1.318356     -1.719862
  H      -2.028105      1.015675     -3.243396
  H      -4.573551     -1.775683     -3.184985
  H      -3.825260     -0.524407     -4.211753
  H      -4.821204     -0.049992     -2.801123
  H      -1.333659      3.188306      1.695858
  H      -0.176199      3.573066      0.377908
  H      -0.450507      4.758093      1.701939
  H      -0.400322      2.697262      4.110500
  H       0.423014      4.298375      4.039779
  H       1.362415      2.806395      4.401657
  H       2.259768      3.746310      0.802126
  H       2.995032      3.151466      2.326924
  H       2.180121      4.762035      2.277678
  Si      2.558420     -2.046645     -0.289380
  C       4.239185     -1.296263      0.140851
  C       1.688164     -2.787991      1.217917
  C       2.698270     -3.308297     -1.706627
  H       4.114850     -0.549917      0.954662
  H       4.696941     -0.805865     -0.744577
  H       4.942739     -2.078704      0.497326
  H       0.588202     -2.761102      1.091213
  H       1.946320     -2.183092      2.108934
  H       1.996881     -3.837255      1.396335
  H       1.733636     -3.815126     -1.917609
  H       3.434159     -4.092011     -1.427680
  H       3.056784     -2.837195     -2.646302
  H       1.677195     -0.908838     -0.816157
51
Coordinates from ORCA-job my_molecule E -1977.842297609041
  Pt     -1.733875     -0.267680      1.358857
  O      -0.405004      0.586108      2.466033
  O      -3.590421     -0.193575      0.399668
  P       0.983702      1.276512      1.902638
  P      -3.185741     -1.348627     -0.596699
  O      -4.366885     -2.438526     -0.810977
  O      -1.975277     -1.985676      0.215815
  O       0.908566      1.279372      0.256442
  O       2.209460      0.577746      2.438375
  C       0.794584      3.075571      2.302403
  C      -2.773766     -0.811779     -2.319503
  C      -1.728411     -1.812411     -2.867517
  C      -2.201995      0.617539     -2.232139
  C      -4.052319     -0.813589     -3.182700
  C      -0.362482      3.683154      1.487142
  C       0.536193      3.219762      3.815115
  C       2.143847      3.725914      1.918825
  H      -4.533367     -2.904016      0.033747
  H       1.143138      0.368277     -0.069966
  H      -0.723460     -1.655557     -2.429086
  H      -1.654364     -1.684850     -3.965675
  H      -2.029075     -2.865051     -2.694017
  H      -1.248893      0.650796     -1.666002
  H      -2.914490      1.307206     -1.738490
  H      -2.002423      0.990054     -3.253974
  H      -4.544358     -1.800760     -3.191571
  H      -3.781340     -0.561481     -4.223790
  H      -4.793006     -0.069638     -2.830077
  H      -1.331747      3.193379      1.713546
  H      -0.177399      3.590040      0.397324
  H      -0.452759      4.765235      1.729310
  H      -0.389607      2.692314      4.125600
  H       0.428598      4.296485      4.060797
  H       1.373979      2.806294      4.412207
  H       2.257120      3.768494      0.815856
  H       2.998786      3.156889      2.330922
  H       2.185496      4.767835      2.303019
  Si      2.532403     -2.035374     -0.308836
  C       4.219492     -1.291906      0.109062
  C       1.665535     -2.767545      1.204852
  C       2.658001     -3.305743     -1.719397
  H       4.105997     -0.549286      0.927757
  H       4.671129     -0.797693     -0.777336
  H       4.923438     -2.078930      0.454649
  H       0.564982     -2.720741      1.089722
  H       1.941439     -2.173638      2.097877
  H       1.957180     -3.823357      1.373596
  H       1.686069     -3.798974     -1.929544
  H       3.381220     -4.099068     -1.434516
  H       3.025507     -2.845152     -2.660748
  H       1.656606     -0.894351     -0.838596
51
Coordinates from ORCA-job my_molecule E -1977.842108860326
  Pt     -1.723547     -0.273546      1.359212
  O      -0.405817      0.594783      2.467494
  O      -3.573533     -0.181461      0.391138
  P       0.985748      1.284921      1.909023
  P      -3.179826     -1.350175     -0.594405
  O      -4.375115     -2.424339     -0.808733
  O      -1.985905     -1.999766      0.231000
  O       0.913791      1.296533      0.262950
  O       2.208074      0.580334      2.445185
  C       0.798907      3.082267      2.316575
  C      -2.751217     -0.829593     -2.318613
  C      -1.699969     -1.835918     -2.845465
  C      -2.180693      0.600890     -2.241482
  C      -4.020955     -0.840183     -3.195200
  C      -0.362472      3.692428      1.509461
  C       0.547128      3.218212      3.831301
  C       2.146368      3.735532      1.931315
  H      -4.547747     -2.889525      0.035041
  H       1.130711      0.383606     -0.069302
  H      -0.697315     -1.666184     -2.406700
  H      -1.622988     -1.729123     -3.945742
  H      -1.996294     -2.886543     -2.652543
  H      -1.231369      0.640747     -1.669313
  H      -2.896640      1.295240     -1.759674
  H      -1.974549      0.962279     -3.266373
  H      -4.514609     -1.826682     -3.198100
  H      -3.737675     -0.599761     -4.235994
  H      -4.763689     -0.090524     -2.858984
  H      -1.329852      3.198407      1.734713
  H      -0.180166      3.607643      0.418637
  H      -0.454653      4.772411      1.759580
  H      -0.375473      2.685781      4.142719
  H       0.436987      4.293261      4.083215
  H       1.389240      2.804621      4.422123
  H       2.253659      3.790140      0.828303
  H       3.003125      3.161420      2.332736
  H       2.191617      4.772982      2.327051
  Si      2.503903     -2.022471     -0.327791
  C       4.196737     -1.285020      0.077562
  C       1.641410     -2.745792      1.192630
  C       2.616178     -3.301720     -1.731213
  H       4.093577     -0.546498      0.901262
  H       4.641820     -0.786360     -0.809626
  H       4.901445     -2.076179      0.412132
  H       0.540608     -2.680490      1.089553
  H       1.934988     -2.162459      2.086976
  H       1.916875     -3.807449      1.352218
  H       1.637470     -3.781617     -1.940827
  H       3.326680     -4.104148     -1.439859
  H       2.992406     -2.851818     -2.674233
  H       1.632618     -0.879093     -0.860935
51
Coordinates from ORCA-job my_molecule E -1977.841928574891
  Pt     -1.717340     -0.278846      1.358312
  O      -0.409949      0.603885      2.466799
  O      -3.560792     -0.166680      0.381652
  P       0.986175      1.290964      1.914855
  P      -3.180137     -1.349487     -0.592979
  O      -4.390877     -2.405868     -0.807770
  O      -2.003915     -2.012925      0.245271
  O       0.919125      1.310366      0.268778
  O       2.203775      0.579537      2.452966
  C       0.803083      3.086905      2.329670
  C      -2.734442     -0.845626     -2.318456
  C      -1.679747     -1.859223     -2.825004
  C      -2.162436      0.584899     -2.251469
  C      -3.995681     -0.862745     -3.207525
  C      -0.362292      3.699848      1.530670
  C       0.558441      3.215734      3.846246
  C       2.149273      3.741953      1.942469
  H      -4.570210     -2.870730      0.034739
  H       1.120591      0.396342     -0.068862
  H      -0.678995     -1.679184     -2.385828
  H      -1.599393     -1.772454     -3.926988
  H      -1.974352     -2.906923     -2.613609
  H      -1.217402      0.629999     -1.672487
  H      -2.881024      1.285174     -1.782538
  H      -1.948089      0.934530     -3.279155
  H      -4.492330     -1.847991     -3.204876
  H      -3.700276     -0.633595     -4.247798
  H      -4.739147     -0.106831     -2.886732
  H      -1.327932      3.202484      1.754862
  H      -0.183100      3.622560      0.439009
  H      -0.455425      4.777588      1.788128
  H      -0.361607      2.679512      4.158954
  H       0.447292      4.289209      4.103739
  H       1.404396      2.801638      4.431014
  H       2.250545      3.807083      0.839576
  H       3.007656      3.163240      2.333867
  H       2.198729      4.775064      2.348421
  Si      2.482769     -2.009956     -0.344882
  C       4.179171     -1.274381      0.049686
  C       1.624584     -2.725633      1.181540
  C       2.586569     -3.299090     -1.739835
  H       4.083517     -0.540800      0.878728
  H       4.617033     -0.769380     -0.837479
  H       4.886635     -2.067706      0.373302
  H       0.523914     -2.645179      1.088798
  H       1.932632     -2.151726      2.077062
  H       1.886518     -3.791981      1.332864
  H       1.602389     -3.767321     -1.950966
  H       3.284761     -4.108953     -1.439496
  H       2.973322     -2.860626     -2.683881
  H       1.613996     -0.866672     -0.883363
51
Coordinates from ORCA-job my_molecule E -1977.841741063600
  Pt     -1.712302     -0.283943      1.356673
  O      -0.414680      0.611921      2.465537
  O      -3.548370     -0.150996      0.371243
  P       0.986234      1.295428      1.920729
  P      -3.181642     -1.347641     -0.592501
  O      -4.407612     -2.386052     -0.807279
  O      -2.022877     -2.024450      0.257707
  O       0.924671      1.322652      0.274646
  O       2.198602      0.576841      2.461390
  C       0.807842      3.090277      2.342236
  C      -2.720372     -0.860954     -2.319291
  C      -1.663153     -1.881838     -2.806369
  C      -2.146453      0.569300     -2.263060
  C      -3.973937     -0.884589     -3.219508
  C      -0.361485      3.706557      1.551809
  C       0.571075      3.212531      3.860775
  C       2.152802      3.746426      1.952090
  H      -4.593825     -2.850259      0.034204
  H       1.110601      0.407627     -0.067956
  H      -0.663990     -1.692413     -2.367638
  H      -1.580033     -1.814452     -3.909564
  H      -1.956445     -2.926245     -2.576932
  H      -1.205659      0.619489     -1.677526
  H      -2.867297      1.275727     -1.807184
  H      -1.923933      0.906853     -3.293368
  H      -4.473415     -1.868435     -3.211018
  H      -3.667749     -0.666617     -4.259228
  H      -4.717777     -0.122802     -2.913423
  H      -1.325687      3.206417      1.775852
  H      -0.186007      3.636417      0.459152
  H      -0.454875      4.782516      1.816282
  H      -0.346255      2.672958      4.175588
  H       0.459233      4.284721      4.123384
  H       1.421078      2.797898      4.439194
  H       2.248010      3.821114      0.849270
  H       3.012506      3.163065      2.333838
  H       2.206885      4.775690      2.367257
  Si      2.463989     -1.997271     -0.360362
  C       4.162604     -1.261441      0.025092
  C       1.609482     -2.706409      1.171227
  C       2.562641     -3.296073     -1.746643
  H       4.072829     -0.533628      0.859892
  H       4.593109     -0.748815     -0.861265
  H       4.873594     -2.056127      0.337565
  H       0.509171     -2.612396      1.087781
  H       1.930250     -2.141513      2.067981
  H       1.858989     -3.776862      1.314803
  H       1.574024     -3.753424     -1.961050
  H       3.248537     -4.112570     -1.436172
  H       2.960804     -2.868731     -2.690967
  H       1.596269     -0.855477     -0.904896
51
Coordinates from ORCA-job my_molecule E -1977.841566411604
  Pt     -1.710711     -0.288894      1.353540
  O      -0.421547      0.619458      2.461762
  O      -3.539918     -0.133841      0.360365
  P       0.985276      1.297279      1.925284
  P      -3.188824     -1.343995     -0.593136
  O      -4.430489     -2.363273     -0.807841
  O      -2.047653     -2.034775      0.268048
  O       0.930757      1.331417      0.279001
  O       2.191409      0.570887      2.469726
  C       0.812755      3.091225      2.352965
  C      -2.713150     -0.874002     -2.321237
  C      -1.655757     -1.903142     -2.790991
  C      -2.134997      0.554985     -2.275380
  C      -3.960047     -0.901890     -3.230945
  C      -0.360454      3.710846      1.571291
  C       0.584583      3.207836      3.873312
  C       2.156727      3.747658      1.959414
  H      -4.623596     -2.826993      0.032270
  H       1.103748      0.415952     -0.067877
  H      -0.657555     -1.706664     -2.353084
  H      -1.570256     -1.853639     -3.895108
  H      -1.949677     -2.943715     -2.544900
  H      -1.198499      0.608922     -1.683213
  H      -2.857083      1.268383     -1.832749
  H      -1.903600      0.880268     -3.308046
  H      -4.463361     -1.883986     -3.217225
  H      -3.644013     -0.694094     -4.270113
  H      -4.703125     -0.134086     -2.937693
  H      -1.323213      3.208504      1.795391
  H      -0.189192      3.647372      0.477791
  H      -0.453509      4.784725      1.842416
  H      -0.330532      2.665948      4.190727
  H       0.473348      4.278799      4.140413
  H       1.438369      2.792416      4.445379
  H       2.245684      3.830464      0.856800
  H       3.017741      3.160238      2.332029
  H       2.215834      4.773188      2.382530
  Si      2.453283     -1.985085     -0.372357
  C       4.151922     -1.245061      0.006385
  C       1.601035     -2.688832      1.163059
  C       2.552323     -3.293819     -1.749240
  H       4.065405     -0.524137      0.847531
  H       4.574726     -0.722993     -0.878164
  H       4.868144     -2.039502      0.307510
  H       0.501312     -2.583570      1.086546
  H       1.931097     -2.131983      2.061338
  H       1.839904     -3.762636      1.299811
  H       1.560558     -3.741507     -1.970261
  H       3.225786     -4.115718     -1.426231
  H       2.964584     -2.877739     -2.692408
  H       1.584449     -0.847201     -0.924434
51
Coordinates from ORCA-job my_molecule E -1977.841395410938
  Pt     -1.708162     -0.293866      1.350327
  O      -0.427111      0.625206      2.458861
  O      -3.529433     -0.117694      0.348747
  P       0.984668      1.298608      1.929909
  P      -3.193483     -1.340487     -0.594863
  O      -4.449801     -2.341574     -0.808773
  O      -2.068664     -2.043577      0.276344
  O       0.935901      1.340460      0.283550
  O       2.185004      0.564705      2.477295
  C       0.818547      3.091552      2.363879
  C      -2.705227     -0.887372     -2.324377
  C      -1.647862     -1.924248     -2.777531
  C      -2.122952      0.540225     -2.289169
  C      -3.946258     -0.919959     -3.242438
  C      -0.359381      3.715018      1.592650
  C       0.600867      3.201910      3.886407
  C       2.160828      3.748302      1.964836
  H      -4.649747     -2.803665      0.030747
  H       1.094425      0.424446     -0.067784
  H      -0.650437     -1.721349     -2.340910
  H      -1.560386     -1.891620     -3.882146
  H      -1.942236     -2.960883     -2.515582
  H      -1.190596      0.597783     -1.690767
  H      -2.845984      1.260424     -1.859486
  H      -1.883103      0.853295     -3.323947
  H      -4.452830     -1.900313     -3.223362
  H      -3.621944     -0.722099     -4.281145
  H      -4.688646     -0.146880     -2.961192
  H      -1.320555      3.210409      1.818380
  H      -0.193824      3.658745      0.497880
  H      -0.451803      4.787194      1.870831
  H      -0.311169      2.657342      4.207657
  H       0.489880      4.271660      4.158561
  H       1.459411      2.785560      4.450601
  H       2.242279      3.839395      0.862315
  H       3.023306      3.156479      2.327216
  H       2.225543      4.770301      2.395794
  Si      2.440173     -1.972150     -0.383652
  C       4.138101     -1.226704     -0.011254
  C       1.589942     -2.670002      1.155728
  C       2.541274     -3.291348     -1.750293
  H       4.054234     -0.512519      0.835837
  H       4.552987     -0.695309     -0.893914
  H       4.859685     -2.020351      0.279037
  H       0.490821     -2.554359      1.085977
  H       1.928849     -2.120064      2.054926
  H       1.818754     -3.746714      1.287097
  H       1.547050     -3.729641     -1.978882
  H       3.201879     -4.118129     -1.413681
  H       2.967880     -2.886725     -2.692015
  H       1.569306     -0.839416     -0.944222
51
Coordinates from ORCA-job my_molecule E -1977.841241798752
  Pt     -1.710951     -0.298063      1.345446
  O      -0.436543      0.631160      2.452985
  O      -3.524676     -0.098366      0.336271
  P       0.982239      1.296632      1.933672
  P      -3.206531     -1.334104     -0.597528
  O      -4.478820     -2.314652     -0.810400
  O      -2.098988     -2.050909      0.283242
  O       0.941967      1.344254      0.287048
  O       2.175012      0.554166      2.486288
  C       0.824374      3.089009      2.372858
  C      -2.706357     -0.898214     -2.328616
  C      -1.652101     -1.944789     -2.767016
  C      -2.116732      0.526615     -2.303972
  C      -3.942486     -0.932470     -3.253454
  C      -0.357496      3.716681      1.611470
  C       0.617160      3.194830      3.897228
  C       2.165825      3.744398      1.968487
  H      -4.685727     -2.775571      0.027962
  H       1.089565      0.428284     -0.067924
  H      -0.654744     -1.738424     -2.331750
  H      -1.562908     -1.927849     -3.872007
  H      -1.949736     -2.976796     -2.490478
  H      -1.188779      0.586221     -1.698829
  H      -2.839449      1.255136     -1.888183
  H      -1.867121      0.826538     -3.340622
  H      -4.453932     -1.910477     -3.229551
  H      -3.610478     -0.743846     -4.291756
  H      -4.682601     -0.153342     -2.982493
  H      -1.317569      3.211172      1.838737
  H      -0.197575      3.666286      0.515808
  H      -0.447962      4.786968      1.895691
  H      -0.292852      2.649124      4.222485
  H       0.508198      4.263593      4.173273
  H       1.479486      2.777083      4.454357
  H       2.240347      3.841669      0.866165
  H       3.029295      3.148615      2.322071
  H       2.236687      4.763216      2.405448
  Si      2.438348     -1.960055     -0.391508
  C       4.132579     -1.203773     -0.022107
  C       1.588077     -2.653529      1.149973
  C       2.548628     -3.289795     -1.747331
  H       4.047471     -0.497062      0.831167
  H       4.539323     -0.661277     -0.901804
  H       4.861807     -1.994143      0.258076
  H       0.489554     -2.530836      1.083729
  H       1.931177     -2.108888      2.050687
  H       1.809652     -3.732299      1.277053
  H       1.553856     -3.721544     -1.986611
  H       3.197661     -4.119265     -1.395239
  H       2.991585     -2.895976     -2.685989
  H       1.563243     -0.835335     -0.962510
