36

O         -8.10400        1.40298        0.85582
O         -8.90040       -0.47088        4.27926
P         -7.91574        0.40707       -0.44564
P         -8.43004        0.61105        5.43509
O         -9.06139        0.06919        6.84798
O         -8.90720        2.01083        5.10721
O         -6.99003       -0.82915        0.17787
O         -7.29217        1.02162       -1.67302
C         -9.55564       -0.33737       -0.81021
C         -6.60747        0.56337        5.64217
C         -6.17532        1.52006        6.77182
C         -5.96866        1.07718        4.33997
C         -6.11212       -0.85075        5.96220
C        -10.19416       -1.10726        0.34510
C        -10.47808        0.79807       -1.29732
C         -9.35563       -1.30983       -1.97893
H         -9.71121       -0.63921        6.63087
H         -6.12600       -0.41029        0.39783
H         -6.45892        2.56669        6.55796
H         -5.06894        1.44726        6.79306
H         -6.55228        1.21446        7.76360
H         -6.29032        2.09366        4.06225
H         -6.15370        0.41411        3.48364
H         -4.88329        1.09116        4.49639
H         -6.53048       -1.20543        6.91705
H         -5.01294       -0.79397        6.04300
H         -6.35966       -1.54295        5.15083
H        -10.39913       -0.48127        1.23151
H         -9.60767       -1.99156        0.61908
H        -11.18539       -1.46586        0.03560
H        -10.77092        1.50558       -0.50813
H        -11.38642        0.28844       -1.65447
H        -10.02968        1.34055       -2.14400
H         -8.77161       -2.18983       -1.69834
H         -8.85439       -0.81685       -2.81660
H        -10.35140       -1.64640       -2.29360
