30

O         -0.74459       -0.00213        0.51287
Si        -0.46995        1.65437        0.58885
Si        -1.03112       -1.38562       -0.39275
C         -1.81653        2.46558        1.63559
C         -3.14300        2.47041        1.18163
C         -2.21234       -0.91927       -1.75721
C         -3.48031       -0.55725       -1.50977
C          1.19942        1.78996        1.41437
C         -0.52859        2.37083       -1.14754
C          0.60683       -1.87621       -1.12972
C         -1.76734       -2.67637        0.72869
H         -1.59986        3.06237        2.53728
H         -3.36364        2.12833        0.16361
H         -3.88953        3.12922        1.62282
H         -1.86264       -0.86178       -2.79837
H         -3.87172       -0.60645       -0.48847
H         -4.11806       -0.15680       -2.30513
H          1.12410        1.39228        2.43480
H          1.60525        2.81305        1.40786
H          1.88868        1.13478        0.86722
H         -1.54569        2.36413       -1.57831
H          0.12270        1.82791       -1.84529
H         -0.15164        3.40038       -1.12061
H          0.88599       -1.12324       -1.87579
H          0.60724       -2.85660       -1.61676
H          1.38288       -1.87433       -0.35936
H         -2.75719       -2.36573        1.10127
H         -1.12230       -2.86232        1.59886
H         -1.87601       -3.60514        0.15152
Pt        -3.09969        0.61599        2.35404
