66

O         -0.89456        0.05857        0.55783
Si        -0.52211        1.60524        0.57929
Si        -1.07664       -1.24456       -0.33585
C         -1.78209        2.52767        1.61368
C         -3.18356        2.31862        1.06637
C         -2.25212       -0.88664       -1.71658
C         -3.50189       -0.49131       -1.47285
C          1.17948        1.81657        1.31569
C         -0.50846        2.27210       -1.16772
C          0.58093       -1.75616       -1.02483
C         -1.76067       -2.62234        0.72112
H         -1.73661        2.13978        2.65249
H         -3.26366        2.72681        0.03747
H         -3.91782        2.83986        1.71500
H         -1.91058       -0.99947       -2.74024
H         -3.86167       -0.36965       -0.45607
H         -4.17633       -0.28427       -2.29711
H          1.18605        1.41870        2.35113
H          1.44624        2.89316        1.33019
H          1.91742        1.26028        0.70163
H         -1.50829        2.14139       -1.62888
H          0.24452        1.71875       -1.76568
H         -0.24597        3.34961       -1.15009
H          0.98977       -0.93519       -1.64900
H          0.45943       -2.66798       -1.64459
H          1.27886       -1.96598       -0.18848
H         -2.74252       -2.31685        1.13746
H         -1.05665       -2.83377        1.55190
H         -1.88797       -3.53411        0.10236
Pt        -8.56185        0.65669        2.49329
O         -8.01998        1.59545        0.83992
O         -9.11581       -0.29109        4.13753
P         -7.91719        0.33789       -0.35297
P         -8.42920        0.63279        5.43681
O         -9.27909        0.15960        6.87504
O         -8.93868        2.07542        5.17541
O         -6.75746       -0.82288        0.21711
O         -7.21321        1.01677       -1.55836
C         -9.57596       -0.37251       -0.86452
C         -6.56087        0.59264        5.58009
C         -6.13161        1.46164        6.77261
C         -5.93952        1.13900        4.28493
C         -6.10929       -0.85780        5.80343
C        -10.23237       -1.04226        0.35247
C        -10.47345        0.76348       -1.37879
C         -9.36011       -1.41144       -1.97534
H         -9.37623       -0.82291        6.79864
H         -6.15455       -0.31081        0.81275
H         -6.46280        2.51271        6.63047
H         -5.02595        1.45423        6.88535
H         -6.58131        1.07887        7.71431
H         -6.26880        2.18525        4.10602
H         -6.24536        0.52188        3.41370
H         -4.82985        1.12854        4.34820
H         -6.56054       -1.26855        6.73213
H         -5.00306       -0.91350        5.89548
H         -6.42288       -1.49711        4.95016
H        -10.39520       -0.30314        1.16532
H         -9.58675       -1.85758        0.74414
H        -11.21734       -1.47700        0.07602
H        -10.62977        1.52524       -0.58478
H        -11.46635        0.36972       -1.68632
H        -10.00775        1.26300       -2.25520
H         -8.70542       -2.23473       -1.61724
H         -8.87971       -0.94193       -2.86045
H        -10.33068       -1.84880       -2.29546
