37
.geom to .xyz and scaled by factor of 0.529177
Pt -0.2284598448 -0.2315204460 0.4013625109
O 1.6915035391 -0.3033428072 0.9849487955
O -1.9921611384 0.0301658943 -0.4932032828
P 2.5467360361 1.1066371059 1.0249059062
P -2.3554345196 -1.5037805508 -0.9859252360
O -3.9716884953 -1.5213453335 -1.2614507124
O -1.9522701163 -2.5275936076 0.0551532753
O 2.1937921920 1.7839208958 -0.4551849597
O 4.0316222370 0.9815885511 1.2539229799
C 1.7509428823 2.1973889330 2.2712513937
C -1.5611177022 -1.8538965400 -2.6025173881
C -1.9594160035 -3.2590153258 -3.0976212744
C -0.0370228581 -1.8599943885 -2.3905613729
C -1.9523803754 -0.8170166256 -3.6604946728
C 0.2714878764 2.4937641029 2.0292907014
C 1.9684098742 1.5507645549 3.6540036791
C 2.5133335227 3.5278050256 2.2532531587
H -4.3462726779 -0.6907834500 -0.8858547628
H 2.5984110233 1.1736505767 -1.1141374032
H -1.6438372259 -4.0501211903 -2.3932230404
H -1.4064202037 -3.3879067737 -4.0501935478
H -3.0374125326 -3.3487954585 -3.3189180805
H 0.3005794278 -2.5906538121 -1.6382482072
H 0.3586087930 -0.8738327189 -2.1109930426
H 0.4216464352 -2.1202997114 -3.3521047242
H -3.0369638912 -0.8405019904 -3.8494336043
H -1.4139634483 -1.0853075458 -4.5857456085
H -1.6341826447 0.1862162645 -3.3588277931
H -0.3667899533 1.5927158455 2.0468182445
H 0.1156816509 3.0644301456 1.1067507156
H -0.1126130146 3.1100045900 2.8536986576
H 1.3837899282 0.6335223427 3.8153127808
H 1.6237225732 2.3077393458 4.3754868627
H 3.0360474741 1.3561335775 3.8396712773
H 2.3521598601 4.0922370632 1.3314868550
H 3.5879712885 3.3644941375 2.3733961087
H 2.1371777223 4.1274427602 3.0915826150
