51
Coordinates from ORCA-job my_molecule_initial_path E   0.000000000000
  Pt     -1.778662      0.712563      0.762921
  O      -0.232016     -0.183525      1.691040
  O      -3.536927      1.323150     -0.275572
  P       1.151613      0.635107      1.653782
  P      -3.793250     -0.152144     -0.776356
  O      -5.262572     -0.708940     -0.340526
  O      -2.631969     -0.985345     -0.081025
  O       1.584171      0.833767      0.072590
  O       2.234614      0.042254      2.522705
  C       0.628663      2.374578      2.074567
  C      -3.838850     -0.339654     -2.603044
  C      -4.008833     -1.836085     -2.935438
  C      -2.491450      0.189090     -3.137806
  C      -5.012080      0.497325     -3.151907
  C      -0.643309      2.665357      1.264225
  C       0.344379      2.408661      3.588068
  C       1.732857      3.378611      1.702888
  H      -5.361865     -0.701037      0.633860
  H       2.123801      0.056288     -0.217966
  H      -3.188529     -2.441694     -2.501189
  H      -3.986413     -1.967170     -4.037323
  H      -4.972500     -2.232286     -2.560123
  H      -1.636658     -0.381705     -2.724140
  H      -2.347516      1.258493     -2.887274
  H      -2.474327      0.086272     -4.242392
  H      -5.987310      0.127421     -2.779997
  H      -5.016674      0.433251     -4.259966
  H      -4.913205      1.565319     -2.871831
  H      -1.611358      2.062379      1.759680
  H      -0.473494      2.702832      0.170163
  H      -1.111553      3.637511      1.545064
  H      -0.457859      1.696857      3.870453
  H       0.034029      3.429133      3.898480
  H       1.252203      2.127405      4.156185
  H       1.951733      3.359762      0.617936
  H       2.668358      3.129129      2.243143
  H       1.435692      4.409727      1.991109
  Si      3.958378     -2.140110      0.213258
  C       5.137848     -0.905898      1.019250
  C       3.018821     -3.136838      1.508727
  C       4.852311     -3.253443     -1.035142
  H       4.549996     -0.258843      1.702771
  H       5.655071     -0.271929      0.270290
  H       5.911477     -1.432949      1.615675
  H       2.279417     -3.822180      1.047011
  H       2.485590     -2.429524      2.176820
  H       3.717023     -3.743362      2.122465
  H       4.146421     -3.947714     -1.535400
  H       5.624950     -3.866407     -0.525361
  H       5.358986     -2.655991     -1.820642
  H       2.930775     -1.347467     -0.594708
51
Coordinates from ORCA-job my_molecule_initial_path E   0.000000000000
  Pt     -1.663137      0.598164      0.641884
  O      -0.104273     -0.024109      1.661983
  O      -3.532295      1.061278     -0.234905
  P       1.242229      0.840591      1.601856
  P      -3.625494     -0.388157     -0.850600
  O      -4.969006     -1.189873     -0.390565
  O      -2.337773     -1.132402     -0.302304
  O       1.593737      1.186757      0.030987
  O       2.371092      0.250776      2.407355
  C       0.696555      2.523099      2.177118
  C      -3.745071     -0.430736     -2.681247
  C      -3.778621     -1.897765     -3.153665
  C      -2.497857      0.295770     -3.225165
  C      -5.037198      0.310922     -3.077869
  C      -0.584153      2.875582      1.407176
  C       0.430976      2.418918      3.690190
  C       1.800520      3.552735      1.882387
  H      -4.998772     -1.285137      0.584037
  H       2.185790      0.497058     -0.345865
  H      -2.871977     -2.443895     -2.826726
  H      -3.812927     -1.921650     -4.262757
  H      -4.665459     -2.437287     -2.767795
  H      -1.563608     -0.211828     -2.913937
  H      -2.450092      1.346236     -2.876935
  H      -2.538353      0.298753     -4.333774
  H      -5.938581     -0.202044     -2.689404
  H      -5.106044      0.349403     -4.184817
  H      -5.037584      1.354087     -2.703133
  H      -1.524623      2.215962      1.834523
  H      -0.425088      3.007569      0.318967
  H      -1.040898      3.823589      1.774341
  H      -0.364038      1.680562      3.918923
  H       0.116125      3.407101      4.087829
  H       1.346395      2.102591      4.227181
  H       2.004882      3.636711      0.797485
  H       2.744582      3.259967      2.384688
  H       1.502972      4.552115      2.265341
  Si      3.717511     -2.187958      0.226243
  C       5.062022     -1.008506      0.821617
  C       2.826462     -2.997904      1.669732
  C       4.372363     -3.470200     -1.008589
  H       4.597416     -0.262479      1.498902
  H       5.574246     -0.484155     -0.010521
  H       5.831009     -1.567428      1.394814
  H       1.989519     -3.646133      1.341657
  H       2.425333     -2.200840      2.327356
  H       3.527676     -3.622932      2.261973
  H       3.563843     -4.138094     -1.370723
  H       5.135668     -4.105649     -0.512836
  H       4.848644     -2.989283     -1.887174
  H       2.705354     -1.199857     -0.625238
51
Coordinates from ORCA-job my_molecule_initial_path E   0.000000000000
  Pt     -1.481676      0.482532      0.467276
  O       0.021851      0.136345      1.622977
  O      -3.462563      0.764047     -0.193175
  P       1.336062      1.039812      1.540151
  P      -3.428538     -0.623327     -0.938051
  O      -4.623867     -1.632833     -0.479265
  O      -2.031969     -1.252726     -0.554049
  O       1.610735      1.510419     -0.010097
  O       2.512892      0.452936      2.272879
  C       0.768452      2.649161      2.271970
  C      -3.655175     -0.521528     -2.754526
  C      -3.580864     -1.932049     -3.369944
  C      -2.528220      0.382026     -3.294439
  C      -5.043034      0.106819     -2.989461
  C      -0.522488      3.058215      1.549756
  C       0.521544      2.409379      3.772550
  C       1.870200      3.700299      2.054473
  H      -4.567188     -1.820578      0.480730
  H       2.282850      0.949741     -0.453309
  H      -2.602099     -2.405016     -3.159719
  H      -3.692680     -1.855370     -4.471493
  H      -4.375775     -2.599822     -2.984565
  H      -1.527135     -0.049044     -3.095922
  H      -2.560071      1.395040     -2.847326
  H      -2.648482      0.484507     -4.392392
  H      -5.855657     -0.535410     -2.597026
  H      -5.195347      0.240981     -4.080349
  H      -5.123042      1.105401     -2.515233
  H      -1.436901      2.347671      1.893846
  H      -0.377621      3.278427      0.474159
  H      -0.966691      3.974238      2.001784
  H      -0.268306      1.651080      3.946658
  H       0.204945      3.358390      4.255013
  H       1.443903      2.057824      4.274933
  H       2.059176      3.883288      0.978822
  H       2.822561      3.371329      2.517148
  H       1.572644      4.660252      2.527074
  Si      3.439437     -2.204188      0.244026
  C       4.941329     -1.129132      0.627768
  C       2.651081     -2.837780      1.827507
  C       3.865204     -3.628533     -0.934312
  H       4.613801     -0.297294      1.284821
  H       5.431348     -0.718837     -0.278431
  H       5.702121     -1.721998      1.177961
  H       1.734855     -3.433103      1.644977
  H       2.393430     -1.968639      2.464488
  H       3.354000     -3.489287      2.389624
  H       2.977491     -4.258733     -1.148166
  H       4.625060     -4.284888     -0.460358
  H       4.281438     -3.263167     -1.894959
  H       2.516977     -0.986875     -0.666804
51
Coordinates from ORCA-job my_molecule_initial_path E   0.000000000000
  Pt     -1.243755      0.342250      0.260497
  O       0.140150      0.303903      1.565853
  O      -3.318659      0.430343     -0.150698
  P       1.430329      1.236488      1.479131
  P      -3.213023     -0.858448     -1.042175
  O      -4.257250     -2.035839     -0.617833
  O      -1.734667     -1.358275     -0.840311
  O       1.637617      1.813573     -0.046600
  O       2.660557      0.651071      2.119191
  C       0.841044      2.758911      2.359362
  C      -3.573170     -0.607122     -2.821596
  C      -3.415040     -1.935639     -3.584446
  C      -2.582391      0.455069     -3.339043
  C      -5.029556     -0.107529     -2.891731
  C      -0.461277      3.216844      1.689572
  C       0.613584      2.388724      3.836368
  C       1.935809      3.830878      2.221974
  H      -4.106563     -2.313927      0.309393
  H       2.390330      1.386337     -0.506549
  H      -2.380409     -2.319416     -3.498923
  H      -3.621384     -1.766026     -4.661700
  H      -4.106413     -2.717984     -3.215682
  H      -1.530823      0.114981     -3.259389
  H      -2.677055      1.411468     -2.788030
  H      -2.799306      0.650552     -4.409188
  H      -5.743619     -0.865335     -2.513842
  H      -5.279237      0.114665     -3.949724
  H      -5.166958      0.826805     -2.311661
  H      -1.350738      2.466521      1.941899
  H      -0.331149      3.514482      0.631133
  H      -0.891622      4.096007      2.219746
  H      -0.171507      1.615171      3.955294
  H       0.295256      3.290962      4.400498
  H       1.543760      2.003942      4.298638
  H       2.109247      4.107536      1.163732
  H       2.896220      3.473322      2.645091
  H       1.635892      4.744123      2.777941
  Si      3.148407     -2.202546      0.268528
  C       4.781232     -1.265714      0.432075
  C       2.499754     -2.656667      1.975935
  C       3.357377     -3.750740     -0.809915
  H       4.596718     -0.362708      1.049528
  H       5.221121     -0.972838     -0.542775
  H       5.534600     -1.889469      0.958619
  H       1.523588     -3.179456      1.957995
  H       2.395076     -1.725526      2.566943
  H       3.201886     -3.337052      2.505207
  H       2.420838     -4.343687     -0.858944
  H       4.124583     -4.421605     -0.367652
  H       3.678389     -3.495541     -1.839997
  H       2.372208     -0.755840     -0.721734
51
Coordinates from ORCA-job my_molecule_initial_path E   0.000000000000
  Pt     -0.975239      0.185057      0.057660
  O       0.235173      0.487396      1.477964
  O      -3.111965      0.087109     -0.127109
  P       1.516902      1.429846      1.422750
  P      -2.980734     -1.083825     -1.158674
  O      -3.868724     -2.401578     -0.798074
  O      -1.450244     -1.432005     -1.146440
  O       1.661954      2.105922     -0.072735
  O       2.794024      0.833269      1.953288
  C       0.917858      2.858437      2.442093
  C      -3.486430     -0.695353     -2.878750
  C      -3.260379     -1.920261     -3.784632
  C      -2.646118      0.507747     -3.353280
  C      -4.984291     -0.342934     -2.792835
  C      -0.395818      3.368590      1.833946
  C       0.712038      2.362604      3.885238
  C       2.006168      3.944712      2.386982
  H      -3.625138     -2.762020      0.079316
  H       2.472099      1.788395     -0.523456
  H      -2.189227     -2.197119     -3.820608
  H      -3.570296     -1.672446     -4.821275
  H      -3.839824     -2.802644     -3.450701
  H      -1.563127      0.274602     -3.387933
  H      -2.787339      1.390814     -2.699273
  H      -2.967287      0.782033     -4.379115
  H      -5.591623     -1.202631     -2.447755
  H      -5.337614     -0.047704     -3.802316
  H      -5.162020      0.511799     -2.109988
  H      -1.264287      2.595436      1.994559
  H      -0.280038      3.738070      0.796755
  H      -0.805433      4.208065      2.438404
  H      -0.069193      1.578789      3.947616
  H       0.395440      3.210653      4.528896
  H       1.650698      1.945981      4.300630
  H       2.162902      4.311554      1.353716
  H       2.973323      3.557624      2.766264
  H       1.708495      4.804944      3.022945
  Si      2.854797     -2.193826      0.297987
  C       4.571036     -1.402954      0.235528
  C       2.350552     -2.461946      2.094883
  C       2.850641     -3.840471     -0.655383
  H       4.524471     -0.447332      0.797002
  H       4.936265     -1.219111     -0.795188
  H       5.317643     -2.055520      0.736959
  H       1.337681     -2.884380      2.244034
  H       2.402274     -1.485106      2.615143
  H       3.044499     -3.174718      2.592677
  H       1.894480     -4.392053     -0.537890
  H       3.627081     -4.525471     -0.250165
  H       3.061373     -3.686767     -1.732997
  H       2.232521     -0.539276     -0.776667
51
Coordinates from ORCA-job my_molecule_initial_path E   0.000000000000
  Pt     -0.514131     -0.083139     -0.270579
  O       0.247120      0.629810      1.327543
  O      -2.681773     -0.231287     -0.188935
  P       1.542762      1.555057      1.329789
  P      -2.623921     -1.289880     -1.332048
  O      -3.431652     -2.652118     -0.960250
  O      -1.096735     -1.535221     -1.619515
  O       1.672390      2.335792     -0.123278
  O       2.845965      0.957268      1.793330
  C       0.972083      2.886041      2.484485
  C      -3.398558     -0.776519     -2.909630
  C      -3.210884     -1.901970     -3.943690
  C      -2.693372      0.526724     -3.336434
  C      -4.891529     -0.540568     -2.611447
  C      -0.339022      3.463636      1.934372
  C       0.770221      2.267616      3.879629
  C       2.086448      3.947562      2.499345
  H      -3.040870     -3.081453     -0.172346
  H       2.552473      2.169396     -0.521432
  H      -2.139586     -2.101667     -4.141066
  H      -3.661276     -1.580615     -4.905645
  H      -3.695877     -2.845355     -3.625468
  H      -1.611016      0.385019     -3.529440
  H      -2.810047      1.325501     -2.577184
  H      -3.154573      0.875967     -4.282563
  H      -5.403591     -1.467319     -2.286424
  H      -5.378635     -0.177223     -3.539792
  H      -5.033804      0.227767     -1.825680
  H      -1.207249      2.704125      2.023420
  H      -0.230106      3.887278      0.917340
  H      -0.697808      4.279541      2.599045
  H      -0.021602      1.492302      3.886621
  H       0.472504      3.065693      4.592394
  H       1.706498      1.813321      4.259406
  H       2.240110      4.399427      1.499444
  H       3.050309      3.522210      2.844664
  H       1.808984      4.760719      3.202348
  Si      2.545973     -2.095580      0.374434
  C       4.311413     -1.473069      0.126965
  C       2.164515     -2.246993      2.221362
  C       2.375121     -3.793901     -0.470009
  H       4.393603     -0.490202      0.633503
  H       4.610459     -1.371971     -0.936200
  H       5.039441     -2.155974      0.615680
  H       1.127016     -2.528281      2.489783
  H       2.385760     -1.266576      2.687264
  H       2.810452     -3.022741      2.688532
  H       1.429565     -4.306116     -0.193720
  H       3.167156     -4.488892     -0.114931
  H       2.476677     -3.696217     -1.569386
  H       2.162596     -0.276925     -0.923604
51
Coordinates from ORCA-job my_molecule_initial_path E   0.000000000000
  Pt     -0.521435      0.045183     -0.188158
  O       0.355726      0.798356      1.326548
  O      -2.705398     -0.460210     -0.122997
  P       1.650485      1.733329      1.347543
  P      -2.507357     -1.408200     -1.346361
  O      -3.037364     -2.943896     -1.204067
  O      -0.954626     -1.361355     -1.603016
  O       1.686084      2.581755     -0.074888
  O       2.977162      1.083227      1.660064
  C       1.089566      3.007016      2.576286
  C      -3.275299     -0.891010     -2.942303
  C      -2.904034     -1.872188     -4.072403
  C      -2.777021      0.530728     -3.277715
  C      -4.789534     -0.904139     -2.657555
  C      -0.243827      3.617619      2.115094
  C       0.942274      2.314353      3.943861
  C       2.186401      4.086295      2.631927
  H      -2.667526     -3.384298     -0.412635
  H       2.535797      2.397448     -0.524126
  H      -1.811973     -1.888012     -4.257798
  H      -3.387046     -1.546982     -5.017887
  H      -3.242396     -2.904777     -3.859898
  H      -1.683942      0.560314     -3.462327
  H      -3.008903      1.249176     -2.466669
  H      -3.277793      0.877500     -4.205299
  H      -5.156511     -1.922690     -2.423058
  H      -5.322290     -0.546370     -3.562829
  H      -5.053816     -0.229116     -1.818909
  H      -1.081196      2.843394      2.126923
  H      -0.158970      4.112217      1.127725
  H      -0.594437      4.378075      2.846322
  H       0.160255      1.529399      3.925207
  H       0.655061      3.064607      4.710986
  H       1.895429      1.842681      4.255106
  H       2.301040      4.595442      1.654461
  H       3.163234      3.639917      2.905507
  H       1.922779      4.849607      3.394092
  Si      2.267373     -2.140479      0.339618
  C       4.021113     -1.624397     -0.123058
  C       2.029928     -2.095729      2.205020
  C       1.865410     -3.864999     -0.368958
  H       4.215083     -0.626268      0.320750
  H       4.202501     -1.591718     -1.216083
  H       4.747134     -2.342275      0.316804
  H       0.999422     -2.278971      2.567107
  H       2.355518     -1.105766      2.581241
  H       2.667206     -2.889802      2.653222
  H       0.895694     -4.259027      0.002452
  H       2.607771     -4.612041     -0.009863
  H       1.892503     -3.872006     -1.476984
  H       1.874748     -0.170913     -0.838023
51
Coordinates from ORCA-job my_molecule_initial_path E   0.000000000000
  Pt     -0.003235     -0.218843     -0.489156
  O       0.336638      0.899268      1.094266
  O      -2.168825     -0.759223     -0.265577
  P       1.638953      1.816658      1.240514
  P      -2.075171     -1.566028     -1.593597
  O      -2.619330     -3.093651     -1.412475
  O      -0.559347     -1.460019     -2.076113
  O       1.681079      2.763170     -0.126934
  O       2.985749      1.174265      1.492034
  C       1.117295      2.982175      2.585275
  C      -3.178271     -0.968912     -2.938290
  C      -2.939321     -1.842039     -4.185463
  C      -2.786372      0.499666     -3.197549
  C      -4.639356     -1.068384     -2.455964
  C      -0.204070      3.660266      2.188036
  C       0.954926      2.180359      3.889482
  C       2.249898      4.018354      2.720061
  H      -2.068576     -3.581240     -0.768563
  H       2.591491      2.731087     -0.484968
  H      -1.882782     -1.801117     -4.517194
  H      -3.566194     -1.462857     -5.019276
  H      -3.210709     -2.900212     -4.003025
  H      -1.732829      0.599821     -3.527447
  H      -2.929596      1.123205     -2.292757
  H      -3.428671      0.904210     -4.006553
  H      -4.937649     -2.116394     -2.257928
  H      -5.307802     -0.661167     -3.243176
  H      -4.800396     -0.483657     -1.528341
  H      -1.046328      2.918589      2.130087
  H      -0.114216      4.205451      1.228019
  H      -0.495907      4.393847      2.970001
  H       0.158740      1.414907      3.803767
  H       0.683637      2.870046      4.716938
  H       1.900415      1.675947      4.171462
  H       2.375707      4.605908      1.788677
  H       3.216638      3.532853      2.961550
  H       2.008601      4.727286      3.539755
  Si      1.990893     -1.987709      0.418089
  C       3.748591     -1.660414     -0.167665
  C       1.852435     -1.868770      2.293832
  C       1.435916     -3.716368     -0.155838
  H       4.048813     -0.659682      0.203602
  H       3.851895     -1.701606     -1.270252
  H       4.442097     -2.407302      0.276070
  H       0.815172     -1.901411      2.680726
  H       2.324284     -0.916163      2.602776
  H       2.408220     -2.715388      2.753067
  H       0.488865     -3.998955      0.349090
  H       2.172600     -4.482203      0.171574
  H       1.354669     -3.777407     -1.258178
  H       1.860736      0.079784     -1.026470
51
Coordinates from ORCA-job my_molecule_initial_path E   0.000000000000
  Pt      0.234427     -0.251641     -0.530272
  O       0.384846      1.030516      1.014218
  O      -1.932451     -0.972961     -0.301211
  P       1.692766      1.946738      1.206818
  P      -1.819483     -1.675803     -1.686824
  O      -2.137114     -3.281302     -1.637820
  O      -0.310653     -1.444455     -2.163774
  O       1.691240      2.973151     -0.105811
  O       3.037590      1.257417      1.338447
  C       1.218838      3.034929      2.636467
  C      -3.036639     -1.097109     -2.941816
  C      -2.761187     -1.815775     -4.277100
  C      -2.835156      0.424875     -3.089469
  C      -4.452704     -1.409484     -2.416970
  C      -0.106994      3.755909      2.332615
  C       1.087260      2.145732      3.887703
  C       2.363876      4.051246      2.819162
  H      -1.488168     -3.733700     -1.058701
  H       2.601554      2.969345     -0.462468
  H      -1.729116     -1.623661     -4.632401
  H      -3.466317     -1.440479     -5.048085
  H      -2.899269     -2.910752     -4.185904
  H      -1.815124      0.666547     -3.449994
  H      -2.999924      0.951841     -2.128679
  H      -3.561456      0.820492     -3.829279
  H      -4.614741     -2.499696     -2.308573
  H      -5.204792     -1.016713     -3.132945
  H      -4.632117     -0.932060     -1.432841
  H      -0.936922      3.034884      2.200532
  H      -0.029271      4.365585      1.410629
  H      -0.362845      4.433796      3.174862
  H       0.282756      1.393571      3.767334
  H       0.842806      2.776530      4.768748
  H       2.034204      1.610941      4.102473
  H       2.468047      4.702451      1.928090
  H       3.331081      3.537659      2.989277
  H       2.151375      4.699680      3.695151
  Si      1.666235     -1.904719      0.407515
  C       3.395623     -1.747497     -0.319837
  C       1.678669     -1.677485      2.274230
  C       0.867078     -3.571472     -0.040803
  H       3.804992     -0.762182     -0.017002
  H       3.399183     -1.832922     -1.424459
  H       4.044106     -2.547998      0.097029
  H       0.657382     -1.584329      2.692031
  H       2.261230     -0.768051      2.519782
  H       2.170440     -2.563449      2.731612
  H      -0.116593     -3.668993      0.466241
  H       1.514734     -4.394248      0.330787
  H       0.752555     -3.679344     -1.137165
  H       1.614144      0.224445     -1.031550
