51
Coordinates from ORCA-job my_molecule_NEB-HEI_converged E -1977.844480293225
  Pt         -1.30908089371571     -0.08653393320125      0.62460232285589
  O           0.14804137875768      0.23469210968840      1.84845949043597
  O          -3.23726921333031      0.27929667060221     -0.11808049430935
  P           1.42314233626692      1.26375677957275      1.63496084458508
  P          -3.19823587327759     -0.94769374630052     -1.11043824599383
  O          -4.29295429004278     -2.09053834594509     -0.72670543667772
  O          -1.71007014351261     -1.44863441223584     -0.86598706668570
  O           1.49218095349860      1.60208037359781      0.02265875996588
  O           2.71134404306191      0.72660356335732      2.20647508898628
  C           0.81277589723469      2.84467708307820      2.39093546014251
  C          -3.58440258616739     -0.60769568754225     -2.86970661596770
  C          -3.37790682297820     -1.92651766754486     -3.64574674442430
  C          -2.59733986804952      0.47515808458244     -3.35324764010280
  C          -5.04117326581497     -0.11110473837097     -2.96783491372029
  C          -0.48440873913983      3.33006845453469      1.72332408981251
  C           0.58669158820830      2.53065856393190      3.88536495457371
  C           1.93553635963041      3.88851093378211      2.22374247756614
  H          -4.19505779756199     -2.35198591786433      0.21336366629422
  H           1.96162568177909      0.85831409502915     -0.41977368976764
  H          -2.34156851450022     -2.30379494337072     -3.53324193578040
  H          -3.55875965350190     -1.74393879269500     -4.72511674408531
  H          -4.07601490786452     -2.71527937185739     -3.30455927909563
  H          -1.54544767792344      0.14144331869552     -3.25801349413811
  H          -2.71332231734874      1.41807003779949     -2.78370019814414
  H          -2.79648080077420      0.69000331048341     -4.42345467261903
  H          -5.76076434732507     -0.87532557720005     -2.61534191923802
  H          -5.27129601446523      0.11968831888998     -4.02862310097281
  H          -5.19641064574607      0.81467810074539     -2.37786555148062
  H          -1.30077653333228      2.58342059472068      1.80922972240250
  H          -0.33279435177883      3.54911233099126      0.64817975615193
  H          -0.83226207878431      4.25936313544971      2.22213882733717
  H          -0.21602464212369      1.77989211408897      4.02641746071043
  H           0.29385278187010      3.45839153606405      4.41970671207291
  H           1.51074998914618      2.13299459774864      4.35008304457217
  H           2.11288114248169      4.12495810906111      1.15583836939299
  H           2.88596911511428      3.52551942468235      2.66164961589446
  H           1.64495373773136      4.82647154927031      2.74253774978167
  Si          3.24436001914887     -2.13695939798419      0.24571669969771
  C           4.91596451425668     -1.28056692327054      0.46160437786268
  C           2.49783050998992     -2.61253706313286      1.91340336739090
  C           3.39068460159065     -3.66718970302150     -0.87006837319381
  H           4.76342021633648     -0.36731689112410      1.07245518697581
  H           5.36223507459379     -0.99333262699556     -0.51274241600279
  H           5.63863864463879     -1.93821887784303      0.98777523781532
  H           1.48997555184117     -3.06109144846038      1.79862452410446
  H           2.41073812937800     -1.70486767543644      2.54321600578230
  H           3.14698382312303     -3.34826204057463      2.43297709444432
  H           2.40793232615945     -4.16743377851390     -0.99391064841815
  H           4.08824116843927     -4.40507423075366     -0.42029345936567
  H           3.77462152905323     -3.41260175714237     -1.87909221363747
  H           2.31845086572888     -1.15332764206640     -0.46189605378660
