51
Coordinates from ORCA-job my_molecule_product E -1977.927367582845
  Pt      1.579276     -1.345278     -0.650023
  O       1.676122      0.004426      0.840106
  O      -0.614952     -2.005119     -0.512839
  P       2.994684      0.897775      1.065012
  P      -0.442260     -2.775073     -1.856002
  O      -0.802805     -4.368829     -1.751495
  O       1.096269     -2.600813     -2.255970
  O       3.092647      1.861706     -0.290635
  O       4.311764      0.184081      1.303575
  C       2.470491      2.062204      2.414849
  C      -1.571817     -2.228772     -3.203921
  C      -1.241160     -3.016774     -4.486543
  C      -1.322474     -0.720766     -3.410361
  C      -3.022690     -2.482226     -2.746706
  C       1.182686      2.798990      2.004066
  C       2.246656      1.235716      3.695591
  C       3.629578      3.058961      2.615990
  H      -0.199265     -4.807955     -1.115835
  H       4.021034      1.820271     -0.594407
  H      -0.186186     -2.866215     -4.790973
  H      -1.892051     -2.662346     -5.313082
  H      -1.412712     -4.102579     -4.352546
  H      -0.278063     -0.520815     -3.723362
  H      -1.526282     -0.144823     -2.485858
  H      -1.995999     -0.343828     -4.207619
  H      -3.219110     -3.561848     -2.597061
  H      -3.723098     -2.106651     -3.521887
  H      -3.244158     -1.954040     -1.797706
  H       0.342933      2.092185      1.858010
  H       1.327213      3.362972      1.061285
  H       0.898189      3.521245      2.798910
  H       1.430809      0.497789      3.563972
  H       1.970109      1.912488      4.531887
  H       3.165986      0.689502      3.987658
  H       3.799833      3.665365      1.703730
  H       4.572225      2.531425      2.863591
  H       3.385684      3.752269      3.448342
  Si      2.913448     -2.984763      0.442815
  C       4.684338     -2.901335     -0.190844
  C       2.826896     -2.670345      2.294848
  C       2.098601     -4.652137      0.026214
  H       5.100891     -1.912367      0.089477
  H       4.747665     -3.038761     -1.288383
  H       5.287893     -3.695823      0.298660
  H       1.786486     -2.534103      2.648741
  H       3.417907     -1.764056      2.531610
  H       3.269222     -3.544915      2.819674
  H       1.085890     -4.703175      0.480091
  H       2.703342     -5.470981      0.471503
  H       2.043074     -4.809009     -1.068798
  H       2.996725     -0.925658     -1.092569
51
Coordinates from ORCA-job my_molecule_product E -1977.927367896085
  Pt      1.579957     -1.345866     -0.649942
  O       1.676661      0.003790      0.840386
  O      -0.614209     -2.005273     -0.512286
  P       2.994918      0.897562      1.065290
  P      -0.441995     -2.775022     -1.855603
  O      -0.803129     -4.368652     -1.751477
  O       1.096628     -2.601364     -2.255671
  O       3.093321      1.860771     -0.290831
  O       4.312058      0.184278      1.304891
  C       2.469893      2.062554      2.414292
  C      -1.571673     -2.228077     -3.203207
  C      -1.240509     -3.015017     -4.486326
  C      -1.323096     -0.719805     -3.408534
  C      -3.022475     -2.482540     -2.746370
  C       1.182166      2.798903      2.002567
  C       2.245612      1.236559      3.695309
  C       3.628712      3.059585      2.615438
  H      -0.199491     -4.808165     -1.116162
  H       4.021774      1.819112     -0.594364
  H      -0.185560     -2.863778     -4.790509
  H      -1.891470     -2.660238     -5.312677
  H      -1.411644     -4.100994     -4.353204
  H      -0.278594     -0.519045     -3.720880
  H      -1.527760     -0.144500     -2.483821
  H      -1.996408     -0.342775     -4.205932
  H      -3.218361     -3.562396     -2.597679
  H      -3.722934     -2.106632     -3.521339
  H      -3.244340     -1.955271     -1.796950
  H       0.342634      2.091851      1.856396
  H       1.327063      3.362515      1.059619
  H       0.897116      3.521444      2.796953
  H       1.429997      0.498377      3.563697
  H       1.968552      1.913641      4.531194
  H       3.164955      0.690713      3.988038
  H       3.799344      3.665514      1.702933
  H       4.571323      2.532342      2.863819
  H       3.384281      3.753301      3.447299
  Si      2.913958     -2.985623      0.442683
  C       4.684827     -2.902885     -0.191129
  C       2.827722     -2.671067      2.294718
  C       2.098476     -4.652706      0.026117
  H       5.101850     -1.914134      0.089233
  H       4.748017     -3.040301     -1.288682
  H       5.288117     -3.697651      0.298255
  H       1.787387     -2.534733      2.648808
  H       3.418859     -1.764798      2.531312
  H       3.270128     -3.545645      2.819466
  H       1.085777     -4.703453      0.480076
  H       2.702901     -5.471830      0.471318
  H       2.042767     -4.809418     -1.068917
  H       2.997380     -0.925966     -1.092836
