51
Coordinates from ORCA-job my_molecule_reactant E -1977.868388579451
  Pt         -0.45540841550362     -0.34650647403681      0.59432890367136
  O           1.09123709953065     -1.24259386346577      1.52244763327048
  O          -2.21367351666549      0.26408060949835     -0.44416404645388
  P           2.47486631347958     -0.42396274728506      1.48519006569690
  P          -2.46999660323305     -1.21121305753084     -0.94494751894876
  O          -3.93931842187804     -1.76800955535145     -0.50911810242459
  O          -1.30871514158505     -2.04441459026794     -0.24961702859040
  O           2.90742411366491     -0.22530207958114     -0.09600174798285
  O           3.55786714098136     -1.01681508089373      2.35411273698694
  C           1.95191688399167      1.31550910627955      1.90597528545470
  C          -2.51559614459186     -1.39872361532815     -2.77163553398353
  C          -2.68557921044229     -2.89515435023927     -3.10403001994720
  C          -1.16819672391447     -0.86997889245423     -3.30639795305986
  C          -3.68882597071737     -0.56174465495799     -3.32049854604872
  C           0.67994411918355      1.60628724229613      1.09563319859727
  C           1.66763287593981      1.34959127690133      3.41947651501277
  C           3.05611008567852      2.31954150698399      1.53429652729089
  H          -4.03861125896458     -1.76010631311372      0.46526758448319
  H           3.44705472771815     -1.00278123189841     -0.38655796289042
  H          -1.86527495063333     -3.50076340989652     -2.66978084882467
  H          -2.66315928245106     -3.02623972893482     -4.20591524484777
  H          -3.64924627185410     -3.29135558228150     -2.72871527312913
  H          -0.31340446634520     -1.44077448079277     -2.89273205981176
  H          -1.02426223756886      0.19942336586999     -3.05586631575526
  H          -1.15107306882722     -0.97279688350325     -4.41098426076809
  H          -4.66405660891810     -0.93164825017545     -2.94858891442168
  H          -3.69342048850299     -0.62581820727100     -4.42855795948552
  H          -3.58995166953247      0.50624986409109     -3.04042273109975
  H          -0.28810395693545      1.00330937120865      1.59108829999244
  H           0.84975912943728      1.64376293197484      0.00157136408765
  H           0.21170101365772      2.57844221433655      1.37647244938373
  H           0.86539455545290      0.63778777197179      3.70186137488693
  H           1.35728233794189      2.37006363845114      3.72988771515279
  H           2.57545616159871      1.06833606430713      3.98759346836237
  H           3.27498623793002      2.30069254026398      0.44934431081207
  H           3.99161195888933      2.07005969634819      2.07455096448846
  H           2.75894580633313      3.35065732714081      1.82251677794070
  Si          5.28163200654502     -3.19917968899900      0.04466606868957
  C           6.46110201526675     -1.96496725037232      0.85065783832670
  C           4.34207491980968     -4.19590702206497      1.34013505723717
  C           6.17556504928436     -4.31251242503041     -1.20373381639855
  H           5.87324945064427     -1.31791194916875      1.53417944597305
  H           6.97832459545362     -1.33099811105208      0.10169793877835
  H           7.23473025548966     -2.49201837177003      1.44708286772573
  H           3.60267068057749     -4.88124890422877      0.87841911072143
  H           3.80884319360923     -3.48859326977048      2.00822785769539
  H           5.04027688312701     -4.80243102100868      1.95387322460944
  H           5.46967493425108     -5.00678373443513     -1.70399151582019
  H           6.94820395907772     -4.92547607474575     -0.69395277599019
  H           6.68223933714462     -3.71505998701338     -1.98923372814154
  H           4.25402869157430     -2.40653650300355     -0.76329995280405
