51
Coordinates from ORCA-job my_molecule E -1977.844480260653
  Pt     -1.309081     -0.086534      0.624602
  O       0.148041      0.234692      1.848459
  O      -3.237269      0.279297     -0.118080
  P       1.423142      1.263757      1.634961
  P      -3.198236     -0.947694     -1.110438
  O      -4.292954     -2.090538     -0.726705
  O      -1.710070     -1.448634     -0.865987
  O       1.492181      1.602080      0.022659
  O       2.711344      0.726604      2.206475
  C       0.812776      2.844677      2.390935
  C      -3.584403     -0.607696     -2.869707
  C      -3.377907     -1.926518     -3.645747
  C      -2.597340      0.475158     -3.353248
  C      -5.041173     -0.111105     -2.967835
  C      -0.484409      3.330068      1.723324
  C       0.586692      2.530659      3.885365
  C       1.935536      3.888511      2.223742
  H      -4.195058     -2.351986      0.213364
  H       1.961626      0.858314     -0.419774
  H      -2.341569     -2.303795     -3.533242
  H      -3.558760     -1.743939     -4.725117
  H      -4.076015     -2.715279     -3.304559
  H      -1.545448      0.141443     -3.258013
  H      -2.713322      1.418070     -2.783700
  H      -2.796481      0.690003     -4.423455
  H      -5.760764     -0.875326     -2.615342
  H      -5.271296      0.119688     -4.028623
  H      -5.196411      0.814678     -2.377866
  H      -1.300777      2.583421      1.809230
  H      -0.332794      3.549112      0.648180
  H      -0.832262      4.259363      2.222139
  H      -0.216025      1.779892      4.026417
  H       0.293853      3.458392      4.419707
  H       1.510750      2.132995      4.350083
  H       2.112881      4.124958      1.155838
  H       2.885969      3.525519      2.661650
  H       1.644954      4.826472      2.742538
  Si      3.244360     -2.136959      0.245717
  C       4.915965     -1.280567      0.461604
  C       2.497831     -2.612537      1.913403
  C       3.390685     -3.667190     -0.870068
  H       4.763420     -0.367317      1.072455
  H       5.362235     -0.993333     -0.512742
  H       5.638639     -1.938219      0.987775
  H       1.489976     -3.061091      1.798625
  H       2.410738     -1.704868      2.543216
  H       3.146984     -3.348262      2.432977
  H       2.407932     -4.167434     -0.993911
  H       4.088241     -4.405074     -0.420293
  H       3.774622     -3.412602     -1.879092
  H       2.318451     -1.153328     -0.461896
51
Coordinates from ORCA-job my_molecule E -1977.844541952677
  Pt     -1.343508     -0.069322      0.651384
  O       0.136304      0.223822      1.854434
  O      -3.268645      0.274138     -0.095800
  P       1.409307      1.251739      1.635477
  P      -3.217272     -0.953197     -1.085635
  O      -4.327385     -2.090069     -0.725882
  O      -1.736539     -1.463992     -0.810309
  O       1.475693      1.585586      0.021922
  O       2.698999      0.720146      2.208542
  C       0.804536      2.840221      2.382041
  C      -3.567303     -0.608302     -2.851839
  C      -3.365447     -1.926953     -3.629233
  C      -2.558547      0.463181     -3.314993
  C      -5.015801     -0.092191     -2.972931
  C      -0.491364      3.324538      1.712480
  C       0.580402      2.541013      3.879793
  C       1.930566      3.878906      2.204030
  H      -4.250533     -2.353234      0.216020
  H       1.941650      0.840563     -0.421366
  H      -2.336498     -2.319098     -3.500615
  H      -3.524941     -1.737578     -4.710930
  H      -4.080325     -2.707295     -3.303836
  H      -1.512913      0.115104     -3.203579
  H      -2.671668      1.405292     -2.743464
  H      -2.737206      0.684863     -4.387382
  H      -5.751319     -0.848509     -2.636554
  H      -5.224725      0.146214     -4.036480
  H      -5.169141      0.832954     -2.381449
  H      -1.311852      2.581099      1.806104
  H      -0.341844      3.533608      0.635247
  H      -0.837169      4.257774      2.203794
  H      -0.226662      1.796766      4.030023
  H       0.295015      3.475424      4.406691
  H       1.503290      2.141878      4.345462
  H       2.107789      4.105073      1.133853
  H       2.880002      3.515202      2.643667
  H       1.645306      4.822638      2.715276
  Si      3.243700     -2.133382      0.233967
  C       4.910487     -1.269232      0.456363
  C       2.497277     -2.622008      1.897855
  C       3.399836     -3.655763     -0.891246
  H       4.752390     -0.359499      1.070840
  H       5.356914     -0.975393     -0.515947
  H       5.635712     -1.925384      0.980934
  H       1.491483     -3.074098      1.778992
  H       2.405422     -1.717986      2.532532
  H       3.149061     -3.357874      2.413934
  H       2.419754     -4.159731     -1.020871
  H       4.099740     -4.393253     -0.444513
  H       3.785178     -3.392847     -1.897663
  H       2.312793     -1.151553     -0.469137
51
Coordinates from ORCA-job my_molecule E -1977.845013682201
  Pt     -1.349254     -0.118606      0.661275
  O       0.126707      0.214269      1.862626
  O      -3.300088      0.193555     -0.040990
  P       1.398307      1.242768      1.628331
  P      -3.236220     -0.999504     -1.072090
  O      -4.348678     -2.148124     -0.762799
  O      -1.757797     -1.515777     -0.798247
  O       1.461943      1.557575      0.010821
  O       2.689303      0.717261      2.204211
  C       0.798128      2.842307      2.354757
  C      -3.566343     -0.594034     -2.829013
  C      -3.356000     -1.886034     -3.647825
  C      -2.551090      0.491172     -3.243381
  C      -5.012663     -0.072458     -2.950301
  C      -0.491629      3.329293      1.674576
  C       0.566181      2.562946      3.855141
  C       1.932376      3.870913      2.169350
  H      -4.282319     -2.443093      0.170040
  H       1.934076      0.812296     -0.425847
  H      -2.329292     -2.283816     -3.519090
  H      -3.501106     -1.659877     -4.724401
  H      -4.076062     -2.675747     -3.358420
  H      -1.507196      0.137655     -3.132854
  H      -2.669025      1.412822     -2.640342
  H      -2.717829      0.750515     -4.309177
  H      -5.752958     -0.839916     -2.651844
  H      -5.207177      0.205251     -4.006971
  H      -5.173340      0.830352     -2.327152
  H      -1.319752      2.598011      1.779963
  H      -0.337200      3.517469      0.593988
  H      -0.825311      4.276778      2.148411
  H      -0.249280      1.829204      4.011339
  H       0.288930      3.506553      4.369878
  H       1.483262      2.159927      4.328895
  H       2.116201      4.082098      1.097221
  H       2.877392      3.506993      2.618241
  H       1.650622      4.822974      2.666807
  Si      3.252212     -2.138717      0.240931
  C       4.913440     -1.265106      0.467933
  C       2.503321     -2.630122      1.902819
  C       3.420556     -3.660260     -0.883513
  H       4.748508     -0.354757      1.079592
  H       5.362217     -0.971234     -0.503256
  H       5.639961     -1.916322      0.996884
  H       1.500029     -3.087077      1.781349
  H       2.405409     -1.725841      2.536182
  H       3.157099     -3.362424      2.421401
  H       2.443083     -4.167622     -1.019167
  H       4.120528     -4.395350     -0.433004
  H       3.810808     -3.395439     -1.887553
  H       2.317010     -1.163700     -0.465726
51
Coordinates from ORCA-job my_molecule E -1977.844911790432
  Pt     -1.385513     -0.102002      0.702418
  O       0.122991      0.201186      1.875399
  O      -3.349924      0.189508     -0.026357
  P       1.390717      1.229389      1.630670
  P      -3.249998     -0.998070     -1.059312
  O      -4.351918     -2.164536     -0.777539
  O      -1.768506     -1.498293     -0.763646
  O       1.448676      1.534196      0.010793
  O       2.684595      0.712173      2.207426
  C       0.795524      2.837377      2.344618
  C      -3.557917     -0.586257     -2.819190
  C      -3.326374     -1.869159     -3.646185
  C      -2.546953      0.511097     -3.211303
  C      -5.007138     -0.075917     -2.955195
  C      -0.496298      3.318817      1.665702
  C       0.571297      2.576569      3.849379
  C       1.930701      3.861937      2.141587
  H      -4.298151     -2.464949      0.154496
  H       1.915249      0.785050     -0.424946
  H      -2.298151     -2.259848     -3.507980
  H      -3.459422     -1.634478     -4.722550
  H      -4.043698     -2.667228     -3.373420
  H      -1.501621      0.165430     -3.090133
  H      -2.680674      1.426398     -2.601891
  H      -2.702260      0.778357     -4.276843
  H      -5.744601     -0.852207     -2.672877
  H      -5.190506      0.208843     -4.012013
  H      -5.183568      0.820222     -2.326735
  H      -1.325231      2.588255      1.780427
  H      -0.347172      3.497979      0.582945
  H      -0.830385      4.269003      2.133292
  H      -0.245206      1.847006      4.019221
  H       0.299505      3.526990      4.354508
  H       1.490165      2.177034      4.322586
  H       2.109906      4.060375      1.066252
  H       2.876982      3.500114      2.589550
  H       1.654457      4.820276      2.629981
  Si      3.251258     -2.142871      0.240243
  C       4.909060     -1.262232      0.465015
  C       2.506488     -2.638367      1.902650
  C       3.424337     -3.661944     -0.886860
  H       4.741238     -0.352569      1.076946
  H       5.355312     -0.966384     -0.506742
  H       5.638978     -1.910448      0.992981
  H       1.504477     -3.098302      1.782002
  H       2.406534     -1.734794      2.536844
  H       3.163439     -3.368998      2.419537
  H       2.448867     -4.173297     -1.021964
  H       4.128189     -4.394712     -0.438652
  H       3.811974     -3.393745     -1.891044
  H       2.310267     -1.171977     -0.464093
51
Coordinates from ORCA-job my_molecule E -1977.845424357477
  Pt     -1.423391     -0.164154      0.762046
  O       0.096136      0.177583      1.899723
  O      -3.377576      0.087806      0.059856
  P       1.353697      1.208211      1.617576
  P      -3.248597     -1.053409     -1.020724
  O      -4.352913     -2.234287     -0.821097
  O      -1.772991     -1.559281     -0.705978
  O       1.390961      1.477809     -0.009229
  O       2.655864      0.707979      2.190998
  C       0.769039      2.835084      2.297934
  C      -3.512656     -0.561474     -2.767522
  C      -3.265040     -1.803236     -3.650480
  C      -2.490456      0.550211     -3.082538
  C      -4.957084     -0.040126     -2.912732
  C      -0.520999      3.310442      1.612005
  C       0.548569      2.613826      3.809411
  C       1.911840      3.845754      2.066659
  H      -4.323851     -2.576492      0.097541
  H       1.857179      0.724186     -0.437134
  H      -2.241683     -2.204628     -3.507070
  H      -3.370982     -1.514989     -4.716816
  H      -3.991480     -2.610611     -3.435346
  H      -1.449009      0.195148     -2.955507
  H      -2.635290      1.434493     -2.431278
  H      -2.621625      0.870727     -4.136558
  H      -5.702824     -0.827435     -2.688443
  H      -5.114331      0.298750     -3.957745
  H      -5.146596      0.823219     -2.243589
  H      -1.357575      2.592819      1.752248
  H      -0.375699      3.456273      0.523779
  H      -0.841923      4.277691      2.053138
  H      -0.275956      1.898768      4.000820
  H       0.290380      3.579635      4.292086
  H       1.464888      2.215724      4.288780
  H       2.090252      4.015563      0.986291
  H       2.856340      3.487563      2.521231
  H       1.644554      4.818220      2.531565
  Si      3.235848     -2.153676      0.235443
  C       4.884218     -1.253014      0.449780
  C       2.504520     -2.652700      1.902415
  C       3.420510     -3.671518     -0.891338
  H       4.709146     -0.342027      1.058115
  H       5.323708     -0.957104     -0.525035
  H       5.623049     -1.890792      0.978074
  H       1.506242     -3.122169      1.787832
  H       2.399410     -1.748061      2.534424
  H       3.170938     -3.375723      2.417771
  H       2.449337     -4.191335     -1.025110
  H       4.131522     -4.398038     -0.444334
  H       3.804150     -3.399715     -1.896108
  H       2.278229     -1.197493     -0.465831
51
Coordinates from ORCA-job my_molecule E -1977.845754563863
  Pt     -1.433657     -0.197481      0.771540
  O       0.085340      0.169385      1.904168
  O      -3.415942      0.000867      0.109657
  P       1.344208      1.195674      1.610633
  P      -3.259516     -1.097093     -1.011648
  O      -4.346011     -2.301517     -0.866081
  O      -1.778215     -1.589788     -0.703206
  O       1.386863      1.441320     -0.019875
  O       2.642761      0.699131      2.196168
  C       0.765678      2.836403      2.261708
  C      -3.519519     -0.542032     -2.740269
  C      -3.251537     -1.743988     -3.670754
  C      -2.509779      0.594119     -3.004571
  C      -4.969478     -0.032862     -2.873381
  C      -0.511764      3.313345      1.553520
  C       0.525719      2.641012      3.773649
  C       1.921306      3.832221      2.028164
  H      -4.319940     -2.678019      0.039060
  H       1.856734      0.684130     -0.437098
  H      -2.224412     -2.138942     -3.536773
  H      -3.353877     -1.413504     -4.725089
  H      -3.969888     -2.567845     -3.494181
  H      -1.464578      0.247246     -2.886385
  H      -2.668702      1.449313     -2.318649
  H      -2.640040      0.955591     -4.045376
  H      -5.706694     -0.837607     -2.685726
  H      -5.125233      0.346137     -3.904740
  H      -5.173083      0.800216     -2.170903
  H      -1.357330      2.607687      1.697467
  H      -0.352776      3.437730      0.464517
  H      -0.825480      4.292508      1.973439
  H      -0.309633      1.939090      3.966672
  H       0.273796      3.617220      4.238408
  H       1.431788      2.240036      4.269876
  H       2.114088      3.982918      0.947408
  H       2.856889      3.472184      2.499330
  H       1.658047      4.814512      2.474327
  Si      3.249746     -2.164301      0.247792
  C       4.890293     -1.254288      0.481264
  C       2.503459     -2.669286      1.905921
  C       3.454605     -3.677255     -0.881912
  H       4.704041     -0.343992      1.087694
  H       5.339748     -0.956309     -0.488365
  H       5.626013     -1.888554      1.018094
  H       1.508012     -3.141908      1.780279
  H       2.389006     -1.765626      2.538017
  H       3.167020     -3.390818      2.426958
  H       2.486985     -4.199430     -1.031219
  H       4.161798     -4.403398     -0.428326
  H       3.850995     -3.399888     -1.880208
  H       2.292141     -1.214263     -0.460993
51
Coordinates from ORCA-job my_molecule E -1977.845881805066
  Pt     -1.470939     -0.201087      0.810409
  O       0.067751      0.160370      1.919984
  O      -3.450768     -0.029490      0.139559
  P       1.326276      1.180959      1.611111
  P      -3.266033     -1.110932     -0.992329
  O      -4.340029     -2.330070     -0.880544
  O      -1.783322     -1.592554     -0.668749
  O       1.364185      1.406651     -0.022541
  O       2.624522      0.688343      2.201524
  C       0.759114      2.835011      2.239129
  C      -3.508787     -0.532204     -2.716240
  C      -3.225435     -1.715825     -3.664999
  C      -2.502927      0.613869     -2.951250
  C      -4.960166     -0.028218     -2.855218
  C      -0.507103      3.316286      1.514418
  C       0.504753      2.662365      3.751322
  C       1.927696      3.815209      2.002585
  H      -4.324191     -2.719298      0.019402
  H       1.831351      0.644864     -0.433939
  H      -2.197822     -2.108389     -3.527712
  H      -3.318388     -1.366753     -4.714267
  H      -3.941630     -2.546138     -3.511245
  H      -1.456959      0.270837     -2.828925
  H      -2.672974      1.456187     -2.252155
  H      -2.625390      0.992609     -3.986849
  H      -5.694876     -0.840202     -2.690304
  H      -5.107464      0.368925     -3.880983
  H      -5.175286      0.790497     -2.139446
  H      -1.361309      2.620680      1.659277
  H      -0.337958      3.425788      0.425407
  H      -0.815720      4.303129      1.920065
  H      -0.341494      1.974326      3.946956
  H       0.262233      3.647727      4.201573
  H       1.401571      2.256298      4.260072
  H       2.131626      3.949363      0.921709
  H       2.854935      3.450466      2.486383
  H       1.671923      4.806150      2.433681
  Si      3.251337     -2.170489      0.244335
  C       4.882364     -1.247094      0.490995
  C       2.500436     -2.688715      1.895732
  C       3.474406     -3.673565     -0.894946
  H       4.685780     -0.340225      1.099777
  H       5.335577     -0.942377     -0.474782
  H       5.619632     -1.877705      1.030053
  H       1.508127     -3.165856      1.762761
  H       2.378438     -1.788373      2.531437
  H       3.165329     -3.409241      2.416415
  H       2.511088     -4.199860     -1.056944
  H       4.181822     -4.399376     -0.441210
  H       3.877747     -3.385722     -1.887488
  H       2.286953     -1.227150     -0.463008
51
Coordinates from ORCA-job my_molecule E -1977.846067098890
  Pt     -1.493916     -0.200982      0.829480
  O       0.048597      0.159847      1.932069
  O      -3.480037     -0.060084      0.160272
  P       1.313485      1.169815      1.616984
  P      -3.271979     -1.126366     -0.981369
  O      -4.328784     -2.361886     -0.892679
  O      -1.784764     -1.592500     -0.652768
  O       1.357062      1.377263     -0.018983
  O       2.605467      0.672927      2.217855
  C       0.761438      2.837390      2.222595
  C      -3.511113     -0.528792     -2.699655
  C      -3.216808     -1.697227     -3.663472
  C      -2.512714      0.627418     -2.916343
  C      -4.965566     -0.032844     -2.836695
  C      -0.489177      3.328388      1.477536
  C       0.486843      2.685952      3.733455
  C       1.946737      3.798262      1.989118
  H      -4.315406     -2.762008      0.002430
  H       1.823223      0.610444     -0.423173
  H      -2.186441     -2.083688     -3.529532
  H      -3.310504     -1.334938     -4.708208
  H      -3.926816     -2.535036     -3.522341
  H      -1.464633      0.290592     -2.794945
  H      -2.690763      1.459503     -2.207017
  H      -2.634650      1.018518     -3.947390
  H      -5.695133     -0.852750     -2.688865
  H      -5.111298      0.380428     -3.856273
  H      -5.189445      0.772029     -2.108071
  H      -1.353996      2.645043      1.617550
  H      -0.304745      3.425466      0.389872
  H      -0.790113      4.322914      1.870334
  H      -0.373455      2.015012      3.927012
  H       0.256273      3.680300      4.170079
  H       1.370631      2.270680      4.257436
  H       2.165625      3.916646      0.909307
  H       2.862670      3.425816      2.488211
  H       1.699902      4.797759      2.405399
  Si      3.255969     -2.171575      0.243365
  C       4.878354     -1.241477      0.518986
  C       2.487780     -2.709875      1.879986
  C       3.500593     -3.658925     -0.911834
  H       4.669960     -0.341131      1.133260
  H       5.342690     -0.926142     -0.438059
  H       5.611512     -1.873678      1.061864
  H       1.498040     -3.187417      1.730506
  H       2.356817     -1.816166      2.523122
  H       3.148095     -3.434308      2.401010
  H       2.541355     -4.185388     -1.095830
  H       4.203185     -4.389035     -0.457542
  H       3.918012     -3.356116     -1.894068
  H       2.291937     -1.228077     -0.463983
51
Coordinates from ORCA-job my_molecule E -1977.846217474952
  Pt     -1.526020     -0.199450      0.856434
  O       0.028239      0.156878      1.948554
  O      -3.511672     -0.086253      0.178347
  P       1.298793      1.155676      1.623657
  P      -3.278013     -1.136186     -0.972491
  O      -4.314118     -2.390306     -0.908094
  O      -1.785699     -1.583998     -0.637668
  O       1.344987      1.342005     -0.014711
  O       2.585368      0.655988      2.234516
  C       0.762657      2.837259      2.204782
  C      -3.513820     -0.520072     -2.684962
  C      -3.202320     -1.671127     -3.663904
  C      -2.528098      0.650539     -2.881224
  C      -4.973421     -0.038908     -2.821566
  C      -0.477709      3.332855      1.445678
  C       0.477879      2.711308      3.715987
  C       1.961026      3.780276      1.964446
  H      -4.302701     -2.801486     -0.018043
  H       1.809148      0.569370     -0.410078
  H      -2.167622     -2.046707     -3.532382
  H      -3.297557     -1.295664     -4.703854
  H      -3.902269     -2.519491     -3.536495
  H      -1.476657      0.324749     -2.758795
  H      -2.719244      1.471247     -2.162074
  H      -2.649586      1.053589     -3.907716
  H      -5.694018     -0.869625     -2.690825
  H      -5.118912      0.388867     -3.835169
  H      -5.210225      0.751435     -2.081242
  H      -1.350654      2.660016      1.587266
  H      -0.284903      3.415316      0.358323
  H      -0.771080      4.334822      1.825185
  H      -0.393314      2.056086      3.914619
  H       0.259668      3.715027      4.137284
  H       1.352681      2.291059      4.251035
  H       2.188014      3.879418      0.884362
  H       2.869137      3.404005      2.474725
  H       1.723762      4.788934      2.363806
  Si      3.262738     -2.177332      0.245210
  C       4.874000     -1.236418      0.546692
  C       2.480158     -2.733569      1.868503
  C       3.531061     -3.649956     -0.923288
  H       4.652205     -0.342122      1.165519
  H       5.347622     -0.910753     -0.402297
  H       5.604949     -1.867911      1.093421
  H       1.493976     -3.213630      1.704421
  H       2.339132     -1.845216      2.517282
  H       3.137676     -3.459513      2.390876
  H       2.577509     -4.179837     -1.125963
  H       4.232442     -4.381238     -0.469071
  H       3.958863     -3.332473     -1.896395
  H       2.295938     -1.237480     -0.462625
51
Coordinates from ORCA-job my_molecule E -1977.846370199417
  Pt     -1.555790     -0.193655      0.882101
  O       0.002625      0.158077      1.965834
  O      -3.543932     -0.109101      0.195041
  P       1.280819      1.142858      1.631432
  P      -3.281996     -1.144071     -0.962477
  O      -4.295714     -2.416993     -0.921400
  O      -1.784809     -1.571886     -0.619408
  O       1.329147      1.308386     -0.008980
  O       2.560991      0.636972      2.251414
  C       0.765133      2.838743      2.189194
  C      -3.513676     -0.513193     -2.670308
  C      -3.179416     -1.647638     -3.660876
  C      -2.544324      0.674115     -2.846400
  C      -4.979526     -0.052011     -2.810695
  C      -0.466164      3.340611      1.419398
  C       0.474214      2.738370      3.701007
  C       1.976985      3.762105      1.939428
  H      -4.286316     -2.838036     -0.035988
  H       1.790776      0.529456     -0.395365
  H      -2.139683     -2.008745     -3.528438
  H      -3.275293     -1.261664     -4.696921
  H      -3.866765     -2.508095     -3.546832
  H      -1.488968      0.363171     -2.719095
  H      -2.753162      1.484354     -2.120320
  H      -2.664073      1.086067     -3.869562
  H      -5.688377     -0.895220     -2.696541
  H      -5.124452      0.387298     -3.819430
  H      -5.233206      0.724425     -2.061343
  H      -1.348280      2.680875      1.566451
  H      -0.268520      3.406005      0.331794
  H      -0.747601      4.351219      1.784793
  H      -0.407973      2.100150      3.906508
  H       0.270900      3.751201      4.107768
  H       1.340703      2.312092      4.244787
  H       2.209418      3.841321      0.858859
  H       2.877911      3.381378      2.458974
  H       1.751637      4.779958      2.321998
  Si      3.265052     -2.183316      0.244219
  C       4.864546     -1.232098      0.573140
  C       2.467505     -2.758517      1.853120
  C       3.557636     -3.639800     -0.938329
  H       4.628992     -0.344969      1.197415
  H       5.347592     -0.894764     -0.366977
  H       5.593080     -1.863671      1.123083
  H       1.484960     -3.240496      1.673697
  H       2.316405     -1.876112      2.507946
  H       3.121664     -3.486577      2.376708
  H       2.610225     -4.172961     -1.160177
  H       4.258107     -4.372460     -0.484979
  H       3.995474     -3.306523     -1.901654
  H       2.295515     -1.246636     -0.463617
51
Coordinates from ORCA-job my_molecule E -1977.846515369168
  Pt     -1.591920     -0.192656      0.910314
  O      -0.023088      0.157290      1.986342
  O      -3.577068     -0.134696      0.211017
  P       1.261736      1.128451      1.639437
  P      -3.290020     -1.152106     -0.955138
  O      -4.284018     -2.440804     -0.940411
  O      -1.789805     -1.564029     -0.602701
  O       1.309485      1.270858     -0.002980
  O       2.536670      0.618043      2.267294
  C       0.766260      2.838162      2.172635
  C      -3.514347     -0.502542     -2.657091
  C      -3.155829     -1.618068     -3.660394
  C      -2.560798      0.700824     -2.808452
  C      -4.985582     -0.060425     -2.803865
  C      -0.461996      3.341575      1.398791
  C       0.479590      2.766144      3.686755
  C       1.987591      3.743630      1.903642
  H      -4.277760     -2.873531     -0.060692
  H       1.769176      0.485555     -0.379249
  H      -2.111704     -1.965238     -3.525300
  H      -3.250261     -1.219596     -4.691822
  H      -3.830820     -2.490240     -3.562865
  H      -1.502292      0.404013     -2.673669
  H      -2.788986      1.499070     -2.074955
  H      -2.675966      1.123496     -3.827780
  H      -5.683018     -0.915464     -2.708811
  H      -5.127943      0.391728     -3.807279
  H      -5.257118      0.700918     -2.045364
  H      -1.350681      2.693750      1.558516
  H      -0.266901      3.387634      0.309747
  H      -0.731003      4.360847      1.749273
  H      -0.410061      2.143014      3.906186
  H       0.290736      3.787971      4.077724
  H       1.342524      2.337979      4.234711
  H       2.217933      3.800780      0.821233
  H       2.885578      3.362018      2.427555
  H       1.774462      4.770638      2.268296
  Si      3.270382     -2.191453      0.245902
  C       4.856191     -1.226388      0.598196
  C       2.461237     -2.783160      1.842581
  C       3.588519     -3.633713     -0.947122
  H       4.605785     -0.346149      1.226674
  H       5.346387     -0.877828     -0.334075
  H       5.584365     -1.855696      1.151278
  H       1.483148     -3.269212      1.650296
  H       2.299218     -1.905497      2.501400
  H       3.113941     -3.510844      2.368443
  H       2.648438     -4.172981     -1.184735
  H       4.291044     -4.364732     -0.494363
  H       4.033180     -3.285873     -1.902142
  H       2.295411     -1.261467     -0.462983
51
Coordinates from ORCA-job my_molecule E -1977.846656072190
  Pt     -1.624871     -0.189761      0.940442
  O      -0.053993      0.160202      2.008212
  O      -3.610840     -0.157707      0.228420
  P       1.237954      1.115576      1.646837
  P      -3.294108     -1.158897     -0.943472
  O      -4.268562     -2.462225     -0.956423
  O      -1.792278     -1.555396     -0.577097
  O       1.281722      1.235486      0.002679
  O       2.508392      0.598795      2.279351
  C       0.766454      2.838864      2.157190
  C      -3.506184     -0.493288     -2.640901
  C      -3.113312     -1.588921     -3.653080
  C      -2.573564      0.729565     -2.763922
  C      -4.983475     -0.076900     -2.802720
  C      -0.460956      3.345143      1.383720
  C       0.489528      2.794577      3.674031
  C       1.996764      3.725091      1.865477
  H      -4.267627     -2.905773     -0.082097
  H       1.738637      0.443835     -0.364178
  H      -2.064547     -1.917828     -3.508558
  H      -3.202064     -1.179274     -4.680627
  H      -3.772640     -2.474970     -3.575330
  H      -1.511748      0.451692     -2.615355
  H      -2.828637      1.515089     -2.025604
  H      -2.680776      1.161393     -3.780295
  H      -5.665848     -0.946120     -2.729068
  H      -5.120309      0.385998     -3.801995
  H      -5.279947      0.668867     -2.038133
  H      -1.356757      2.711841      1.561162
  H      -0.273353      3.369403      0.292656
  H      -0.713482      4.373905      1.718203
  H      -0.407134      2.187581      3.909888
  H       0.317500      3.824909      4.050271
  H       1.350361      2.363339      4.222866
  H       2.221048      3.760503      0.780880
  H       2.893306      3.341704      2.390557
  H       1.798154      4.760820      2.213298
  Si      3.266785     -2.199972      0.242678
  C       4.839634     -1.221620      0.614276
  C       2.449703     -2.806974      1.829210
  C       3.607330     -3.628802     -0.959970
  H       4.575875     -0.348454      1.247343
  H       5.334579     -0.861904     -0.311211
  H       5.568678     -1.848730      1.168785
  H       1.475631     -3.296900      1.626669
  H       2.278412     -1.933703      2.491689
  H       3.101906     -3.534095      2.356433
  H       2.674076     -4.173894     -1.210774
  H       4.312698     -4.357983     -0.508728
  H       4.056588     -3.267348     -1.907761
  H       2.285296     -1.276737     -0.465923
51
Coordinates from ORCA-job my_molecule E -1977.846800985038
  Pt     -1.659867     -0.195551      0.969146
  O      -0.081456      0.160310      2.030635
  O      -3.642304     -0.188031      0.247111
  P       1.216026      1.101453      1.652845
  P      -3.302786     -1.169124     -0.934707
  O      -4.263151     -2.481973     -0.978796
  O      -1.801449     -1.557574     -0.555896
  O       1.254622      1.196586      0.007090
  O       2.483345      0.581363      2.289280
  C       0.765423      2.837127      2.138820
  C      -3.500236     -0.480060     -2.624622
  C      -3.070823     -1.550816     -3.648340
  C      -2.589104      0.761986     -2.712267
  C      -4.982385     -0.088512     -2.803645
  C      -0.464424      3.342446      1.368315
  C       0.502763      2.821545      3.658615
  C       2.001424      3.706082      1.820191
  H      -4.268172     -2.939377     -0.111721
  H       1.710263      0.398846     -0.349399
  H      -2.018306     -1.862138     -3.492699
  H      -3.151558     -1.125612     -4.670199
  H      -3.714102     -2.450479     -3.595931
  H      -1.524890      0.502360     -2.548361
  H      -2.872779      1.530870     -1.966974
  H      -2.686380      1.207439     -3.723772
  H      -5.649442     -0.971318     -2.755708
  H      -5.111751      0.388620     -3.797204
  H      -5.305074      0.638639     -2.031786
  H      -1.364919      2.722436      1.566588
  H      -0.287562      3.344085      0.275152
  H      -0.701730      4.380204      1.685780
  H      -0.397638      2.227924      3.913828
  H       0.344496      3.859807      4.018821
  H       1.364604      2.391326      4.206655
  H       2.215840      3.719677      0.733118
  H       2.899084      3.323352      2.343846
  H       1.816126      4.749821      2.150994
  Si      3.267019     -2.209266      0.243240
  C       4.826825     -1.215980      0.628397
  C       2.445468     -2.827985      1.822779
  C       3.628601     -3.628047     -0.964849
  H       4.550097     -0.348961      1.264294
  H       5.324047     -0.846753     -0.292089
  H       5.558431     -1.838895      1.184322
  H       1.475737     -3.323496      1.613114
  H       2.264866     -1.957662      2.486712
  H       3.098927     -3.552246      2.352331
  H       2.702342     -4.180801     -1.224599
  H       4.338814     -4.352935     -0.514351
  H       4.079462     -3.255727     -1.907663
  H       2.277638     -1.294986     -0.466442
51
Coordinates from ORCA-job my_molecule E -1977.846932582597
  Pt     -1.689236     -0.200574      0.998783
  O      -0.110793      0.163335      2.052760
  O      -3.671978     -0.215276      0.267363
  P       1.191938      1.089291      1.657467
  P      -3.306776     -1.178432     -0.921256
  O      -4.253710     -2.499391     -0.996141
  O      -1.806989     -1.559738     -0.527239
  O       1.222754      1.160852      0.010465
  O       2.457170      0.565213      2.294962
  C       0.763349      2.836402      2.121153
  C      -3.486234     -0.468877     -2.604754
  C      -3.012960     -1.514194     -3.635206
  C      -2.601074      0.793960     -2.655591
  C      -4.972698     -0.106640     -2.808428
  C      -0.467948      3.343094      1.353656
  C       0.513886      2.846654      3.643031
  C       2.005480      3.687451      1.778643
  H      -4.265924     -2.969461     -0.135945
  H       1.676478      0.357300     -0.336717
  H      -1.957300     -1.805104     -3.462499
  H      -3.082204     -1.074883     -4.651924
  H      -3.637357     -2.428332     -3.610203
  H      -1.534909      0.555771     -2.472559
  H      -2.917777      1.545170     -1.905663
  H      -2.687149      1.251992     -3.662495
  H      -5.621324     -1.004109     -2.787685
  H      -5.092053      0.383026     -3.797126
  H      -5.326881      0.601481     -2.032672
  H      -1.373841      2.738175      1.572296
  H      -0.301986      3.322424      0.258936
  H      -0.688453      4.389552      1.654059
  H      -0.390008      2.265941      3.915238
  H       0.368705      3.891791      3.988702
  H       1.376314      2.416540      4.190181
  H       2.210293      3.682123      0.689655
  H       2.903724      3.303227      2.300226
  H       1.834269      4.738062      2.095040
  Si      3.258772     -2.217558      0.238913
  C       4.807887     -1.211413      0.632341
  C       2.436627     -2.846266      1.814167
  C       3.635829     -3.627826     -0.974136
  H       4.520983     -0.350150      1.271475
  H       5.304765     -0.833558     -0.284799
  H       5.543078     -1.830641      1.187696
  H       1.470349     -3.346744      1.600405
  H       2.249105     -1.978467      2.479505
  H       3.092280     -3.567825      2.344663
  H       2.715141     -4.187180     -1.239469
  H       4.351161     -4.348829     -0.525567
  H       4.085940     -3.246397     -1.913670
  H       2.261284     -1.310966     -0.470035
51
Coordinates from ORCA-job my_molecule E -1977.847053747970
  Pt     -1.720632     -0.201549      1.020844
  O      -0.138858      0.168843      2.073708
  O      -3.699204     -0.236412      0.281827
  P       1.171120      1.078609      1.665222
  P      -3.316705     -1.187233     -0.910856
  O      -4.255388     -2.512360     -1.008371
  O      -1.819380     -1.565601     -0.503427
  O       1.197881      1.128871      0.017450
  O       2.432446      0.548607      2.305340
  C       0.764510      2.835967      2.108840
  C      -3.478627     -0.463181     -2.590011
  C      -2.972963     -1.491109     -3.622393
  C      -2.610364      0.812278     -2.613278
  C      -4.966046     -0.118893     -2.816253
  C      -0.466109      3.346711      1.342628
  C       0.524905      2.868766      3.631843
  C       2.013823      3.668529      1.747404
  H      -4.273573     -2.991729     -0.153517
  H       1.650609      0.319918     -0.320723
  H      -1.916524     -1.768993     -3.434027
  H      -3.030770     -1.042206     -4.635630
  H      -3.584754     -2.414175     -3.618164
  H      -1.543936      0.587539     -2.414902
  H      -2.950267      1.550769     -1.860922
  H      -2.686543      1.279641     -3.616686
  H      -5.602801     -1.025005     -2.816672
  H      -5.074276      0.379914     -3.801650
  H      -5.343713      0.576181     -2.039725
  H      -1.377730      2.757332      1.577646
  H      -0.308636      3.306831      0.247116
  H      -0.669909      4.400816      1.627984
  H      -0.381735      2.298813      3.917446
  H       0.389763      3.919554      3.964285
  H       1.387478      2.439472      4.179375
  H       2.210677      3.647656      0.657135
  H       2.911393      3.280378      2.267259
  H       1.857106      4.724803      2.052253
  Si      3.254762     -2.220321      0.234232
  C       4.793320     -1.203648      0.640356
  C       2.428690     -2.861865      1.802376
  C       3.647980     -3.620052     -0.985594
  H       4.495673     -0.349873      1.284320
  H       5.291021     -0.814996     -0.271771
  H       5.531054     -1.820893      1.194569
  H       1.466094     -3.366400      1.581625
  H       2.233245     -1.998106      2.470605
  H       3.085195     -3.582121      2.333541
  H       2.733098     -4.185445     -1.258062
  H       4.368011     -4.337829     -0.539443
  H       4.098002     -3.228186     -1.920876
  H       2.251586     -1.318616     -0.474277
51
Coordinates from ORCA-job my_molecule E -1977.847147360240
  Pt     -1.750429     -0.188999      1.044281
  O      -0.169077      0.178273      2.095722
  O      -3.725087     -0.238885      0.288979
  P       1.149584      1.069683      1.676756
  P      -3.321511     -1.187038     -0.898384
  O      -4.248775     -2.519180     -1.007427
  O      -1.825647     -1.556511     -0.475009
  O       1.172587      1.102929      0.028559
  O       2.406361      0.531159      2.318252
  C       0.766965      2.836205      2.105014
  C      -3.467039     -0.464278     -2.579651
  C      -2.935993     -1.487182     -3.604212
  C      -2.610901      0.819629     -2.590863
  C      -4.953991     -0.134017     -2.828266
  C      -0.462192      3.354446      1.341445
  C       0.537046      2.887075      3.628908
  C       2.023919      3.650091      1.727772
  H      -4.271884     -3.000512     -0.153813
  H       1.623063      0.288707     -0.302411
  H      -1.879741     -1.754289     -3.400138
  H      -2.983568     -1.039009     -4.618319
  H      -3.538457     -2.416419     -3.609067
  H      -1.544969      0.605770     -2.377954
  H      -2.968485      1.554427     -1.843112
  H      -2.678205      1.286304     -3.595212
  H      -5.582233     -1.045961     -2.838802
  H      -5.051631      0.364399     -3.814963
  H      -5.350204      0.557278     -2.057567
  H      -1.380074      2.781190      1.591112
  H      -0.313673      3.298504      0.245343
  H      -0.648630      4.414985      1.614613
  H      -0.371929      2.326658      3.925761
  H       0.411334      3.942272      3.951038
  H       1.399783      2.457211      4.175664
  H       2.212585      3.617792      0.636337
  H       2.920321      3.254982      2.244428
  H       1.882963      4.710749      2.025084
  Si      3.244456     -2.218083      0.223872
  C       4.774550     -1.194577      0.643210
  C       2.414590     -2.874581      1.784024
  C       3.649964     -3.605665     -1.005518
  H       4.467969     -0.349772      1.294555
  H       5.272055     -0.793309     -0.263495
  H       5.514840     -1.812150      1.193631
  H       1.454928     -3.381376      1.555756
  H       2.212647     -2.016227      2.457187
  H       3.071392     -3.595577      2.313778
  H       2.739852     -4.175658     -1.284271
  H       4.374696     -4.321539     -0.564017
  H       4.098588     -3.202614     -1.936722
  H       2.237288     -1.317312     -0.481885
51
Coordinates from ORCA-job my_molecule E -1977.847237035807
  Pt     -1.792943     -0.172249      1.069845
  O      -0.205449      0.186748      2.123583
  O      -3.758776     -0.247414      0.295596
  P       1.125459      1.053317      1.693422
  P      -3.331027     -1.185492     -0.890230
  O      -4.238182     -2.530071     -1.014000
  O      -1.833919     -1.538420     -0.453827
  O       1.148720      1.060188      0.045054
  O       2.374410      0.505871      2.341798
  C       0.771651      2.831728      2.097089
  C      -3.465090     -0.459520     -2.571095
  C      -2.907542     -1.472951     -3.591130
  C      -2.625162      0.835225     -2.568386
  C      -4.952331     -0.146853     -2.838640
  C      -0.456161      3.356418      1.335720
  C       0.554490      2.909132      3.621714
  C       2.036816      3.622062      1.697890
  H      -4.262888     -3.015826     -0.163035
  H       1.598512      0.238612     -0.272730
  H      -1.850472     -1.726095     -3.374175
  H      -2.948679     -1.023325     -4.604900
  H      -3.497328     -2.410207     -3.605605
  H      -1.559507      0.635294     -2.340777
  H      -3.002821      1.564291     -1.824900
  H      -2.684525      1.302102     -3.573133
  H      -5.569474     -1.066165     -2.859402
  H      -5.042585      0.352653     -3.825480
  H      -5.367286      0.538160     -2.072157
  H      -1.380583      2.803044      1.604380
  H      -0.319019      3.279207      0.239364
  H      -0.622422      4.424687      1.591712
  H      -0.356035      2.359818      3.934172
  H       0.438597      3.970221      3.927819
  H       1.418338      2.481485      4.168363
  H       2.214531      3.573588      0.605225
  H       2.932219      3.220121      2.211068
  H       1.914828      4.688309      1.983475
  Si      3.243907     -2.215979      0.218976
  C       4.760483     -1.181509      0.658106
  C       2.404707     -2.890472      1.766789
  C       3.669529     -3.589513     -1.018981
  H       4.439109     -0.349205      1.318154
  H       5.258171     -0.762917     -0.240540
  H       5.504342     -1.797822      1.205082
  H       1.450466     -3.401804      1.526174
  H       2.190688     -2.038806      2.444631
  H       3.061141     -3.610834      2.297814
  H       2.767315     -4.168148     -1.305446
  H       4.401485     -4.300018     -0.580823
  H       4.116340     -3.173360     -1.945287
  H       2.233954     -1.317306     -0.488336
51
Coordinates from ORCA-job my_molecule E -1977.847230685037
  Pt     -1.833477     -0.144967      1.104239
  O      -0.240361      0.184218      2.151469
  O      -3.794423     -0.252734      0.302519
  P       1.099897      1.026878      1.709456
  P      -3.324196     -1.168594     -0.883128
  O      -4.185587     -2.541539     -1.024808
  O      -1.818212     -1.479512     -0.438769
  O       1.124411      1.000355      0.061714
  O       2.342523      0.478087      2.367774
  C       0.770568      2.817561      2.081400
  C      -3.462764     -0.438652     -2.561834
  C      -2.866228     -1.430891     -3.580891
  C      -2.660169      0.879475     -2.545152
  C      -4.955443     -0.167296     -2.842976
  C      -0.460814      3.341059      1.325553
  C       0.573027      2.927088      3.606810
  C       2.038358      3.587737      1.652217
  H      -4.204645     -3.032577     -0.176745
  H       1.574068      0.169870     -0.237869
  H      -1.803728     -1.652253     -3.356001
  H      -2.913062     -0.979040     -4.593457
  H      -3.427052     -2.385545     -3.603356
  H      -1.591712      0.709615     -2.306276
  H      -3.067055      1.594857     -1.803771
  H      -2.721888      1.347751     -3.549092
  H      -5.546447     -1.103463     -2.871409
  H      -5.050224      0.331725     -3.829660
  H      -5.396902      0.504137     -2.079279
  H      -1.387869      2.803074      1.616454
  H      -0.338734      3.242692      0.229055
  H      -0.613363      4.415565      1.563688
  H      -0.335183      2.386793      3.940952
  H       0.464271      3.994502      3.892999
  H       1.441956      2.506514      4.150715
  H       2.201519      3.518928      0.558387
  H       2.936130      3.185301      2.160992
  H       1.931686      4.659953      1.921283
  Si      3.245591     -2.221986      0.220523
  C       4.749037     -1.173263      0.668801
  C       2.399366     -2.904760      1.761419
  C       3.687189     -3.590918     -1.016534
  H       4.413331     -0.351993      1.335442
  H       5.241201     -0.739713     -0.225643
  H       5.500445     -1.783982      1.211591
  H       1.451206     -3.423539      1.512684
  H       2.172543     -2.056487      2.439289
  H       3.057217     -3.620400      2.297044
  H       2.792803     -4.182803     -1.300393
  H       4.430241     -4.290214     -0.579069
  H       4.126220     -3.169320     -1.944103
  H       2.234733     -1.327294     -0.494258
51
Coordinates from ORCA-job my_molecule E -1977.847220500805
  Pt     -1.805420     -0.158951      1.074867
  O      -0.207241      0.167383      2.125098
  O      -3.771314     -0.260003      0.297663
  P       1.124946      1.030647      1.696406
  P      -3.323354     -1.168631     -0.902414
  O      -4.189167     -2.539561     -1.037239
  O      -1.811284     -1.482113     -0.483836
  O       1.159078      1.016619      0.048743
  O       2.370847      0.493978      2.358718
  C       0.769719      2.814298      2.078244
  C      -3.490394     -0.427833     -2.573665
  C      -2.913990     -1.414206     -3.609796
  C      -2.685639      0.888956     -2.562420
  C      -4.987673     -0.152881     -2.825737
  C      -0.461339      3.328149      1.315206
  C       0.557978      2.910418      3.602703
  C       2.031701      3.602698      1.665379
  H      -4.195315     -3.034605     -0.191373
  H       1.611170      0.189523     -0.254926
  H      -1.847985     -1.638862     -3.405620
  H      -2.978118     -0.955506     -4.618302
  H      -3.476790     -2.367775     -3.628326
  H      -1.613216      0.715330     -2.345043
  H      -3.077215      1.599301     -1.808071
  H      -2.765373      1.365132     -3.561367
  H      -5.580109     -1.088258     -2.848901
  H      -5.100154      0.352142     -3.807488
  H      -5.413990      0.514199     -2.049748
  H      -1.383177      2.772783      1.589101
  H      -0.325827      3.244577      0.219057
  H      -0.632840      4.397409      1.564246
  H      -0.349114      2.361144      3.925096
  H       0.438985      3.974772      3.896005
  H       1.425296      2.492236      4.151061
  H       2.206336      3.541469      0.572870
  H       2.929564      3.209141      2.180858
  H       1.908459      4.672061      1.938557
  Si      3.270472     -2.230807      0.241192
  C       4.779004     -1.185130      0.679774
  C       2.423288     -2.897156      1.788773
  C       3.707086     -3.613439     -0.982523
  H       4.448153     -0.354197      1.336396
  H       5.274259     -0.764843     -0.219327
  H       5.526954     -1.793250      1.230211
  H       1.473959     -3.416229      1.545198
  H       2.198848     -2.042485      2.459524
  H       3.080304     -3.609665      2.329606
  H       2.809903     -4.202971     -1.262415
  H       4.445188     -4.312733     -0.536699
  H       4.150421     -3.203534     -1.913269
  H       2.264121     -1.338740     -0.482044
51
Coordinates from ORCA-job my_molecule E -1977.847165003862
  Pt     -1.863097     -0.142991      1.107175
  O      -0.261040      0.187972      2.166552
  O      -3.814411     -0.275707      0.306156
  P       1.088877      1.013275      1.720428
  P      -3.338269     -1.175312     -0.888775
  O      -4.187626     -2.554190     -1.044577
  O      -1.830270     -1.477864     -0.444949
  O       1.119167      0.966834      0.073405
  O       2.323399      0.458778      2.389339
  C       0.776080      2.811058      2.071978
  C      -3.478501     -0.430531     -2.560817
  C      -2.877538     -1.411295     -3.588449
  C      -2.680810      0.890453     -2.531824
  C      -4.971794     -0.162045     -2.840705
  C      -0.455607      3.335442      1.316914
  C       0.588286      2.940643      3.597220
  C       2.047111      3.566348      1.626618
  H      -4.205062     -3.052615     -0.200986
  H       1.574620      0.134170     -0.214772
  H      -1.813719     -1.628706     -3.366062
  H      -2.927663     -0.951559     -4.597301
  H      -3.433344     -2.368673     -3.618046
  H      -1.612412      0.723313     -2.290503
  H      -3.093111      1.598919     -1.786831
  H      -2.741094      1.365556     -3.532661
  H      -5.559335     -1.100037     -2.878902
  H      -5.067549      0.346435     -3.822441
  H      -5.416336      0.500068     -2.070701
  H      -1.385221      2.810993      1.622009
  H      -0.341968      3.220473      0.221052
  H      -0.595906      4.414986      1.540474
  H      -0.319143      2.406699      3.943527
  H       0.483790      4.011800      3.870578
  H       1.459338      2.524375      4.141025
  H       2.202791      3.484653      0.532595
  H       2.945017      3.162640      2.134225
  H       1.950365      4.642144      1.884844
  Si      3.263389     -2.220265      0.227135
  C       4.754150     -1.163145      0.696826
  C       2.399507     -2.911144      1.754464
  C       3.726122     -3.583536     -1.008177
  H       4.404232     -0.350904      1.367372
  H       5.249789     -0.717315     -0.189541
  H       5.506043     -1.771802      1.241197
  H       1.456729     -3.432717      1.491422
  H       2.160415     -2.066368      2.432592
  H       3.052770     -3.626133      2.296473
  H       2.839528     -4.183899     -1.298534
  H       4.473145     -4.275853     -0.566429
  H       4.167230     -3.156599     -1.932301
  H       2.258934     -1.326821     -0.499310
51
Coordinates from ORCA-job my_molecule E -1977.847142427017
  Pt     -1.843503     -0.149240      1.117521
  O      -0.225572      0.143054      2.145481
  O      -3.803015     -0.284302      0.313403
  P       1.104707      0.996605      1.699269
  P      -3.312658     -1.150696     -0.899547
  O      -4.125614     -2.550130     -1.070997
  O      -1.791172     -1.420341     -0.477930
  O       1.135403      0.946620      0.052692
  O       2.351835      0.474428      2.370883
  C       0.755631      2.789818      2.043788
  C      -3.492218     -0.383426     -2.557511
  C      -2.878145     -1.329489     -3.609463
  C      -2.730779      0.958237     -2.515033
  C      -4.996309     -0.152580     -2.813548
  C      -0.484960      3.286929      1.285867
  C       0.563822      2.920912      3.568295
  C       2.011793      3.569185      1.597290
  H      -4.121910     -3.061944     -0.235125
  H       1.591443      0.114129     -0.231714
  H      -1.806017     -1.521782     -3.404319
  H      -2.953465     -0.853777     -4.609290
  H      -3.408265     -2.300937     -3.648964
  H      -1.654658      0.815249     -2.293391
  H      -3.150460      1.640657     -1.750076
  H      -2.819569      1.451023     -3.505125
  H      -5.557631     -1.106229     -2.857586
  H      -5.120055      0.366754     -3.786456
  H      -5.448415      0.485414     -2.027754
  H      -1.404019      2.739043      1.585267
  H      -0.365196      3.177861      0.190112
  H      -0.653983      4.361582      1.512342
  H      -0.335289      2.373606      3.915651
  H       0.441894      3.991044      3.838458
  H       1.440861      2.520135      4.114047
  H       2.171681      3.485305      0.504055
  H       2.916335      3.185653      2.108705
  H       1.893139      4.644066      1.850226
  Si      3.288094     -2.252372      0.256784
  C       4.780786     -1.181649      0.688182
  C       2.441047     -2.910628      1.807883
  C       3.742976     -3.643947     -0.949758
  H       4.435784     -0.353811      1.342023
  H       5.266829     -0.756721     -0.213672
  H       5.539708     -1.774539      1.240104
  H       1.498707     -3.442893      1.565566
  H       2.204057     -2.052026      2.469394
  H       3.103489     -3.610236      2.358878
  H       2.854964     -4.252403     -1.218090
  H       4.494376     -4.324379     -0.497004
  H       4.176296     -3.239477     -1.887551
  H       2.277218     -1.377358     -0.482262
51
Coordinates from ORCA-job my_molecule E -1977.847039694766
  Pt     -1.871811     -0.128184      1.137077
  O      -0.255282      0.156354      2.165342
  O      -3.824791     -0.290407      0.318351
  P       1.084161      0.988254      1.708748
  P      -3.309918     -1.149368     -0.889087
  O      -4.103966     -2.558225     -1.072769
  O      -1.789856     -1.403464     -0.450255
  O       1.110115      0.924193      0.062642
  O       2.326954      0.456946      2.381361
  C       0.756887      2.788246      2.039452
  C      -3.477612     -0.382197     -2.548443
  C      -2.838340     -1.318704     -3.593884
  C      -2.733903      0.969052     -2.494705
  C      -4.981086     -0.169869     -2.823456
  C      -0.488897      3.288388      1.292378
  C       0.585836      2.936593      3.564847
  C       2.013988      3.551688      1.568878
  H      -4.103323     -3.072045     -0.238071
  H       1.566309      0.088974     -0.214969
  H      -1.766321     -1.496945     -3.375907
  H      -2.907868     -0.842739     -4.594018
  H      -3.354992     -2.297046     -3.640989
  H      -1.659790      0.840211     -2.255334
  H      -3.174833      1.646615     -1.737435
  H      -2.812916      1.459846     -3.486616
  H      -5.529759     -1.130370     -2.877421
  H      -5.098608      0.350616     -3.796525
  H      -5.451588      0.460257     -2.042107
  H      -1.409280      2.753833      1.611882
  H      -0.385867      3.164437      0.196503
  H      -0.644725      4.367251      1.507641
  H      -0.310314      2.395898      3.929818
  H       0.470888      4.009944      3.825160
  H       1.468650      2.538378      4.103040
  H       2.157956      3.457060      0.474320
  H       2.921775      3.163734      2.071183
  H       1.909289      4.629750      1.814350
  Si      3.275197     -2.251955      0.248640
  C       4.760158     -1.174926      0.690749
  C       2.423959     -2.920698      1.792786
  C       3.740112     -3.635155     -0.963539
  H       4.407673     -0.354542      1.350468
  H       5.245096     -0.739879     -0.206815
  H       5.521705     -1.767171      1.239724
  H       1.483867     -3.453950      1.543944
  H       2.182169     -2.065892      2.457563
  H       3.085734     -3.621314      2.343279
  H       2.856493     -4.248389     -1.235448
  H       4.495757     -4.312494     -0.513247
  H       4.171562     -3.223388     -1.899023
  H       2.263355     -1.377199     -0.490063
51
Coordinates from ORCA-job my_molecule E -1977.847110448158
  Pt     -1.837827     -0.140523      1.105831
  O      -0.226638      0.147429      2.139959
  O      -3.800195     -0.285386      0.312128
  P       1.107007      0.999023      1.700190
  P      -3.311342     -1.151937     -0.901458
  O      -4.121209     -2.553655     -1.068425
  O      -1.787889     -1.416622     -0.484199
  O       1.143651      0.951598      0.053687
  O       2.350391      0.472835      2.375516
  C       0.760852      2.792321      2.046404
  C      -3.498064     -0.387558     -2.559918
  C      -2.885639     -1.334257     -3.612308
  C      -2.739058      0.955628     -2.522131
  C      -5.003414     -0.160020     -2.811337
  C      -0.475671      3.293373      1.284412
  C       0.563431      2.921312      3.570400
  C       2.020550      3.569288      1.605776
  H      -4.113335     -3.064498     -0.231970
  H       1.598552      0.118318     -0.230385
  H      -1.812529     -1.524319     -3.410232
  H      -2.964970     -0.860320     -4.612664
  H      -3.414194     -2.306671     -3.648521
  H      -1.662162      0.815173     -2.302684
  H      -3.158218      1.639072     -1.757782
  H      -2.831023      1.445951     -3.513150
  H      -5.563033     -1.114837     -2.851948
  H      -5.131419      0.357496     -3.784659
  H      -5.454125      0.478347     -2.025045
  H      -1.396883      2.746210      1.578566
  H      -0.351379      3.186713      0.188914
  H      -0.643641      4.367759      1.512738
  H      -0.337845      2.374840      3.913410
  H       0.442111      3.991210      3.841752
  H       1.437791      2.518404      4.118890
  H       2.183731      3.487468      0.512853
  H       2.922422      3.182173      2.119171
  H       1.903923      4.643906      1.860754
  Si      3.287977     -2.250071      0.257186
  C       4.780951     -1.183067      0.696866
  C       2.434774     -2.911913      1.803373
  C       3.744641     -3.638444     -0.952348
  H       4.435130     -0.356486      1.351906
  H       5.270843     -0.756394     -0.202069
  H       5.536954     -1.778789      1.249724
  H       1.492339     -3.441829      1.556311
  H       2.197067     -2.054950      2.466714
  H       3.094284     -3.614354      2.354298
  H       2.856332     -4.243812     -1.226606
  H       4.492487     -4.322272     -0.498829
  H       4.182912     -3.231672     -1.886842
  H       2.280595     -1.371191     -0.482220
51
Coordinates from ORCA-job my_molecule E -1977.847117068289
  Pt     -1.817849     -0.160719      1.097347
  O      -0.192410      0.114713      2.119453
  O      -3.784617     -0.296144      0.313957
  P       1.127562      0.990959      1.686828
  P      -3.305399     -1.143152     -0.916929
  O      -4.104694     -2.550374     -1.089406
  O      -1.773692     -1.398138     -0.524827
  O       1.172402      0.942813      0.040716
  O       2.376057      0.486243      2.368863
  C       0.752640      2.779324      2.029586
  C      -3.522839     -0.360938     -2.563184
  C      -2.921304     -1.291300     -3.636249
  C      -2.771895      0.986544     -2.521348
  C      -5.033573     -0.140848     -2.787625
  C      -0.482496      3.264549      1.255337
  C       0.538045      2.904901      3.551544
  C       2.006188      3.573529      1.602146
  H      -4.081586     -3.070254     -0.258857
  H       1.628413      0.109423     -0.240090
  H      -1.843971     -1.477035     -3.453455
  H      -3.019324     -0.806198     -4.629565
  H      -3.444450     -2.266493     -3.675450
  H      -1.690301      0.849785     -2.323753
  H      -3.181026      1.657064     -1.740287
  H      -2.885001      1.489587     -3.503771
  H      -5.587249     -1.099110     -2.827942
  H      -5.181328      0.384827     -3.753761
  H      -5.475214      0.486791     -1.987693
  H      -1.398495      2.700850      1.534833
  H      -0.343344      3.165543      0.160916
  H      -0.670590      4.334909      1.487097
  H      -0.361614      2.349809      3.884849
  H       0.403915      3.973356      3.822501
  H       1.410467      2.509877      4.108817
  H       2.182174      3.493525      0.511069
  H       2.907719      3.198876      2.125229
  H       1.872123      4.646562      1.855195
  Si      3.315733     -2.264799      0.282478
  C       4.810058     -1.192430      0.704450
  C       2.468636     -2.908707      1.839673
  C       3.769674     -3.668290     -0.910596
  H       4.466488     -0.356583      1.348707
  H       5.297771     -0.778397     -0.201581
  H       5.567514     -1.780307      1.263660
  H       1.526969     -3.444337      1.602246
  H       2.230681     -2.044437      2.493276
  H       3.132065     -3.602640      2.396692
  H       2.880276     -4.275690     -1.176704
  H       4.516772     -4.347608     -0.449099
  H       4.207897     -3.273826     -1.850361
  H       2.306022     -1.395607     -0.464931
51
Coordinates from ORCA-job my_molecule E -1977.847075361203
  Pt     -1.768688     -0.185159      1.059818
  O      -0.139244      0.073211      2.073863
  O      -3.750611     -0.320026      0.314563
  P       1.164286      0.985141      1.665261
  P      -3.292199     -1.135855     -0.945390
  O      -4.071760     -2.553837     -1.119847
  O      -1.745607     -1.368714     -0.602825
  O       1.233980      0.943072      0.020041
  O       2.412534      0.504955      2.364933
  C       0.750269      2.765177      2.006900
  C      -3.571809     -0.329509     -2.570254
  C      -2.993932     -1.234861     -3.677276
  C      -2.836040      1.026177     -2.529407
  C      -5.091644     -0.125348     -2.742334
  C      -0.471490      3.236606      1.203461
  C       0.494299      2.878365      3.523450
  C       2.001883      3.581519      1.616800
  H      -4.017387     -3.086606     -0.299008
  H       1.690779      0.109095     -0.256572
  H      -1.909008     -1.409863     -3.532619
  H      -3.130164     -0.735390     -4.658886
  H      -3.506173     -2.215830     -3.715194
  H      -1.746994      0.898550     -2.370513
  H      -3.226536      1.678174     -1.723457
  H      -2.987367      1.544806     -3.498472
  H      -5.634089     -1.090208     -2.777216
  H      -5.277952      0.410851     -3.695940
  H      -5.514187      0.485657     -1.919582
  H      -1.383440      2.649608      1.446456
  H      -0.297899      3.156326      0.112435
  H      -0.687949      4.299602      1.444561
  H      -0.408141      2.312302      3.829673
  H       0.342161      3.943633      3.797378
  H       1.355878      2.489026      4.101286
  H       2.208452      3.508960      0.530547
  H       2.895029      3.219159      2.162352
  H       1.843527      4.651237      1.869897
  Si      3.356871     -2.281396      0.321634
  C       4.855079     -1.210716      0.734699
  C       2.504319     -2.903503      1.884866
  C       3.809719     -3.702289     -0.851181
  H       4.514155     -0.362925      1.364251
  H       5.348928     -0.813265     -0.175472
  H       5.607182     -1.793583      1.306204
  H       1.562897     -3.441485      1.651960
  H       2.265372     -2.031066      2.526915
  H       3.166054     -3.591059      2.451789
  H       2.918011     -4.306962     -1.115762
  H       4.548979     -4.380789     -0.376040
  H       4.256884     -3.322670     -1.792834
  H       2.352784     -1.418297     -0.439911
51
Coordinates from ORCA-job my_molecule E -1977.846970298000
  Pt     -1.759657     -0.192558      1.053041
  O      -0.113040      0.041565      2.054385
  O      -3.743472     -0.351850      0.316463
  P       1.180907      0.969480      1.654227
  P      -3.275446     -1.123361     -0.966950
  O      -4.007240     -2.564178     -1.162288
  O      -1.716061     -1.310080     -0.652698
  O       1.265239      0.917670      0.010266
  O       2.427567      0.508072      2.369133
  C       0.749197      2.748900      1.979809
  C      -3.606260     -0.293456     -2.570123
  C      -3.018848     -1.156861     -3.705233
  C      -2.913171      1.083833     -2.512113
  C      -5.134596     -0.135048     -2.713217
  C      -0.469101      3.206647      1.163656
  C       0.480093      2.870056      3.493488
  C       1.997507      3.572922      1.595038
  H      -3.922811     -3.112072     -0.354111
  H       1.721761      0.080197     -0.256216
  H      -1.926386     -1.299067     -3.582958
  H      -3.188720     -0.642640     -4.673899
  H      -3.499560     -2.153135     -3.754348
  H      -1.818372      0.987135     -2.371971
  H      -3.311840      1.706707     -1.687338
  H      -3.095317      1.616899     -3.467945
  H      -5.645999     -1.116288     -2.757964
  H      -5.354560      0.412831     -3.652926
  H      -5.562241      0.445774     -1.871488
  H      -1.377096      2.608682      1.395835
  H      -0.283036      3.128664      0.074516
  H      -0.700986      4.266972      1.402737
  H      -0.421059      2.300069      3.796434
  H       0.318556      3.935956      3.759395
  H       1.339495      2.490145      4.080746
  H       2.214462      3.494213      0.511249
  H       2.888578      3.221567      2.151060
  H       1.828415      4.643150      1.838864
  Si      3.384861     -2.301972      0.354467
  C       4.879795     -1.224051      0.760636
  C       2.527058     -2.906313      1.921804
  C       3.844138     -3.736870     -0.798592
  H       4.535411     -0.369911      1.379634
  H       5.375358     -0.835726     -0.152540
  H       5.631545     -1.798631      1.340887
  H       1.587673     -3.449049      1.691781
  H       2.283935     -2.027037      2.552839
  H       3.188191     -3.585915      2.498970
  H       2.954602     -4.347246     -1.057297
  H       4.583853     -4.407101     -0.312538
  H       4.292774     -3.368738     -1.744081
  H       2.383903     -1.448950     -0.422523
51
Coordinates from ORCA-job my_molecule E -1977.847121547917
  Pt     -1.771656     -0.194759      1.064846
  O      -0.136135      0.069617      2.078929
  O      -3.751881     -0.310437      0.312410
  P       1.164641      0.985281      1.668412
  P      -3.297819     -1.134166     -0.943974
  O      -4.086904     -2.547362     -1.114028
  O      -1.753159     -1.376175     -0.599540
  O       1.231262      0.942905      0.023167
  O       2.414953      0.507303      2.365878
  C       0.748540      2.764689      2.010843
  C      -3.570137     -0.332159     -2.572208
  C      -3.002124     -1.248541     -3.675334
  C      -2.820663      1.016136     -2.538277
  C      -5.087935     -0.113700     -2.744447
  C      -0.471855      3.236625      1.205519
  C       0.489403      2.876094      3.527028
  C       2.000377      3.582371      1.624298
  H      -4.038076     -3.076932     -0.290817
  H       1.688710      0.109370     -0.254265
  H      -1.918733     -1.433169     -3.531094
  H      -3.134830     -0.752867     -4.659351
  H      -3.523745     -2.224738     -3.707518
  H      -1.732706      0.878214     -2.380316
  H      -3.203457      1.675714     -1.734790
  H      -2.968082      1.531917     -3.509472
  H      -5.639603     -1.073420     -2.775518
  H      -5.269562      0.420834     -3.699893
  H      -5.504035      0.504174     -1.923565
  H      -1.383984      2.648935      1.445727
  H      -0.295868      3.157791      0.114773
  H      -0.688982      4.299347      1.447475
  H      -0.414594      2.311029      3.830566
  H       0.338329      3.941191      3.802166
  H       1.349067      2.484572      4.106234
  H       2.209745      3.510422      0.538544
  H       2.892506      3.220729      2.171975
  H       1.840301      4.651856      1.877298
  Si      3.358590     -2.277825      0.318461
  C       4.856866     -1.206194      0.728615
  C       2.509476     -2.900718      1.883275
  C       3.809889     -3.698467     -0.855208
  H       4.516629     -0.359141      1.359378
  H       5.348069     -0.807656     -0.182510
  H       5.610918     -1.788613      1.297993
  H       1.568280     -3.439824      1.652051
  H       2.270710     -2.028730      2.525995
  H       3.173057     -3.587614      2.448839
  H       2.917872     -4.303240     -1.118490
  H       4.549948     -4.376895     -0.381210
  H       4.255579     -3.318699     -1.797494
  H       2.352809     -1.415075     -0.441377
51
Coordinates from ORCA-job my_molecule E -1977.847179886357
  Pt     -1.751452     -0.222140      1.067805
  O      -0.133484      0.078807      2.084985
  O      -3.733046     -0.289455      0.313714
  P       1.162676      1.002327      1.672053
  P      -3.310617     -1.150350     -0.929953
  O      -4.158277     -2.531058     -1.080152
  O      -1.779456     -1.447603     -0.574440
  O       1.219555      0.971427      0.026231
  O       2.417729      0.520982      2.358747
  C       0.743054      2.776973      2.030212
  C      -3.545557     -0.361506     -2.570379
  C      -3.016925     -1.319563     -3.657826
  C      -2.736745      0.952321     -2.555831
  C      -5.051774     -0.078537     -2.749830
  C      -0.467391      3.258556      1.215064
  C       0.465086      2.870973      3.544362
  C       2.000219      3.597574      1.668189
  H      -4.137959     -3.047245     -0.247213
  H       1.677903      0.141656     -0.260948
  H      -1.943400     -1.551053     -3.507505
  H      -3.124520     -0.833328     -4.649603
  H      -3.582446     -2.271324     -3.677086
  H      -1.655995      0.768417     -2.395807
  H      -3.088975      1.640198     -1.762076
  H      -2.861569      1.459907     -3.534496
  H      -5.645486     -1.013234     -2.766939
  H      -5.207905      0.448155     -3.714068
  H      -5.441339      0.570191     -1.939795
  H      -1.382234      2.668767      1.437686
  H      -0.277261      3.190940      0.125964
  H      -0.684800      4.319132      1.465311
  H      -0.446462      2.308395      3.829233
  H       0.317520      3.933605      3.830704
  H       1.314691      2.467040      4.129969
  H       2.224291      3.535114      0.584740
  H       2.884981      3.231582      2.224752
  H       1.836013      4.664826      1.927881
  Si      3.343897     -2.257161      0.293240
  C       4.849448     -1.194821      0.700629
  C       2.502404     -2.887300      1.859396
  C       3.782411     -3.672069     -0.892126
  H       4.517070     -0.349728      1.337920
  H       5.337247     -0.793157     -0.210975
  H       5.604061     -1.784007      1.262253
  H       1.558610     -3.422869      1.630550
  H       2.269387     -2.018999      2.509189
  H       3.167748     -3.579311      2.416589
  H       2.885744     -4.269568     -1.156248
  H       4.520242     -4.358243     -0.425885
  H       4.226569     -3.288209     -1.833492
  H       2.336518     -1.386029     -0.454694
51
Coordinates from ORCA-job my_molecule E -1977.847152256677
  Pt     -1.734366     -0.246808      1.053190
  O      -0.105619      0.050975      2.064342
  O      -3.724530     -0.320561      0.319460
  P       1.180376      0.992395      1.660082
  P      -3.301675     -1.149211     -0.945767
  O      -4.126233     -2.542175     -1.111812
  O      -1.760340     -1.424876     -0.617441
  O       1.251287      0.954527      0.015229
  O       2.434023      0.528031      2.360968
  C       0.741255      2.765057      2.006135
  C      -3.573485     -0.333706     -2.567396
  C      -3.038545     -1.258161     -3.680438
  C      -2.792157      0.996328     -2.535387
  C      -5.087461     -0.079159     -2.723039
  C      -0.464336      3.234703      1.177005
  C       0.447490      2.863135      3.517108
  C       1.995510      3.594459      1.654047
  H      -4.085195     -3.073946     -0.289539
  H       1.709639      0.122152     -0.264269
  H      -1.958878     -1.470794     -3.547317
  H      -3.167574     -0.753659     -4.660496
  H      -3.585034     -2.220632     -3.713345
  H      -1.706646      0.831444     -2.387902
  H      -3.151755      1.661710     -1.725942
  H      -2.935914      1.519283     -3.503298
  H      -5.661850     -1.025664     -2.750320
  H      -5.266901      0.461799     -3.675250
  H      -5.480113      0.546021     -1.896177
  H      -1.375528      2.634431      1.387081
  H      -0.259980      3.170164      0.090310
  H      -0.695923      4.292736      1.425486
  H      -0.462761      2.295267      3.795664
  H       0.289159      3.925810      3.797439
  H       1.294188      2.468136      4.112961
  H       2.231624      3.529423      0.573303
  H       2.877295      3.237932      2.221339
  H       1.819820      4.661407      1.907404
  Si      3.368132     -2.271493      0.319396
  C       4.872574     -1.205660      0.721822
  C       2.521159     -2.886018      1.888814
  C       3.810163     -3.698780     -0.849683
  H       4.538596     -0.354716      1.350513
  H       5.362742     -0.812162     -0.192077
  H       5.625773     -1.789487      1.290856
  H       1.578304     -3.424158      1.662163
  H       2.285712     -2.011913      2.529778
  H       3.185089     -3.572556      2.454436
  H       2.914397     -4.299619     -1.109257
  H       4.547261     -4.379369     -0.374195
  H       4.256260     -3.325073     -1.794198
  H       2.364970     -1.406969     -0.441786
51
Coordinates from ORCA-job my_molecule E -1977.847107559782
  Pt     -1.714441     -0.244478      1.032994
  O      -0.087150      0.034221      2.039036
  O      -3.711356     -0.377990      0.338108
  P       1.197564      0.981266      1.645753
  P      -3.289151     -1.156231     -0.958630
  O      -4.078314     -2.566142     -1.152248
  O      -1.736016     -1.398056     -0.661196
  O       1.290382      0.930071      0.002701
  O       2.442994      0.529856      2.369722
  C       0.746996      2.755188      1.968621
  C      -3.610025     -0.302050     -2.551163
  C      -3.046618     -1.166749     -3.697499
  C      -2.886361      1.059082     -2.482581
  C      -5.134900     -0.108263     -2.686470
  C      -0.434708      3.217526      1.101872
  C       0.409515      2.862550      3.469782
  C       2.010304      3.583213      1.647028
  H      -4.008834     -3.120447     -0.346948
  H       1.747479      0.092412     -0.263739
  H      -1.958728     -1.341793     -3.577000
  H      -3.200998     -0.634768     -4.659171
  H      -3.555776     -2.147988     -3.760309
  H      -1.794806      0.936914     -2.337351
  H      -3.275150      1.686957     -1.656840
  H      -3.051661      1.600530     -3.436736
  H      -5.668294     -1.077289     -2.740440
  H      -5.346259      0.455143     -3.618914
  H      -5.546438      0.471997     -1.836349
  H      -1.348401      2.611561      1.283188
  H      -0.195660      3.152857      0.022267
  H      -0.680087      4.274360      1.341747
  H      -0.510134      2.298913      3.725413
  H       0.245813      3.927195      3.739269
  H       1.237393      2.469092      4.092497
  H       2.278555      3.509361      0.574348
  H       2.875156      3.232458      2.243104
  H       1.825779      4.652022      1.885774
  Si      3.394830     -2.290511      0.346014
  C       4.895558     -1.223252      0.758003
  C       2.528850     -2.892104      1.909998
  C       3.847909     -3.726556     -0.807884
  H       4.555942     -0.369176      1.379360
  H       5.394580     -0.834099     -0.152950
  H       5.643140     -1.804327      1.337147
  H       1.587805     -3.430509      1.676578
  H       2.287470     -2.013538      2.542922
  H       3.185526     -3.575912      2.487316
  H       2.955400     -4.331978     -1.067936
  H       4.583845     -4.400897     -0.321820
  H       4.299063     -3.359816     -1.752737
  H       2.402420     -1.429828     -0.433651
51
Coordinates from ORCA-job my_molecule E -1977.847119017059
  Pt     -1.719986     -0.243682      1.031780
  O      -0.096644      0.052925      2.048995
  O      -3.721091     -0.360417      0.345908
  P       1.193642      0.992160      1.651090
  P      -3.306585     -1.165397     -0.937532
  O      -4.127653     -2.558288     -1.119357
  O      -1.762175     -1.439092     -0.624915
  O       1.279425      0.943024      0.007543
  O       2.439495      0.531717      2.368633
  C       0.751824      2.766902      1.979365
  C      -3.596273     -0.324417     -2.543079
  C      -3.027467     -1.207962     -3.672317
  C      -2.857842      1.028955     -2.479192
  C      -5.116730     -0.114166     -2.701546
  C      -0.408498      3.244977      1.092109
  C       0.384676      2.866400      3.474137
  C       2.028364      3.585882      1.688778
  H      -4.079804     -3.102579     -0.305709
  H       1.735581      0.105872     -0.262615
  H      -1.944752     -1.399137     -3.531611
  H      -3.156810     -0.681905     -4.640922
  H      -3.551149     -2.181535     -3.735770
  H      -1.770648      0.896605     -2.312042
  H      -3.254239      1.672519     -1.669324
  H      -2.999387      1.559147     -3.443455
  H      -5.660921     -1.077249     -2.754783
  H      -5.308185      0.443540     -3.641668
  H      -5.533325      0.478447     -1.862475
  H      -1.329673      2.643911      1.249324
  H      -0.147081      3.188093      0.017312
  H      -0.651114      4.301420      1.336275
  H      -0.549301      2.316014      3.705272
  H       0.233147      3.931220      3.749977
  H       1.192713      2.453885      4.110527
  H       2.319582      3.513649      0.621965
  H       2.877123      3.226446      2.302474
  H       1.846644      4.655264      1.927077
  Si      3.383262     -2.278417      0.322427
  C       4.887064     -1.217699      0.739624
  C       2.518847     -2.890358      1.883252
  C       3.830643     -3.705777     -0.844312
  H       4.550519     -0.367963      1.368594
  H       5.385223     -0.822120     -0.169016
  H       5.634427     -1.805243      1.312492
  H       1.576543     -3.425463      1.647272
  H       2.279881     -2.016301      2.523269
  H       3.175162     -3.579520      2.454559
  H       2.936591     -4.308246     -1.105917
  H       4.567838     -4.384640     -0.366539
  H       4.278529     -3.331749     -1.787862
  H       2.390591     -1.409656     -0.448073
51
Coordinates from ORCA-job my_molecule E -1977.847153271494
  Pt     -1.744348     -0.232768      1.066377
  O      -0.125484      0.075696      2.080749
  O      -3.736872     -0.332866      0.354858
  P       1.171546      0.996398      1.661490
  P      -3.320065     -1.166796     -0.909159
  O      -4.169523     -2.543225     -1.084910
  O      -1.788280     -1.471169     -0.564338
  O       1.235340      0.941799      0.016863
  O       2.423047      0.525768      2.362357
  C       0.748276      2.775261      1.991504
  C      -3.561375     -0.343733     -2.532002
  C      -2.973450     -1.248139     -3.634659
  C      -2.811038      1.003086     -2.467861
  C      -5.075043     -0.119903     -2.731510
  C      -0.406767      3.264237      1.103104
  C       0.380525      2.878389      3.485878
  C       2.032838      3.581561      1.701418
  H      -4.148229     -3.076188     -0.262635
  H       1.691910      0.105860     -0.256884
  H      -1.897341     -1.450283     -3.462292
  H      -3.070334     -0.732989     -4.612847
  H      -3.506937     -2.216289     -3.700085
  H      -1.730553      0.863695     -2.265944
  H      -3.224958      1.663788     -1.680953
  H      -2.918589      1.518487     -3.444471
  H      -5.627760     -1.077770     -2.789788
  H      -5.236258      0.430837     -3.681363
  H      -5.506963      0.485231     -1.909249
  H      -1.332944      2.670597      1.258575
  H      -0.144424      3.207591      0.028594
  H      -0.641594      4.321963      1.349238
  H      -0.562939      2.343485      3.714361
  H       0.247058      3.945170      3.763513
  H       1.180416      2.451074      4.122897
  H       2.325907      3.503170      0.635517
  H       2.876750      3.216398      2.318338
  H       1.860332      4.653367      1.935746
  Si      3.359446     -2.269007      0.291566
  C       4.862712     -1.205678      0.703519
  C       2.508164     -2.892884      1.854857
  C       3.801912     -3.687325     -0.887941
  H       4.527768     -0.361821      1.341153
  H       5.352064     -0.801863     -0.206255
  H       5.616757     -1.794515      1.266229
  H       1.565789     -3.429374      1.622263
  H       2.271236     -2.023221      2.501600
  H       3.170254     -3.583329      2.417871
  H       2.908427     -4.293194     -1.143546
  H       4.547923     -4.364870     -0.422130
  H       4.237693     -3.305264     -1.833942
  H       2.357976     -1.398447     -0.465674
51
Coordinates from ORCA-job my_molecule E -1977.847200298325
  Pt     -1.768410     -0.237043      1.094019
  O      -0.140602      0.072194      2.101694
  O      -3.755456     -0.324501      0.354308
  P       1.156216      0.986199      1.669219
  P      -3.320408     -1.157204     -0.904021
  O      -4.159418     -2.538963     -1.088857
  O      -1.789262     -1.454965     -0.547110
  O       1.209986      0.920127      0.024588
  O       2.410623      0.516230      2.365317
  C       0.741186      2.769327      1.990809
  C      -3.549261     -0.336718     -2.530043
  C      -2.951422     -1.243526     -3.625332
  C      -2.799679      1.010401     -2.462923
  C      -5.061117     -0.112816     -2.743206
  C      -0.429789      3.252758      1.120489
  C       0.402491      2.887119      3.490907
  C       2.020560      3.572192      1.669658
  H      -4.137668     -3.074856     -0.268551
  H       1.668911      0.084495     -0.246682
  H      -1.874217     -1.435788     -3.448774
  H      -3.050466     -0.736207     -4.607380
  H      -3.476654     -2.216628     -3.684742
  H      -1.720559      0.872314     -2.252243
  H      -3.220548      1.672297     -1.680851
  H      -2.900028      1.523569     -3.441468
  H      -5.613032     -1.070578     -2.808334
  H      -5.213614      0.440097     -3.693259
  H      -5.500644      0.490830     -1.923817
  H      -1.354333      2.663146      1.299810
  H      -0.188964      3.185329      0.041621
  H      -0.657742      4.313433      1.361098
  H      -0.534280      2.351420      3.743540
  H       0.270611      3.956336      3.759832
  H       1.216282      2.469486      4.116705
  H       2.293471      3.484528      0.599138
  H       2.875724      3.211373      2.273556
  H       1.853606      4.646171      1.898131
  Si      3.355662     -2.271286      0.287240
  C       4.853046     -1.198390      0.695744
  C       2.508076     -2.895991      1.852070
  C       3.803824     -3.690399     -0.889095
  H       4.513712     -0.357690      1.335385
  H       5.336411     -0.790119     -0.215215
  H       5.613019     -1.782345      1.255547
  H       1.567594     -3.436463      1.620993
  H       2.268513     -2.026500      2.497776
  H       3.173232     -3.583063      2.415597
  H       2.913896     -4.303916     -1.138821
  H       4.556667     -4.360658     -0.423720
  H       4.233169     -3.308635     -1.838124
  H       2.351084     -1.406124     -0.472222
51
Coordinates from ORCA-job my_molecule E -1977.847200105138
  Pt     -1.755876     -0.254360      1.085429
  O      -0.122992      0.045123      2.083889
  O      -3.744700     -0.358488      0.352283
  P       1.165412      0.973999      1.660111
  P      -3.306517     -1.156022     -0.927158
  O      -4.116931     -2.552355     -1.130480
  O      -1.765103     -1.426574     -0.592910
  O       1.232197      0.903368      0.016445
  O       2.418064      0.518596      2.369101
  C       0.734234      2.755214      1.971310
  C      -3.571716     -0.308693     -2.533673
  C      -2.991513     -1.192493     -3.656878
  C      -2.827707      1.041044     -2.457190
  C      -5.088770     -0.089951     -2.712272
  C      -0.449922      3.220633      1.109310
  C       0.409244      2.880163      3.473794
  C       2.002155      3.569111      1.632503
  H      -4.073468     -3.104089     -0.321595
  H       1.693464      0.067115     -0.248553
  H      -1.908651     -1.377127     -3.508995
  H      -3.118687     -0.670810     -4.628105
  H      -3.509115     -2.169440     -3.719446
  H      -1.742889      0.903971     -2.277998
  H      -3.231209      1.683525     -1.650085
  H      -2.956185      1.574643     -3.421404
  H      -5.636832     -1.049869     -2.779251
  H      -5.264091      0.475111     -3.651157
  H      -5.514116      0.499704     -1.875438
  H      -1.368449      2.626859      1.305729
  H      -0.221005      3.141523      0.028568
  H      -0.682042      4.282644      1.339587
  H      -0.513602      2.327748      3.741638
  H       0.257773      3.948886      3.734238
  H       1.238056      2.485111      4.094399
  H       2.263177      3.480757      0.559089
  H       2.867796      3.217985      2.227161
  H       1.828000      4.642159      1.859916
  Si      3.379460     -2.284024      0.315978
  C       4.871994     -1.203977      0.723650
  C       2.523821     -2.895645      1.881583
  C       3.837832     -3.713724     -0.843499
  H       4.527295     -0.358622      1.354260
  H       5.358982     -0.802313     -0.188335
  H       5.630593     -1.780970      1.292454
  H       1.585438     -3.439623      1.650247
  H       2.279416     -2.020881      2.518412
  H       3.187082     -3.576804      2.454479
  H       2.950046     -4.329492     -1.095292
  H       4.586366     -4.379689     -0.365180
  H       4.275622     -3.340920     -1.792227
  H       2.378567     -1.428039     -0.458440
51
Coordinates from ORCA-job my_molecule E -1977.847203885990
  Pt     -1.749482     -0.265423      1.081731
  O      -0.113753      0.035922      2.077829
  O      -3.743614     -0.372832      0.361576
  P       1.171603      0.970685      1.656740
  P      -3.307279     -1.158904     -0.925711
  O      -4.115067     -2.555410     -1.138047
  O      -1.764013     -1.428309     -0.599460
  O       1.244836      0.894038      0.013862
  O       2.422165      0.522185      2.373818
  C       0.734026      2.751943      1.958880
  C      -3.580473     -0.299547     -2.524566
  C      -2.992690     -1.168725     -3.655215
  C      -2.848471      1.056135     -2.436799
  C      -5.099343     -0.092338     -2.701515
  C      -0.439065      3.214349      1.080155
  C       0.389179      2.880490      3.456621
  C       2.005567      3.566128      1.634656
  H      -4.067760     -3.113794     -0.333955
  H       1.705449      0.055974     -0.246935
  H      -1.908859     -1.347580     -3.507355
  H      -3.121941     -0.638756     -4.621676
  H      -3.503699     -2.148468     -3.727777
  H      -1.763067      0.927521     -2.254673
  H      -3.260757      1.689800     -1.627212
  H      -2.978437      1.594514     -3.398129
  H      -5.639041     -1.056251     -2.777912
  H      -5.279427      0.480398     -3.634838
  H      -5.529913      0.485478     -1.859095
  H      -1.358676      2.617768      1.263235
  H      -0.194348      3.135280      0.002926
  H      -0.676874      4.275836      1.306850
  H      -0.538092      2.330381      3.713665
  H       0.235893      3.950034      3.712564
  H       1.209056      2.486049      4.089451
  H       2.281223      3.474501      0.565138
  H       2.863492      3.217795      2.241898
  H       1.827056      4.639768      1.855809
  Si      3.388619     -2.288154      0.319719
  C       4.879496     -1.207513      0.731868
  C       2.526149     -2.896693      1.882691
  C       3.850924     -3.720047     -0.835375
  H       4.532891     -0.362218      1.361612
  H       5.368693     -0.805519     -0.178782
  H       5.636897     -1.783981      1.302771
  H       1.588340     -3.440449      1.648518
  H       2.279882     -2.021232      2.517745
  H       3.186932     -3.577620      2.458752
  H       2.963689     -4.335348     -1.090215
  H       4.596518     -4.385917     -0.352360
  H       4.293581     -3.349305     -1.782639
  H       2.391985     -1.432637     -0.460835
51
Coordinates from ORCA-job my_molecule E -1977.847187402610
  Pt     -1.738386     -0.294124      1.089476
  O      -0.093015      0.004810      2.066619
  O      -3.737205     -0.415517      0.382491
  P       1.181125      0.954480      1.645128
  P      -3.300941     -1.160879     -0.928520
  O      -4.091680     -2.561993     -1.173138
  O      -1.751787     -1.418431     -0.620885
  O       1.265658      0.858343      0.004442
  O       2.429959      0.529668      2.379511
  C       0.724681      2.735591      1.919809
  C      -3.597581     -0.263076     -2.502023
  C      -2.990770     -1.085915     -3.657029
  C      -2.898358      1.107043     -2.377004
  C      -5.121179     -0.087027     -2.672153
  C      -0.437515      3.178702      1.016895
  C       0.355085      2.880057      3.410047
  C       1.995233      3.555263      1.605574
  H      -4.030708     -3.141617     -0.385098
  H       1.726117      0.016219     -0.244084
  H      -1.903540     -1.246345     -3.513000
  H      -3.130499     -0.530482     -4.607602
  H      -3.481023     -2.073635     -3.759257
  H      -1.810617      0.999790     -2.194979
  H      -3.328400      1.709091     -1.552721
  H      -3.039066      1.666579     -3.324617
  H      -5.638136     -1.060862     -2.774890
  H      -5.316029      0.507224     -3.588918
  H      -5.564071      0.456995     -1.813732
  H      -1.353374      2.572111      1.187221
  H      -0.172252      3.093969     -0.055013
  H      -0.691196      4.238898      1.231391
  H      -0.574429      2.330022      3.659224
  H       0.193675      3.951984      3.650620
  H       1.165995      2.496930      4.061151
  H       2.289456      3.450915      0.542148
  H       2.845533      3.221759      2.231471
  H       1.804711      4.630502      1.808130
  Si      3.413023     -2.306411      0.338798
  C       4.895520     -1.214299      0.750977
  C       2.542081     -2.902930      1.901575
  C       3.888699     -3.747340     -0.799275
  H       4.541704     -0.366667      1.373664
  H       5.386132     -0.815663     -0.160394
  H       5.654033     -1.782010      1.329123
  H       1.607309     -3.451599      1.666803
  H       2.289564     -2.022953      2.527898
  H       3.201779     -3.576887      2.487039
  H       3.005061     -4.366871     -1.056303
  H       4.631228     -4.407036     -0.303225
  H       4.339207     -3.384442     -1.745855
  H       2.419192     -1.461934     -0.457512
51
Coordinates from ORCA-job my_molecule E -1977.847184673639
  Pt     -1.719319     -0.317212      1.070322
  O      -0.063648     -0.028979      2.037650
  O      -3.725946     -0.458504      0.382754
  P       1.199498      0.940752      1.630574
  P      -3.286864     -1.157477     -0.952476
  O      -4.043007     -2.572857     -1.223833
  O      -1.726796     -1.380999     -0.673564
  O       1.305517      0.838031     -0.007995
  O       2.442750      0.535762      2.385444
  C       0.721245      2.718856      1.888997
  C      -3.630381     -0.227964     -2.497760
  C      -3.029520     -1.008895     -3.684448
  C      -2.956088      1.152470     -2.351021
  C      -5.160214     -0.079360     -2.635283
  C      -0.444257      3.142524      0.981149
  C       0.347923      2.870959      3.377516
  C       1.982858      3.550806      1.570694
  H      -3.956453     -3.170593     -0.451924
  H       1.765852     -0.006774     -0.247433
  H      -1.936823     -1.151315     -3.564849
  H      -3.197917     -0.431951     -4.617419
  H      -3.502477     -2.003110     -3.803772
  H      -1.862254      1.061945     -2.199196
  H      -3.377080      1.721877     -1.499306
  H      -3.131678      1.735426     -3.278451
  H      -5.659289     -1.061294     -2.748832
  H      -5.384855      0.529541     -3.535481
  H      -5.597240      0.437259     -1.757193
  H      -1.354063      2.527748      1.155376
  H      -0.176887      3.050830     -0.089736
  H      -0.708862      4.201996      1.185950
  H      -0.573311      2.309013      3.631212
  H       0.169208      3.942311      3.608199
  H       1.163989      2.506230      4.032639
  H       2.278555      3.443823      0.507979
  H       2.836507      3.230019      2.198724
  H       1.780423      4.624978      1.767261
  Si      3.443087     -2.323996      0.372745
  C       4.919891     -1.225601      0.788823
  C       2.557890     -2.905737      1.933081
  C       3.931754     -3.775842     -0.745697
  H       4.559441     -0.372692      1.400449
  H       5.418068     -0.834731     -0.121830
  H       5.674139     -1.786479      1.379093
  H       1.625326     -3.456856      1.695408
  H       2.299635     -2.020176      2.549012
  H       3.212816     -3.574001      2.530340
  H       3.050540     -4.396194     -1.008987
  H       4.666183     -4.432150     -0.233359
  H       4.395696     -3.422571     -1.689406
  H       2.456438     -1.488849     -0.442138
51
Coordinates from ORCA-job my_molecule E -1977.847170218442
  Pt     -1.707202     -0.319315      1.059590
  O      -0.055291     -0.027481      2.028418
  O      -3.712916     -0.444846      0.371093
  P       1.205165      0.948440      1.627068
  P      -3.285159     -1.158115     -0.960449
  O      -4.055297     -2.568795     -1.216137
  O      -1.726563     -1.391807     -0.684056
  O       1.309813      0.859938     -0.012596
  O       2.451317      0.541449      2.375882
  C       0.720584      2.722162      1.901630
  C      -3.627336     -0.237086     -2.511085
  C      -3.049709     -1.036235     -3.697117
  C      -2.929933      1.133358     -2.381245
  C      -5.155976     -0.066246     -2.635623
  C      -0.453362      3.147394      1.005505
  C       0.357335      2.860551      3.394115
  C       1.976135      3.562244      1.580911
  H      -3.973841     -3.159109     -0.437948
  H       1.769155      0.016860     -0.258878
  H      -1.959060     -1.198611     -3.584340
  H      -3.213253     -0.461125     -4.632110
  H      -3.542238     -2.021869     -3.807943
  H      -1.835255      1.025814     -2.248562
  H      -3.326016      1.711993     -1.523789
  H      -3.112705      1.716571     -3.307168
  H      -5.671076     -1.041622     -2.733528
  H      -5.380048      0.535643     -3.540669
  H      -5.576715      0.466482     -1.759246
  H      -1.360534      2.530397      1.185092
  H      -0.195078      3.061344     -0.068096
  H      -0.718162      4.205419      1.217308
  H      -0.558458      2.290710      3.649970
  H       0.173630      3.928906      3.634490
  H       1.180554      2.495411      4.039951
  H       2.263751      3.466156      0.514983
  H       2.836032      3.239838      2.199594
  H       1.770566      4.633622      1.789075
  Si      3.438021     -2.319676      0.376177
  C       4.920088     -1.224542      0.782282
  C       2.563776     -2.901578      1.942880
  C       3.917949     -3.771088     -0.746777
  H       4.565077     -0.367676      1.391277
  H       5.417105     -0.839756     -0.131612
  H       5.673965     -1.786053      1.372442
  H       1.629546     -3.452605      1.711666
  H       2.309476     -2.015414      2.559671
  H       3.222573     -3.569494      2.536244
  H       3.034379     -4.390308     -1.004846
  H       4.655345     -4.428645     -0.240347
  H       4.375498     -3.417173     -1.693388
  H       2.444346     -1.484430     -0.429760
51
Coordinates from ORCA-job my_molecule E -1977.847192956376
  Pt     -1.695502     -0.350294      1.050344
  O      -0.038983     -0.057987      2.010334
  O      -3.706064     -0.513741      0.383716
  P       1.213953      0.928759      1.612941
  P      -3.274189     -1.163237     -0.978595
  O      -4.006746     -2.584858     -1.279949
  O      -1.706279     -1.362821     -0.728652
  O       1.338784      0.817876     -0.023464
  O       2.452650      0.542913      2.385278
  C       0.713724      2.703139      1.854784
  C      -3.659926     -0.194639     -2.489540
  C      -3.077437     -0.934504     -3.711059
  C      -2.994647      1.187156     -2.317258
  C      -5.193700     -0.057335     -2.589968
  C      -0.451161      3.108239      0.937544
  C       0.330582      2.861600      3.340166
  C       1.967914      3.546794      1.537886
  H      -3.897846     -3.202525     -0.526802
  H       1.801739     -0.028037     -0.253853
  H      -1.981516     -1.071505     -3.617703
  H      -3.268724     -0.330420     -4.622198
  H      -3.545164     -1.928403     -3.852092
  H      -1.895132      1.102627     -2.210590
  H      -3.387619      1.719431     -1.428941
  H      -3.211275      1.802567     -3.214587
  H      -5.686165     -1.040889     -2.717897
  H      -5.443649      0.571785     -3.469329
  H      -5.616287      0.432442     -1.689732
  H      -1.355049      2.484893      1.111195
  H      -0.176738      3.011989     -0.131236
  H      -0.727491      4.166448      1.133400
  H      -0.584384      2.289274      3.593634
  H       0.135845      3.932119      3.561468
  H       1.148116      2.512968      4.002145
  H       2.270973      3.435350      0.477735
  H       2.821380      3.240607      2.173478
  H       1.751905      4.619944      1.725261
  Si      3.474711     -2.340092      0.406941
  C       4.944682     -1.233646      0.825632
  C       2.576832     -2.908083      1.965253
  C       3.977720     -3.801877     -0.691929
  H       4.576533     -0.375361      1.424920
  H       5.450613     -0.851060     -0.084280
  H       5.694605     -1.786533      1.428831
  H       1.647400     -3.463408      1.725241
  H       2.311337     -2.017127      2.570219
  H       3.227972     -3.568923      2.574783
  H       3.099669     -4.423867     -0.961858
  H       4.704540     -4.454188     -0.163881
  H       4.454581     -3.457156     -1.632354
  H       2.492913     -1.516406     -0.425384
51
Coordinates from ORCA-job my_molecule E -1977.847204895090
  Pt     -1.719266     -0.346899      1.072728
  O      -0.062206     -0.048893      2.032643
  O      -3.727388     -0.511731      0.394389
  P       1.196602      0.924379      1.621309
  P      -3.284051     -1.166024     -0.961787
  O      -4.021690     -2.583505     -1.269996
  O      -1.719986     -1.375640     -0.694566
  O       1.311314      0.801176     -0.014944
  O       2.437027      0.534253      2.388792
  C       0.709645      2.703882      1.853781
  C      -3.645307     -0.197581     -2.478940
  C      -3.046133     -0.940713     -3.690482
  C      -2.979206      1.182766     -2.298042
  C      -5.176837     -0.055951     -2.602446
  C      -0.453719      3.111214      0.935525
  C       0.329442      2.874486      3.338485
  C       1.969101      3.536962      1.529823
  H      -3.922751     -3.201944     -0.516109
  H       1.778482     -0.043250     -0.242731
  H      -1.951822     -1.078229     -3.580836
  H      -3.224073     -0.338974     -4.605876
  H      -3.512440     -1.934700     -3.835707
  H      -1.881961      1.096040     -2.171481
  H      -3.386917      1.718100     -1.418205
  H      -3.178307      1.796462     -3.200600
  H      -5.670272     -1.037803     -2.739479
  H      -5.411285      0.575584     -3.484314
  H      -5.611601      0.433966     -1.708083
  H      -1.361586      2.495221      1.114694
  H      -0.181555      3.006287     -0.133006
  H      -0.722468      4.172515      1.125019
  H      -0.589550      2.310730      3.596355
  H       0.143328      3.947874      3.553280
  H       1.145007      2.523995      4.001949
  H       2.271387      3.414837      0.470596
  H       2.820761      3.230595      2.167722
  H       1.760027      4.613014      1.708277
  Si      3.471019     -2.336825      0.390921
  C       4.935980     -1.226145      0.815746
  C       2.569091     -2.909681      1.944993
  C       3.980071     -3.795991     -0.708517
  H       4.562997     -0.373703      1.420608
  H       5.439076     -0.834944     -0.092037
  H       5.689176     -1.778628      1.415204
  H       1.641352     -3.466035      1.700749
  H       2.300357     -2.020987      2.551771
  H       3.219369     -3.570990      2.554940
  H       3.104185     -4.419789     -0.981271
  H       4.707053     -4.447204     -0.179327
  H       4.458605     -3.449077     -1.647273
  H       2.491925     -1.512499     -0.444245
51
Coordinates from ORCA-job my_molecule E -1977.847204857439
  Pt     -1.703082     -0.377767      1.059906
  O      -0.040416     -0.078811      2.008800
  O      -3.716327     -0.560685      0.399401
  P       1.209069      0.909274      1.605019
  P      -3.276420     -1.167453     -0.979747
  O      -3.992750     -2.588537     -1.320024
  O      -1.705931     -1.356235     -0.736100
  O       1.341817      0.773937     -0.028439
  O       2.444244      0.539276      2.390746
  C       0.703086      2.686283      1.816046
  C      -3.672861     -0.162595     -2.464212
  C      -3.077235     -0.859797     -3.704319
  C      -3.026931      1.222787     -2.251217
  C      -5.207955     -0.043244     -2.564307
  C      -0.455001      3.075237      0.883181
  C       0.307285      2.867129      3.295441
  C       1.957937      3.527967      1.496405
  H      -3.875227     -3.225818     -0.584718
  H       1.811599     -0.071791     -0.245850
  H      -1.980082     -0.985804     -3.610347
  H      -3.272772     -0.232127     -4.598491
  H      -3.531866     -1.854964     -3.876251
  H      -1.926209      1.150454     -2.148572
  H      -3.426036      1.721967     -1.346520
  H      -3.253735      1.862039     -3.129161
  H      -5.687086     -1.029249     -2.720911
  H      -5.464355      0.606979     -3.426269
  H      -5.638976      0.415814     -1.651948
  H      -1.359054      2.452807      1.059893
  H      -0.171914      2.962339     -0.181730
  H      -0.734117      4.136011      1.059996
  H      -0.608758      2.297182      3.550392
  H       0.108574      3.940620      3.498052
  H       1.119947      2.531004      3.969783
  H       2.271585      3.398548      0.441367
  H       2.806158      3.235816      2.145463
  H       1.736924      4.603631      1.662362
  Si      3.502799     -2.353127      0.419775
  C       4.958654     -1.232908      0.850781
  C       2.585303     -2.913927      1.969175
  C       4.028954     -3.820998     -0.659685
  H       4.575982     -0.377199      1.444847
  H       5.469354     -0.847091     -0.055056
  H       5.708008     -1.777048      1.462551
  H       1.661375     -3.474595      1.720465
  H       2.308177     -2.020621      2.565301
  H       3.230811     -3.568143      2.591729
  H       3.157487     -4.447723     -0.939801
  H       4.748504     -4.467077     -0.114296
  H       4.520753     -3.481850     -1.594404
  H       2.530708     -1.539913     -0.434501
51
Coordinates from ORCA-job my_molecule E -1977.846828440302
  Pt     -1.678196     -0.378727      1.047435
  O      -0.004511     -0.071003      1.974611
  O      -3.691431     -0.630859      0.368756
  P       1.237558      0.934707      1.604396
  P      -3.223482     -1.188087     -1.020725
  O      -3.858610     -2.644137     -1.378969
  O      -1.642926     -1.285195     -0.791470
  O       1.380113      0.820757     -0.024907
  O       2.455847      0.561958      2.416203
  C       0.740981      2.714725      1.827885
  C      -3.694175     -0.184867     -2.485509
  C      -3.100998     -0.835425     -3.751054
  C      -3.099897      1.221370     -2.264340
  C      -5.234787     -0.134141     -2.546270
  C      -0.422425      3.130740      0.913697
  C       0.362667      2.884712      3.313294
  C       2.000226      3.548952      1.504292
  H      -3.708924     -3.280447     -0.648781
  H       1.830228     -0.030604     -0.254826
  H      -1.999044     -0.931527     -3.680023
  H      -3.329176     -0.192974     -4.627065
  H      -3.528355     -1.839301     -3.938683
  H      -1.994378      1.183649     -2.213373
  H      -3.476758      1.682329     -1.329738
  H      -3.385912      1.873798     -3.114834
  H      -5.670533     -1.142412     -2.688587
  H      -5.543945      0.498146     -3.404454
  H      -5.663845      0.304977     -1.623457
  H      -1.338323      2.529574      1.109890
  H      -0.161362      3.004591     -0.155854
  H      -0.669537      4.199482      1.089669
  H      -0.553725      2.318246      3.577895
  H       0.167492      3.956809      3.526231
  H       1.182203      2.539123      3.973813
  H       2.295788      3.434126      0.442735
  H       2.854870      3.238706      2.136608
  H       1.790460      4.623322      1.691423
  Si      3.464430     -2.357358      0.427594
  C       4.930770     -1.261850      0.886184
  C       2.522449     -2.906042      1.968849
  C       3.984936     -3.826559     -0.652208
  H       4.552289     -0.400642      1.473166
  H       5.469425     -0.890980     -0.009819
  H       5.656935     -1.817955      1.514994
  H       1.587838     -3.447189      1.718090
  H       2.254843     -2.008725      2.565841
  H       3.156106     -3.570827      2.592506
  H       3.105636     -4.427592     -0.962756
  H       4.672651     -4.495759     -0.093842
  H       4.509042     -3.491561     -1.570737
  H       2.509470     -1.532052     -0.433780
51
Coordinates from ORCA-job my_molecule E -1977.846883814028
  Pt     -1.673634     -0.356097      1.016142
  O      -0.010319     -0.062956      1.963735
  O      -3.687488     -0.580261      0.351817
  P       1.240943      0.934478      1.599059
  P      -3.234687     -1.169282     -1.030804
  O      -3.884758     -2.626267     -1.356310
  O      -1.655059     -1.275828     -0.808196
  O       1.383860      0.833949     -0.031102
  O       2.459718      0.549517      2.405289
  C       0.740846      2.709376      1.842034
  C      -3.708412     -0.188754     -2.509210
  C      -3.149629     -0.876865     -3.770734
  C      -3.082927      1.209661     -2.328068
  C      -5.248977     -0.111637     -2.546297
  C      -0.437159      3.126856      0.947874
  C       0.383372      2.865433      3.334672
  C       1.992993      3.550719      1.507959
  H      -3.747127     -3.245865     -0.609589
  H       1.840493     -0.012695     -0.257478
  H      -2.049794     -1.003624     -3.712748
  H      -3.369557     -0.241846     -4.654192
  H      -3.607877     -1.870983     -3.935456
  H      -1.977201      1.151884     -2.309326
  H      -3.421568      1.694062     -1.390774
  H      -3.381469      1.854142     -3.180329
  H      -5.704408     -1.116643     -2.645127
  H      -5.562426      0.494695     -3.421387
  H      -5.653521      0.365938     -1.631724
  H      -1.352061      2.532601      1.161752
  H      -0.196303      2.996427     -0.125807
  H      -0.676076      4.197315      1.124707
  H      -0.520776      2.284186      3.608666
  H       0.176811      3.933244      3.558387
  H       1.217619      2.524645      3.978911
  H       2.265683      3.457612      0.438182
  H       2.860785      3.228250      2.115809
  H       1.787470      4.620815      1.722532
  Si      3.481741     -2.349289      0.440040
  C       4.950028     -1.261471      0.909912
  C       2.541754     -2.914155      1.979826
  C       4.004241     -3.806607     -0.655722
  H       4.570445     -0.395657      1.492548
  H       5.503489     -0.893456      0.021737
  H       5.663013     -1.825429      1.547004
  H       1.609728     -3.457694      1.724456
  H       2.269997     -2.022891      2.583372
  H       3.177310     -3.581199      2.598960
  H       3.124408     -4.396979     -0.984804
  H       4.681617     -4.489762     -0.101787
  H       4.539417     -3.460020     -1.563577
  H       2.525431     -1.521588     -0.414834
51
Coordinates from ORCA-job my_molecule E -1977.846799542309
  Pt     -1.669142     -0.355859      1.019981
  O      -0.001795     -0.066491      1.963191
  O      -3.682988     -0.546191      0.346511
  P       1.245154      0.935903      1.594026
  P      -3.240338     -1.159811     -1.029126
  O      -3.911588     -2.611177     -1.336801
  O      -1.663398     -1.285405     -0.803113
  O       1.378764      0.843909     -0.037012
  O       2.470870      0.551615      2.389911
  C       0.735523      2.705988      1.848065
  C      -3.702182     -0.189560     -2.517649
  C      -3.143923     -0.891602     -3.771689
  C      -3.068614      1.206346     -2.346107
  C      -5.242436     -0.103887     -2.560308
  C      -0.455372      3.117745      0.969057
  C       0.394722      2.855219      3.345496
  C       1.978259      3.556847      1.502051
  H      -3.790726     -3.220721     -0.578897
  H       1.835743     -0.002163     -0.261118
  H      -2.046328     -1.033879     -3.705941
  H      -3.347775     -0.257216     -4.659407
  H      -3.614800     -1.880154     -3.934706
  H      -1.963744      1.139932     -2.311350
  H      -3.415767      1.706544     -1.420398
  H      -3.349728      1.841822     -3.210975
  H      -5.703394     -1.108050     -2.640217
  H      -5.550614      0.486472     -3.448073
  H      -5.645876      0.393192     -1.655725
  H      -1.364842      2.517915      1.191770
  H      -0.226863      2.991508     -0.107763
  H      -0.699688      4.185958      1.151610
  H      -0.497338      2.260516      3.629989
  H       0.175425      3.919546      3.573451
  H       1.241975      2.524920      3.978084
  H       2.232148      3.478106      0.426531
  H       2.857719      3.230115      2.090560
  H       1.772711      4.623336      1.733855
  Si      3.481990     -2.346383      0.442147
  C       4.955219     -1.262829      0.904364
  C       2.557876     -2.914263      1.991696
  C       3.992382     -3.801715     -0.662619
  H       4.580465     -0.389976      1.482495
  H       5.512574     -0.901213      0.015995
  H       5.663171     -1.829556      1.544706
  H       1.625238     -3.460113      1.743575
  H       2.290747     -2.024679      2.598579
  H       3.199835     -3.581557      2.603891
  H       3.108453     -4.387739     -0.988569
  H       4.671707     -4.489943     -0.117447
  H       4.521672     -3.451847     -1.572689
  H       2.518916     -1.519477     -0.403888
51
Coordinates from ORCA-job my_molecule E -1977.846735815858
  Pt     -1.637289     -0.356880      0.986827
  O       0.024185     -0.067738      1.937491
  O      -3.658462     -0.553487      0.342990
  P       1.268242      0.944906      1.582556
  P      -3.232739     -1.162160     -1.040992
  O      -3.902633     -2.615432     -1.342640
  O      -1.653278     -1.281436     -0.836463
  O       1.414031      0.865482     -0.047577
  O       2.488170      0.559511      2.386645
  C       0.746637      2.710300      1.842990
  C      -3.721171     -0.190416     -2.519908
  C      -3.159054     -0.874475     -3.782088
  C      -3.110409      1.214874     -2.343003
  C      -5.263018     -0.130056     -2.552627
  C      -0.438891      3.121357      0.956524
  C       0.393332      2.849528      3.338558
  C       1.988174      3.569075      1.511815
  H      -3.769840     -3.225857     -0.587449
  H       1.866792      0.017643     -0.269845
  H      -2.059267     -1.002268     -3.722876
  H      -3.375551     -0.235785     -4.663666
  H      -3.616492     -1.868488     -3.950489
  H      -2.004851      1.164987     -2.299791
  H      -3.472211      1.709270     -1.419947
  H      -3.394320      1.846521     -3.209763
  H      -5.707582     -1.141397     -2.633877
  H      -5.586922      0.458724     -3.435838
  H      -5.668741      0.355780     -1.642959
  H      -1.344531      2.509294      1.160907
  H      -0.197419      3.011843     -0.119274
  H      -0.696254      4.184443      1.150708
  H      -0.498539      2.249845      3.613014
  H       0.167648      3.911624      3.570585
  H       1.236964      2.519215      3.975992
  H       2.249210      3.499758      0.437367
  H       2.865078      3.241561      2.103681
  H       1.776238      4.632877      1.750052
  Si      3.484652     -2.348167      0.454164
  C       4.965721     -1.282273      0.931798
  C       2.551912     -2.913500      1.999423
  C       3.985905     -3.802337     -0.656600
  H       4.596890     -0.401959      1.503065
  H       5.541311     -0.931868      0.050550
  H       5.656366     -1.858022      1.582949
  H       1.615737     -3.451286      1.747032
  H       2.290738     -2.023496      2.609122
  H       3.187132     -3.588438      2.610300
  H       3.097649     -4.377526     -0.989996
  H       4.656719     -4.500622     -0.113726
  H       4.521631     -3.451378     -1.562514
  H       2.532402     -1.511671     -0.393195
51
Coordinates from ORCA-job my_molecule E -1977.846757920592
  Pt     -1.634156     -0.351948      0.997463
  O       0.031768     -0.064915      1.941079
  O      -3.655062     -0.528787      0.348489
  P       1.271521      0.952414      1.582964
  P      -3.234386     -1.159543     -1.026939
  O      -3.921632     -2.607764     -1.313776
  O      -1.656975     -1.296852     -0.816855
  O       1.410112      0.879492     -0.048521
  O       2.496300      0.567326      2.379267
  C       0.746532      2.715709      1.851240
  C      -3.706181     -0.199461     -2.518878
  C      -3.127622     -0.893422     -3.768187
  C      -3.099193      1.208061     -2.345947
  C      -5.247527     -0.139556     -2.571715
  C      -0.437742      3.127237      0.963403
  C       0.389313      2.847871      3.346387
  C       1.987231      3.578041      1.526343
  H      -3.791756     -3.213676     -0.554389
  H       1.857882      0.029952     -0.275789
  H      -2.027719     -1.013567     -3.696842
  H      -3.340048     -0.266051     -4.658805
  H      -3.577114     -1.892232     -3.929861
  H      -1.994830      1.160153     -2.275878
  H      -3.483254      1.713643     -1.438160
  H      -3.363338      1.828203     -3.227124
  H      -5.690979     -1.150627     -2.661032
  H      -5.559673      0.451601     -3.457566
  H      -5.665365      0.344651     -1.666605
  H      -1.338171      2.502194      1.152473
  H      -0.188310      3.036636     -0.112249
  H      -0.708485      4.184185      1.171938
  H      -0.506818      2.251774      3.614596
  H       0.169413      3.909943      3.584042
  H       1.229020      2.509407      3.984806
  H       2.253967      3.509469      0.453217
  H       2.862022      3.252816      2.122517
  H       1.771180      4.641333      1.763165
  Si      3.467654     -2.346088      0.444406
  C       4.956422     -1.284532      0.908208
  C       2.551335     -2.911829      1.998468
  C       3.953327     -3.798425     -0.675621
  H       4.596797     -0.401543      1.480706
  H       5.526394     -0.939298      0.021257
  H       5.650299     -1.861616      1.554758
  H       1.611339     -3.447326      1.755577
  H       2.299181     -2.021616      2.611754
  H       3.191758     -3.589010      2.601396
  H       3.061026     -4.376311     -0.993125
  H       4.636376     -4.494583     -0.145425
  H       4.471489     -3.445333     -1.590888
  H       2.506677     -1.506198     -0.389744
51
Coordinates from ORCA-job my_molecule E -1977.846650718243
  Pt     -1.609321     -0.358057      0.978820
  O       0.051775     -0.071941      1.922266
  O      -3.632488     -0.531478      0.351554
  P       1.290718      0.957463      1.578683
  P      -3.225436     -1.160445     -1.029868
  O      -3.905047     -2.614241     -1.308468
  O      -1.645940     -1.288263     -0.839484
  O       1.438727      0.900408     -0.053057
  O       2.504767      0.567863      2.387378
  C       0.762218      2.720070      1.849131
  C      -3.723614     -0.206865     -2.518223
  C      -3.143133     -0.897805     -3.768108
  C      -3.135892      1.209967     -2.350465
  C      -5.265549     -0.161121     -2.561442
  C      -0.406641      3.135487      0.942290
  C       0.378521      2.846983      3.337598
  C       2.010050      3.580969      1.551020
  H      -3.754705     -3.221779     -0.553996
  H       1.883736      0.050088     -0.280480
  H      -2.041152     -0.996249     -3.702918
  H      -3.376451     -0.281468     -4.661140
  H      -3.575259     -1.906590     -3.919864
  H      -2.030483      1.183678     -2.277968
  H      -3.532598      1.707350     -1.444278
  H      -3.410921      1.823136     -3.233053
  H      -5.700900     -1.174366     -2.654344
  H      -5.586208      0.434462     -3.441473
  H      -5.686046      0.319513     -1.654761
  H      -1.308226      2.502612      1.106452
  H      -0.133397      3.055578     -0.127967
  H      -0.683185      4.190241      1.152876
  H      -0.527517      2.259788      3.591383
  H       0.164775      3.910467      3.575145
  H       1.204649      2.505143      3.992631
  H       2.300451      3.509416      0.484095
  H       2.871320      3.257749      2.166854
  H       1.786028      4.645125      1.776866
  Si      3.463803     -2.340932      0.447745
  C       4.958279     -1.299442      0.941507
  C       2.529082     -2.910916      1.986030
  C       3.951409     -3.782580     -0.684214
  H       4.605520     -0.413624      1.513545
  H       5.547394     -0.961514      0.063860
  H       5.633775     -1.890416      1.595719
  H       1.582514     -3.429228      1.733174
  H       2.282582     -2.024045      2.605848
  H       3.156429     -3.602849      2.586023
  H       3.058098     -4.353561     -1.011161
  H       4.631739     -4.486357     -0.160611
  H       4.474029     -3.419983     -1.593259
  H       2.517721     -1.487441     -0.387892
51
Coordinates from ORCA-job my_molecule E -1977.846489234500
  Pt     -1.595136     -0.351371      0.964976
  O       0.070440     -0.074000      1.904034
  O      -3.619835     -0.521773      0.341487
  P       1.306852      0.963258      1.573001
  P      -3.219003     -1.153159     -1.040908
  O      -3.889150     -2.613664     -1.308865
  O      -1.637856     -1.267406     -0.861722
  O       1.461803      0.919351     -0.058013
  O       2.516809      0.569974      2.386171
  C       0.773410      2.723206      1.851502
  C      -3.738384     -0.209333     -2.528199
  C      -3.152075     -0.891073     -3.780357
  C      -3.172474      1.216656     -2.363279
  C      -5.280991     -0.188401     -2.565539
  C      -0.402396      3.137458      0.953665
  C       0.399060      2.844612      3.342839
  C       2.016683      3.589645      1.548567
  H      -3.727415     -3.217168     -0.553492
  H       1.903776      0.067698     -0.285451
  H      -2.047680     -0.965543     -3.723420
  H      -3.405107     -0.282722     -4.673467
  H      -3.562574     -1.909788     -3.925448
  H      -2.066254      1.207034     -2.299373
  H      -3.569908      1.706557     -1.453369
  H      -3.463257      1.826886     -3.242852
  H      -5.699870     -1.208429     -2.660619
  H      -5.614962      0.405065     -3.442044
  H      -5.705733      0.281044     -1.655061
  H      -1.303131      2.505505      1.125905
  H      -0.138138      3.055532     -0.118776
  H      -0.676656      4.192735      1.164512
  H      -0.496013      2.243924      3.604089
  H       0.170588      3.904694      3.582031
  H       1.235283      2.514995      3.991145
  H       2.293152      3.532334      0.477128
  H       2.886084      3.259315      2.149116
  H       1.794353      4.650450      1.791190
  Si      3.463288     -2.341622      0.457216
  C       4.963403     -1.315766      0.966839
  C       2.520846     -2.911467      1.991118
  C       3.944870     -3.780210     -0.681508
  H       4.614812     -0.423266      1.531908
  H       5.569136     -0.986965      0.097074
  H       5.621710     -1.914810      1.631266
  H       1.570885     -3.421702      1.734418
  H       2.279782     -2.026377      2.615229
  H       3.141983     -3.611514      2.588173
  H       3.047504     -4.335937     -1.023375
  H       4.610680     -4.498171     -0.158588
  H       4.480856     -3.415224     -1.581804
  H       2.525947     -1.481065     -0.379072
51
Coordinates from ORCA-job my_molecule E -1977.846399695035
  Pt     -1.575645     -0.356277      0.948222
  O       0.090961     -0.078702      1.883846
  O      -3.602700     -0.543357      0.336466
  P       1.323904      0.965905      1.564211
  P      -3.203579     -1.150439     -1.057328
  O      -3.847118     -2.621176     -1.335582
  O      -1.618772     -1.234767     -0.896324
  O       1.491602      0.924247     -0.065293
  O       2.527479      0.575353      2.388102
  C       0.784172      2.724644      1.839333
  C      -3.758496     -0.200431     -2.527840
  C      -3.156800     -0.843602     -3.793037
  C      -3.236581      1.239783     -2.342414
  C      -5.301101     -0.227072     -2.559343
  C      -0.392896      3.133364      0.940725
  C       0.409592      2.847565      3.330515
  C       2.024569      3.595084      1.535282
  H      -3.661461     -3.231039     -0.590859
  H       1.929691      0.069858     -0.290516
  H      -2.050020     -0.878208     -3.744988
  H      -3.438710     -0.233449     -4.676219
  H      -3.530540     -1.874808     -3.948869
  H      -2.130075      1.263249     -2.287256
  H      -3.641610      1.701345     -1.421079
  H      -3.552783      1.855770     -3.209102
  H      -5.687952     -1.256704     -2.682480
  H      -5.657286      0.380604     -3.417126
  H      -5.736602      0.201877     -1.634065
  H      -1.294461      2.504986      1.120835
  H      -0.131640      3.041365     -0.131663
  H      -0.664261      4.191035      1.142908
  H      -0.475311      2.233704      3.595907
  H       0.163950      3.904903      3.564815
  H       1.251658      2.534028      3.979120
  H       2.293253      3.547790      0.461410
  H       2.898603      3.260067      2.126542
  H       1.803060      4.653377      1.789302
  Si      3.466401     -2.351133      0.473782
  C       4.969317     -1.334594      0.994751
  C       2.510336     -2.912587      2.002499
  C       3.946726     -3.794108     -0.659994
  H       4.622467     -0.435902      1.550851
  H       5.588391     -1.015785      0.130679
  H       5.614037     -1.936105      1.670127
  H       1.558100     -3.416435      1.741499
  H       2.272076     -2.025714      2.625139
  H       3.123529     -3.616720      2.603020
  H       3.047041     -4.335664     -1.018181
  H       4.593188     -4.523347     -0.128541
  H       4.502242     -3.434340     -1.550510
  H       2.540053     -1.487440     -0.371282
51
Coordinates from ORCA-job my_molecule E -1977.846311877965
  Pt     -1.558430     -0.361041      0.936512
  O       0.111691     -0.083055      1.866028
  O      -3.586626     -0.565845      0.332712
  P       1.341078      0.968369      1.556930
  P      -3.187917     -1.146356     -1.072264
  O      -3.801374     -2.627689     -1.363078
  O      -1.599971     -1.197403     -0.928191
  O       1.520970      0.926144     -0.071038
  O       2.538318      0.581806      2.391781
  C       0.796100      2.726614      1.826094
  C      -3.778907     -0.191109     -2.525343
  C      -3.157863     -0.791158     -3.802356
  C      -3.307584      1.263201     -2.315873
  C      -5.319689     -0.271151     -2.555277
  C      -0.379171      3.130541      0.922900
  C       0.416698      2.851877      3.315808
  C       2.035381      3.599626      1.524474
  H      -3.590195     -3.243710     -0.630299
  H       1.954479      0.068624     -0.294290
  H      -2.050417     -0.783520     -3.758860
  H      -3.467234     -0.179486     -4.675248
  H      -3.492087     -1.833584     -3.972492
  H      -2.202447      1.324368     -2.260806
  H      -3.727748      1.694927     -1.386850
  H      -3.645364      1.882090     -3.172271
  H      -5.670110     -1.309692     -2.708475
  H      -5.698879      0.348968     -3.394066
  H      -5.768277      0.114613     -1.617253
  H      -1.283097      2.507749      1.109592
  H      -0.118199      3.026218     -0.148461
  H      -0.646319      4.191328      1.113958
  H      -0.459617      2.226376      3.582652
  H       0.154803      3.906626      3.544107
  H       1.261736      2.553545      3.967608
  H       2.301395      3.559340      0.449670
  H       2.911054      3.261330      2.111519
  H       1.813961      4.656174      1.785703
  Si      3.468829     -2.361786      0.488660
  C       4.973912     -1.353232      1.019496
  C       2.498709     -2.913754      2.011876
  C       3.948314     -3.810275     -0.638411
  H       4.628615     -0.448989      1.567211
  H       5.604525     -1.044203      0.160259
  H       5.606681     -1.956045      1.704922
  H       1.544240     -3.411161      1.746641
  H       2.263223     -2.024593      2.632252
  H       3.103622     -3.621473      2.616634
  H       3.046944     -4.336827     -1.014336
  H       4.573148     -4.550761     -0.096785
  H       4.525462     -3.457488     -1.517886
  H       2.553636     -1.495068     -0.365790
51
Coordinates from ORCA-job my_molecule E -1977.846219998302
  Pt     -1.540264     -0.359197      0.919201
  O       0.130818     -0.082464      1.846469
  O      -3.570002     -0.568968      0.323535
  P       1.356626      0.975954      1.551665
  P      -3.176546     -1.141316     -1.086146
  O      -3.772093     -2.630573     -1.373692
  O      -1.586686     -1.169580     -0.956979
  O       1.548590      0.941089     -0.074864
  O       2.549983      0.589625      2.392565
  C       0.804208      2.730813      1.825570
  C      -3.795429     -0.191397     -2.530863
  C      -3.183315     -0.781625     -3.816813
  C      -3.338135      1.267732     -2.324828
  C      -5.335605     -0.289612     -2.542227
  C      -0.367449      3.135674      0.918145
  C       0.416763      2.846843      3.314134
  C       2.042305      3.609697      1.535324
  H      -3.540326     -3.246209     -0.646852
  H       1.978858      0.082267     -0.299073
  H      -2.075623     -0.753062     -3.791925
  H      -3.518418     -0.177588     -4.685509
  H      -3.500424     -1.830510     -3.979600
  H      -2.233113      1.339493     -2.280689
  H      -3.752900      1.696278     -1.391913
  H      -3.689557      1.883251     -3.178164
  H      -5.675281     -1.330796     -2.701776
  H      -5.732786      0.334295     -3.369699
  H      -5.776503      0.080223     -1.594193
  H      -1.275300      2.519954      1.107608
  H      -0.106026      3.022860     -0.152276
  H      -0.628961      4.199120      1.102537
  H      -0.449068      2.204482      3.575408
  H       0.134491      3.895986      3.543526
  H       1.264165      2.560353      3.967989
  H       2.306838      3.586223      0.459701
  H       2.919047      3.263438      2.116272
  H       1.820621      4.661865      1.813375
  Si      3.472783     -2.365289      0.497692
  C       4.981947     -1.368308      1.038250
  C       2.491187     -2.912476      2.016013
  C       3.947148     -3.816677     -0.628191
  H       4.639167     -0.458722      1.578522
  H       5.624882     -1.068118      0.185096
  H       5.601129     -1.974554      1.732955
  H       1.535206     -3.404160      1.745574
  H       2.258664     -2.023081      2.637226
  H       3.088868     -3.625070      2.622325
  H       3.043452     -4.326264     -1.021541
  H       4.550385     -4.570471     -0.080525
  H       4.543690     -3.468945     -1.496669
  H       2.567989     -1.492486     -0.361672
51
Coordinates from ORCA-job my_molecule E -1977.846089685801
  Pt     -1.522800     -0.357916      0.902716
  O       0.150731     -0.082582      1.826474
  O      -3.553990     -0.575393      0.315872
  P       1.372432      0.983479      1.544830
  P      -3.165278     -1.137882     -1.098997
  O      -3.744555     -2.633497     -1.386987
  O      -1.574113     -1.146313     -0.982804
  O       1.575631      0.956653     -0.080483
  O       2.562110      0.597769      2.391301
  C       0.810969      2.734536      1.823275
  C      -3.809060     -0.190686     -2.534340
  C      -3.201954     -0.767695     -3.828580
  C      -3.368298      1.273276     -2.326451
  C      -5.347999     -0.308308     -2.531428
  C      -0.360446      3.136577      0.914309
  C       0.419619      2.843510      3.311485
  C       2.045477      3.620583      1.538942
  H      -3.492375     -3.250620     -0.668244
  H       2.002415      0.096511     -0.305192
  H      -2.094817     -0.717328     -3.818412
  H      -3.560524     -0.169908     -4.692220
  H      -3.500677     -1.822438     -3.988265
  H      -2.263998      1.357680     -2.285933
  H      -3.784523      1.695590     -1.391360
  H      -3.729359      1.886400     -3.177484
  H      -5.676340     -1.351382     -2.702244
  H      -5.761150      0.322349     -3.345811
  H      -5.783763      0.042718     -1.573910
  H      -1.270013      2.525425      1.109351
  H      -0.100900      3.015586     -0.155671
  H      -0.618761      4.201944      1.092080
  H      -0.435063      2.185621      3.570907
  H       0.118590      3.887329      3.541081
  H       1.270750      2.570115      3.966000
  H       2.306406      3.610458      0.462234
  H       2.925117      3.270419      2.113167
  H       1.821628      4.668812      1.829833
  Si      3.475469     -2.369478      0.507448
  C       4.989906     -1.385474      1.057300
  C       2.483432     -2.910645      2.021300
  C       3.943404     -3.823101     -0.618550
  H       4.651549     -0.469122      1.588558
  H       5.646605     -1.097925      0.210365
  H       5.593411     -1.995045      1.762801
  H       1.524919     -3.395085      1.746738
  H       2.255328     -2.020517      2.643547
  H       3.073417     -3.628865      2.628599
  H       3.037318     -4.315569     -1.027927
  H       4.525979     -4.590043     -0.066849
  H       4.557551     -3.480022     -1.476552
  H       2.580590     -1.490503     -0.355819
51
Coordinates from ORCA-job my_molecule E -1977.845960435373
  Pt     -1.504288     -0.362489      0.886171
  O       0.170233     -0.084397      1.806380
  O      -3.536858     -0.586076      0.308147
  P       1.385926      0.990789      1.537517
  P      -3.153320     -1.137712     -1.112332
  O      -3.720020     -2.637566     -1.403106
  O      -1.561247     -1.130016     -1.008037
  O       1.600132      0.971793     -0.086403
  O       2.572939      0.607968      2.389188
  C       0.812863      2.737054      1.820645
  C      -3.818895     -0.189575     -2.536814
  C      -3.229033     -0.760883     -3.841408
  C      -3.378969      1.274960     -2.331309
  C      -5.357387     -0.311916     -2.511834
  C      -0.357035      3.136387      0.908470
  C       0.414904      2.836920      3.307894
  C       2.043351      3.631799      1.545397
  H      -3.451241     -3.257016     -0.692434
  H       2.024261      0.110820     -0.312197
  H      -2.122434     -0.699645     -3.851470
  H      -3.608914     -0.166834     -4.698513
  H      -3.520384     -1.818444     -3.995796
  H      -2.274413      1.360579     -2.302474
  H      -3.785433      1.696032     -1.391388
  H      -3.749675      1.888699     -3.177746
  H      -5.685356     -1.354513     -2.686714
  H      -5.784476      0.324473     -3.314444
  H      -5.779443      0.029400     -1.544738
  H      -1.268165      2.528983      1.106883
  H      -0.097436      3.008712     -0.160722
  H      -0.613225      4.203232      1.080516
  H      -0.427987      2.162306      3.563060
  H       0.093334      3.874386      3.538128
  H       1.268711      2.576909      3.964260
  H       2.303707      3.634858      0.468527
  H       2.924787      3.279444      2.115592
  H       1.815044      4.675729      1.848024
  Si      3.479368     -2.372450      0.516452
  C       4.998607     -1.399367      1.072828
  C       2.478905     -2.907585      2.027343
  C       3.941328     -3.828777     -0.608869
  H       4.664267     -0.476374      1.594707
  H       5.667686     -1.124668      0.231423
  H       5.587719     -2.010593      1.788993
  H       1.518497     -3.386554      1.749798
  H       2.254189     -2.016618      2.649817
  H       3.062780     -3.629716      2.635993
  H       3.033597     -4.304717     -1.033905
  H       4.503253     -4.607878     -0.052843
  H       4.572702     -3.491120     -1.456449
  H       2.592545     -1.488735     -0.350211
51
Coordinates from ORCA-job my_molecule E -1977.845811204331
  Pt     -1.483922     -0.370141      0.868205
  O       0.192622     -0.088307      1.783811
  O      -3.517447     -0.610684      0.300902
  P       1.401756      0.996715      1.527861
  P      -3.137359     -1.138365     -1.129466
  O      -3.682541     -2.643450     -1.434131
  O      -1.544642     -1.106085     -1.038649
  O       1.628923      0.982943     -0.094378
  O       2.584522      0.619146      2.387700
  C       0.816186      2.738700      1.810993
  C      -3.832023     -0.183534     -2.535307
  C      -3.252570     -0.732686     -3.853870
  C      -3.407771      1.284131     -2.318983
  C      -5.368416     -0.325799     -2.491429
  C      -0.352149      3.131742      0.893947
  C       0.410870      2.833601      3.296649
  C       2.041991      3.642066      1.542540
  H      -3.393273     -3.268405     -0.736440
  H       2.049742      0.120351     -0.319822
  H      -2.147623     -0.650490     -3.881278
  H      -3.657471     -0.138773     -4.699573
  H      -3.526906     -1.794048     -4.013069
  H      -2.304083      1.382716     -2.300198
  H      -3.809663      1.690741     -1.370741
  H      -3.794320      1.901991     -3.155270
  H      -5.686038     -1.369090     -2.680923
  H      -5.814297      0.319830     -3.276245
  H      -5.781224     -0.007111     -1.512704
  H      -1.263433      2.525834      1.095347
  H      -0.090893      2.997200     -0.173996
  H      -0.608923      4.199546      1.059002
  H      -0.422466      2.146008      3.548555
  H       0.072435      3.866056      3.525130
  H       1.265670      2.585914      3.956381
  H       2.302345      3.654701      0.465726
  H       2.925237      3.290320      2.110325
  H       1.807984      4.682489      1.852812
  Si      3.483986     -2.379438      0.530646
  C       5.007474     -1.416762      1.094095
  C       2.473330     -2.905540      2.037875
  C       3.941423     -3.839788     -0.591551
  H       4.677537     -0.485786      1.603938
  H       5.690259     -1.158218      0.258700
  H       5.580497     -2.027974      1.823236
  H       1.510685     -3.378324      1.757433
  H       2.252097     -2.012447      2.658790
  H       3.049897     -3.631011      2.649586
  H       3.033164     -4.298226     -1.034367
  H       4.479917     -4.630970     -0.029482
  H       4.592648     -3.509323     -1.426848
  H       2.606257     -1.491965     -0.341464
51
Coordinates from ORCA-job my_molecule E -1977.845682519545
  Pt     -1.466981     -0.379631      0.854183
  O       0.210981     -0.092717      1.765213
  O      -3.500745     -0.631241      0.293271
  P       1.412598      1.002145      1.520018
  P      -3.123053     -1.139894     -1.144482
  O      -3.652191     -2.648209     -1.461085
  O      -1.530169     -1.089009     -1.062963
  O       1.649215      0.993546     -0.100939
  O       2.593663      0.630642      2.384931
  C       0.814411      2.739357      1.804835
  C      -3.839216     -0.178893     -2.535057
  C      -3.281686     -0.720551     -3.865997
  C      -3.411817      1.287781     -2.318201
  C      -5.374652     -0.322643     -2.466080
  C      -0.352320      3.127481      0.883523
  C       0.401853      2.827061      3.289012
  C       2.035438      3.651737      1.544500
  H      -3.349113     -3.277289     -0.773047
  H       2.067996      0.130143     -0.326957
  H      -2.177951     -0.631726     -3.914600
  H      -3.706100     -0.126294     -4.701862
  H      -3.553057     -1.782870     -4.023539
  H      -2.307944      1.385527     -2.315123
  H      -3.799380      1.690667     -1.362404
  H      -3.810302      1.909570     -3.145933
  H      -5.695027     -1.364675     -2.658286
  H      -5.834336      0.328697     -3.238093
  H      -5.770461     -0.011979     -1.477847
  H      -1.263513      2.522098      1.086121
  H      -0.089037      2.988773     -0.183390
  H      -0.610478      4.195667      1.044045
  H      -0.422358      2.126846      3.536220
  H       0.047474      3.854121      3.517440
  H       1.257305      2.589672      3.951590
  H       2.297355      3.673435      0.468214
  H       2.919829      3.301404      2.111441
  H       1.794912      4.688601      1.861613
  Si      3.488526     -2.384133      0.541607
  C       5.015550     -1.428570      1.107562
  C       2.472986     -2.903709      2.047972
  C       3.941405     -3.847638     -0.578656
  H       4.689284     -0.490548      1.606244
  H       5.708597     -1.184229      0.276452
  H       5.576103     -2.038088      1.847751
  H       1.508912     -3.373172      1.766827
  H       2.254323     -2.008904      2.667367
  H       3.045636     -3.630591      2.661738
  H       3.033158     -4.290270     -1.037324
  H       4.458795     -4.649504     -0.011960
  H       4.609890     -3.523629     -1.402762
  H       2.615689     -1.494365     -0.333103
51
Coordinates from ORCA-job my_molecule E -1977.845542013273
  Pt     -1.446035     -0.394595      0.837280
  O       0.233643     -0.100036      1.742749
  O      -3.479012     -0.672815      0.284992
  P       1.426777      1.005773      1.508834
  P      -3.101951     -1.142062     -1.166112
  O      -3.600461     -2.654619     -1.511100
  O      -1.509733     -1.057802     -1.096371
  O       1.675927      0.998042     -0.110356
  O       2.603594      0.643475      2.383364
  C       0.815314      2.739149      1.788575
  C      -3.852089     -0.167684     -2.529140
  C      -3.307982     -0.677431     -3.878006
  C      -3.442935      1.301225     -2.292733
  C      -5.383938     -0.335999     -2.438785
  C      -0.348594      3.118572      0.859877
  C       0.393348      2.825107      3.270222
  C       2.031546      3.659733      1.534522
  H      -3.277035     -3.291725     -0.839924
  H       2.091670      0.132717     -0.334819
  H      -2.207116     -0.566930     -3.944238
  H      -3.758043     -0.078035     -4.696642
  H      -3.562580     -1.741865     -4.048344
  H      -2.340731      1.415326     -2.305074
  H      -3.821155      1.681208     -1.323843
  H      -3.863834      1.931579     -3.102696
  H      -5.692189     -1.378393     -2.648389
  H      -5.865570      0.324762     -3.189126
  H      -5.768172     -0.052261     -1.437997
  H      -1.258307      2.511044      1.061923
  H      -0.080120      2.975765     -0.205202
  H      -0.611325      4.186523      1.014376
  H      -0.424874      2.116556      3.513543
  H       0.026997      3.848736      3.495135
  H       1.247178      2.596911      3.938037
  H       2.297001      3.685589      0.459171
  H       2.916185      3.313852      2.103805
  H       1.783273      4.694372      1.852961
  Si      3.493861     -2.394242      0.559893
  C       5.023328     -1.445018      1.129932
  C       2.470048     -2.902918      2.064089
  C       3.944401     -3.863500     -0.553988
  H       4.700492     -0.498676      1.614243
  H       5.728243     -1.217932      0.304019
  H       5.569591     -2.050708      1.883849
  H       1.504397     -3.368479      1.781833
  H       2.253611     -2.004559      2.679191
  H       3.036970     -3.630125      2.682802
  H       3.037810     -4.289917     -1.030948
  H       4.437391     -4.675234      0.020316
  H       4.633330     -3.548747     -1.364719
  H       2.627854     -1.503710     -0.320981
51
Coordinates from ORCA-job my_molecule E -1977.845418606592
  Pt     -1.433127     -0.405395      0.827872
  O       0.249089     -0.105854      1.727448
  O      -3.465236     -0.695924      0.278103
  P       1.434339      1.009014      1.500577
  P      -3.088192     -1.142698     -1.179921
  O      -3.569757     -2.656698     -1.542200
  O      -1.496587     -1.040141     -1.115326
  O       1.689586      1.004035     -0.117992
  O       2.611305      0.654422      2.378077
  C       0.810619      2.737907      1.780032
  C      -3.856349     -0.160155     -2.526799
  C      -3.332288     -0.660993     -3.886852
  C      -3.443991      1.307330     -2.287194
  C      -5.386676     -0.329947     -2.414564
  C      -0.352403      3.110498      0.847353
  C       0.382515      2.818755      3.260192
  C       2.021466      3.667190      1.531710
  H      -3.236667     -3.298372     -0.880181
  H       2.103917      0.138043     -0.342147
  H      -2.232994     -0.546337     -3.970400
  H      -3.797368     -0.058714     -4.694915
  H      -3.586265     -1.725261     -4.058771
  H      -2.342153      1.421589     -2.315283
  H      -3.807489      1.681376     -1.310337
  H      -3.877365      1.942765     -3.086550
  H      -5.697812     -1.371155     -2.626175
  H      -5.879875      0.335280     -3.153342
  H      -5.755457     -0.052811     -1.406203
  H      -1.260075      2.499862      1.048740
  H      -0.080795      2.966796     -0.216803
  H      -0.620317      4.177565      0.999341
  H      -0.429754      2.101945      3.499259
  H       0.005787      3.838615      3.484956
  H       1.235905      2.597080      3.930710
  H       2.289856      3.697547      0.457201
  H       2.906747      3.325881      2.102805
  H       1.765519      4.699388      1.851994
  Si      3.498573     -2.400423      0.571925
  C       5.030990     -1.454706      1.139555
  C       2.475436     -2.903333      2.078405
  C       3.944599     -3.872546     -0.540397
  H       4.711749     -0.500838      1.610840
  H       5.743693     -1.242798      0.316376
  H       5.567199     -2.055525      1.904511
  H       1.508626     -3.367910      1.798481
  H       2.261415     -2.002629      2.690998
  H       3.041460     -3.629780      2.698848
  H       3.038950     -4.284508     -1.031633
  H       4.418027     -4.693496      0.037213
  H       4.648703     -3.564157     -1.340470
  H       2.632921     -1.509779     -0.309070
51
Coordinates from ORCA-job my_molecule E -1977.845282872197
  Pt     -1.417556     -0.414735      0.816178
  O       0.267226     -0.110735      1.710005
  O      -3.449255     -0.722594      0.272588
  P       1.444948      1.013150      1.490486
  P      -3.073882     -1.143625     -1.193411
  O      -3.537128     -2.658557     -1.575180
  O      -1.483189     -1.021289     -1.135729
  O       1.707146      1.010740     -0.127534
  O       2.621083      0.666006      2.371903
  C       0.809075      2.737846      1.768261
  C      -3.862825     -0.152280     -2.521659
  C      -3.348275     -0.632781     -3.892635
  C      -3.461303      1.316088     -2.269227
  C      -5.390358     -0.337380     -2.396144
  C      -0.351510      3.103131      0.829504
  C       0.372553      2.814827      3.246122
  C       2.015004      3.675199      1.526727
  H      -3.193105     -3.305239     -0.923726
  H       2.119192      0.143591     -0.351010
  H      -2.251070     -0.506414     -3.986088
  H      -3.827498     -0.025992     -4.688976
  H      -3.594036     -1.697340     -4.074048
  H      -2.361216      1.442057     -2.310981
  H      -3.814689      1.673986     -1.282584
  H      -3.912630      1.957183     -3.053995
  H      -5.694496     -1.378700     -2.617372
  H      -5.896769      0.332382     -3.121785
  H      -5.751345     -0.075507     -1.380934
  H      -1.256195      2.486925      1.026834
  H      -0.073758      2.961280     -0.233301
  H      -0.627089      4.168447      0.980353
  H      -0.437155      2.093318      3.479574
  H      -0.010440      3.832488      3.470250
  H       1.223293      2.596456      3.921079
  H       2.289347      3.707287      0.453747
  H       2.899316      3.340052      2.102946
  H       1.750241      4.705746      1.845185
  Si      3.501837     -2.408185      0.585585
  C       5.038415     -1.468602      1.151983
  C       2.478310     -2.903506      2.093735
  C       3.941907     -3.883149     -0.525748
  H       4.724741     -0.505981      1.608164
  H       5.760557     -1.275287      0.332539
  H       5.561904     -2.064362      1.929620
  H       1.509280     -3.364904      1.816214
  H       2.268455     -1.999790      2.703592
  H       3.041852     -3.630244      2.716089
  H       3.037272     -4.278885     -1.031959
  H       4.394032     -4.714194      0.054438
  H       4.661882     -3.581856     -1.314322
  H       2.637906     -1.516069     -0.295356
51
Coordinates from ORCA-job my_molecule E -1977.845171331889
  Pt     -1.407654     -0.419070      0.809828
  O       0.279622     -0.113030      1.698709
  O      -3.440329     -0.728767      0.271073
  P       1.450748      1.018203      1.482876
  P      -3.068481     -1.145047     -1.197155
  O      -3.531798     -2.658867     -1.582924
  O      -1.477499     -1.022396     -1.143028
  O       1.714014      1.020964     -0.135737
  O       2.629952      0.676281      2.362029
  C       0.803610      2.737996      1.764501
  C      -3.861388     -0.149413     -2.519724
  C      -3.356797     -0.629817     -3.894490
  C      -3.453844      1.317395     -2.268104
  C      -5.388745     -0.329894     -2.385035
  C      -0.356079      3.098562      0.822726
  C       0.361364      2.807342      3.240975
  C       2.004282      3.683755      1.530050
  H      -3.186671     -3.307669     -0.934198
  H       2.125337      0.153894     -0.360348
  H      -2.259610     -0.507872     -3.993912
  H      -3.837858     -0.019489     -4.686985
  H      -3.608254     -1.692927     -4.076396
  H      -2.354069      1.441525     -2.320937
  H      -3.795931      1.673769     -1.276879
  H      -3.912496      1.961266     -3.046334
  H      -5.697530     -1.370489     -2.603351
  H      -5.897250      0.340709     -3.108429
  H      -5.742717     -0.065641     -1.368004
  H      -1.256882      2.475003      1.014399
  H      -0.073431      2.963405     -0.239633
  H      -0.640499      4.161096      0.977241
  H      -0.446751      2.081968      3.467760
  H      -0.025442      3.822848      3.468216
  H       1.210212      2.588588      3.918218
  H       2.284412      3.718307      0.458629
  H       2.887710      3.354474      2.110999
  H       1.730797      4.712350      1.847461
  Si      3.503857     -2.411468      0.591821
  C       5.045956     -1.477379      1.152179
  C       2.486770     -2.903610      2.104947
  C       3.934795     -3.886770     -0.523178
  H       4.738892     -0.506526      1.594765
  H       5.774272     -1.301221      0.334404
  H       5.559826     -2.068020      1.940071
  H       1.515295     -3.362816      1.832361
  H       2.282329     -1.998334      2.714329
  H       3.051001     -3.631029      2.725861
  H       3.029867     -4.266732     -1.040814
  H       4.369290     -4.728010      0.055743
  H       4.666434     -3.590426     -1.302850
  H       2.637362     -1.516975     -0.283732
51
Coordinates from ORCA-job my_molecule E -1977.845054992762
  Pt     -1.393141     -0.428403      0.799560
  O       0.295752     -0.117644      1.683667
  O      -3.426042     -0.750126      0.268093
  P       1.459190      1.022293      1.473075
  P      -3.058237     -1.147668     -1.206288
  O      -3.512504     -2.660424     -1.606490
  O      -1.467727     -1.014511     -1.158522
  O       1.726686      1.028131     -0.145464
  O       2.638895      0.687560      2.354093
  C       0.800436      2.737788      1.754550
  C      -3.864468     -0.143324     -2.514171
  C      -3.366904     -0.608557     -3.896734
  C      -3.462468      1.323079     -2.251633
  C      -5.389970     -0.332596     -2.370956
  C      -0.356694      3.092770      0.807396
  C       0.350247      2.802123      3.228781
  C       1.996433      3.691056      1.527390
  H      -3.160213     -3.313847     -0.966326
  H       2.136754      0.160684     -0.370672
  H      -2.270635     -0.482628     -4.001124
  H      -3.854174      0.008495     -4.680178
  H      -3.616774     -1.670366     -4.087963
  H      -2.364211      1.454683     -2.315887
  H      -3.794962      1.666652     -1.252590
  H      -3.934340      1.972399     -3.017333
  H      -5.694982     -1.373153     -2.594776
  H      -5.906359      0.340604     -3.086326
  H      -5.738758     -0.077221     -1.349897
  H      -1.252704      2.459883      0.990536
  H      -0.066293      2.965977     -0.253888
  H      -0.651849      4.151804      0.965900
  H      -0.458696      2.075573      3.448637
  H      -0.038046      3.816779      3.457299
  H       1.195493      2.581807      3.910056
  H       2.284598      3.725362      0.458066
  H       2.877649      3.368920      2.115634
  H       1.713680      4.718474      1.840506
  Si      3.506070     -2.417312      0.602515
  C       5.052777     -1.488328      1.158960
  C       2.491118     -2.903037      2.118625
  C       3.930076     -3.895063     -0.512341
  H       4.752020     -0.508982      1.586176
  H       5.787906     -1.330869      0.343538
  H       5.556288     -2.072298      1.958425
  H       1.517033     -3.358872      1.849725
  H       2.291766     -1.995044      2.725655
  H       3.053872     -3.630831      2.740416
  H       3.026233     -4.259970     -1.042546
  H       4.345314     -4.745049      0.067895
  H       4.675041     -3.605871     -1.282014
  H       2.639824     -1.520905     -0.271049
51
Coordinates from ORCA-job my_molecule E -1977.844956136679
  Pt     -1.385733     -0.431926      0.794915
  O       0.305749     -0.120308      1.674470
  O      -3.419806     -0.754440      0.268484
  P       1.463075      1.026016      1.465441
  P      -3.055723     -1.149420     -1.207468
  O      -3.513744     -2.660204     -1.610424
  O      -1.464631     -1.019957     -1.162476
  O       1.729622      1.036212     -0.153988
  O       2.646517      0.696523      2.343167
  C       0.794351      2.737058      1.750714
  C      -3.861867     -0.140169     -2.511582
  C      -3.369670     -0.605289     -3.896162
  C      -3.454139      1.324486     -2.248247
  C      -5.387649     -0.324184     -2.364424
  C      -0.362565      3.087855      0.801743
  C       0.340120      2.794529      3.223894
  C       1.985351      3.697691      1.529005
  H      -3.161622     -3.316006     -0.972621
  H       2.139786      0.169361     -0.380836
  H      -2.272808     -0.485792     -4.001974
  H      -3.854412      0.016660     -4.677276
  H      -3.626425     -1.665060     -4.089466
  H      -2.356052      1.453846     -2.319204
  H      -3.779217      1.666607     -1.246231
  H      -3.929576      1.976705     -3.009269
  H      -5.696771     -1.364164     -2.585372
  H      -5.903366      0.349317     -3.079994
  H      -5.733051     -0.065425     -1.343090
  H      -1.253358      2.445557      0.977574
  H      -0.067316      2.971018     -0.259325
  H      -0.668200      4.143006      0.966451
  H      -0.469534      2.066993      3.437641
  H      -0.048308      3.808269      3.456193
  H       1.183407      2.571029      3.906606
  H       2.279819      3.732025      0.461384
  H       2.865169      3.382279      2.122962
  H       1.694281      4.723846      1.838650
  Si      3.507966     -2.420171      0.608075
  C       5.059788     -1.494320      1.155977
  C       2.501207     -2.903616      2.130035
  C       3.923202     -3.898474     -0.509891
  H       4.765423     -0.507020      1.568845
  H       5.798412     -1.353892      0.340651
  H       5.556614     -2.070900      1.964906
  H       1.524592     -3.357417      1.866939
  H       2.307602     -1.994166      2.736575
  H       3.065467     -3.631895      2.749856
  H       3.019419     -4.249391     -1.049543
  H       4.322743     -4.756829      0.069005
  H       4.677971     -3.614573     -1.271953
  H       2.637890     -1.521883     -0.259341
51
Coordinates from ORCA-job my_molecule E -1977.844847631244
  Pt     -1.373396     -0.441508      0.786291
  O       0.319517     -0.125779      1.661406
  O      -3.407965     -0.772438      0.266711
  P       1.469309      1.028598      1.455836
  P      -3.048511     -1.151918     -1.214380
  O      -3.501867     -2.660695     -1.629603
  O      -1.457614     -1.016360     -1.175086
  O       1.738322      1.041231     -0.163728
  O       2.653943      0.706451      2.334461
  C       0.789833      2.735554      1.741137
  C      -3.863857     -0.133820     -2.505892
  C      -3.377845     -0.586950     -3.896666
  C      -3.458058      1.329628     -2.233115
  C      -5.388399     -0.322428     -2.352279
  C      -0.364222      3.081928      0.787007
  C       0.327804      2.787800      3.212020
  C       1.976615      3.702916      1.527019
  H      -3.144762     -3.320991     -0.999266
  H       2.148285      0.174613     -0.391707
  H      -2.281267     -0.467574     -4.005568
  H      -3.865007      0.042560     -4.670178
  H      -3.636495     -1.644635     -4.098514
  H      -2.361159      1.463357     -2.313309
  H      -3.774644      1.661539     -1.224922
  H      -3.942901      1.987138     -2.983581
  H      -5.695971     -1.362217     -2.576366
  H      -5.909172      0.352892     -3.062465
  H      -5.729569     -0.069032     -1.328209
  H      -1.249581      2.429454      0.952441
  H      -0.060799      2.975781     -0.272876
  H      -0.681219      4.132836      0.957333
  H      -0.484417      2.060991      3.418245
  H      -0.059764      3.801413      3.446350
  H       1.166964      2.560377      3.898561
  H       2.280412      3.735841      0.461947
  H       2.853198      3.394845      2.129527
  H       1.676520      4.728201      1.830922
  Si      3.511081     -2.425039      0.617883
  C       5.066869     -1.501599      1.159486
  C       2.508172     -2.903681      2.143618
  C       3.920186     -3.905912     -0.499408
  H       4.778174     -0.506421      1.556485
  H       5.809864     -1.379058      0.345281
  H       5.556200     -2.069391      1.979089
  H       1.529167     -3.354728      1.884731
  H       2.319374     -1.991960      2.748131
  H       3.072052     -3.632049      2.763634
  H       3.017936     -4.243959     -1.049724
  H       4.302816     -4.771050      0.080772
  H       4.686247     -3.629153     -1.252778
  H       2.639598     -1.525602     -0.246703
51
Coordinates from ORCA-job my_molecule E -1977.844747164296
  Pt     -1.368002     -0.444352      0.782327
  O       0.327423     -0.129020      1.653508
  O      -3.403859     -0.775349      0.267754
  P       1.471865      1.030755      1.448484
  P      -3.048161     -1.153038     -1.214656
  O      -3.506394     -2.659626     -1.632036
  O      -1.456610     -1.022323     -1.177970
  O       1.739313      1.046766     -0.171986
  O       2.660042      0.713593      2.323875
  C       0.783798      2.733817      1.736974
  C      -3.862076     -0.130055     -2.503179
  C      -3.379526     -0.583170     -3.895221
  C      -3.450849      1.331649     -2.229213
  C      -5.387054     -0.313338     -2.347662
  C      -0.369382      3.077033      0.780688
  C       0.317414      2.779839      3.206611
  C       1.966441      3.707299      1.528527
  H      -3.150107     -3.322241     -1.003690
  H       2.150090      0.181091     -0.401746
  H      -2.282193     -0.470711     -4.003945
  H      -3.862687      0.051387     -4.667090
  H      -3.645150     -1.638654     -4.099448
  H      -2.354029      1.463025     -2.314052
  H      -3.761967      1.662334     -1.218891
  H      -3.937537      1.991897     -2.976078
  H      -5.698384     -1.352643     -2.568887
  H      -5.906220      0.362008     -3.058996
  H      -5.726270     -0.056272     -1.323877
  H      -1.249425      2.415261      0.937592
  H      -0.060691      2.981739     -0.278695
  H      -0.696634      4.123721      0.957651
  H      -0.497215      2.053973      3.406392
  H      -0.068151      3.793323      3.444785
  H       1.153908      2.547394      3.894775
  H       2.277697      3.739041      0.465555
  H       2.840565      3.405771      2.137873
  H       1.658669      4.731742      1.827576
  Si      3.514176     -2.427505      0.623579
  C       5.074276     -1.505058      1.155535
  C       2.519906     -2.905238      2.155107
  C       3.915835     -3.909073     -0.496025
  H       4.791181     -0.502604      1.537753
  H       5.819288     -1.398731      0.340914
  H       5.558827     -2.063883      1.984044
  H       1.538626     -3.354488      1.901791
  H       2.336368     -1.992546      2.759567
  H       3.085695     -3.634153      2.772690
  H       3.014369     -4.234641     -1.055057
  H       4.283869     -4.781091      0.083255
  H       4.690904     -3.637845     -1.242172
  H       2.638027     -1.526808     -0.234612
51
Coordinates from ORCA-job my_molecule E -1977.844635039099
  Pt     -1.358331     -0.453292      0.775488
  O       0.338643     -0.135099      1.642345
  O      -3.394932     -0.789640      0.266983
  P       1.476221      1.031722      1.439455
  P      -3.043820     -1.154722     -1.219607
  O      -3.500196     -2.658914     -1.647192
  O      -1.452265     -1.020851     -1.187909
  O       1.745103      1.049358     -0.181265
  O       2.665785      0.721645      2.315296
  C       0.778654      2.731150      1.727694
  C      -3.863923     -0.123410     -2.497580
  C      -3.386535     -0.567120     -3.894486
  C      -3.452546      1.336732     -2.215665
  C      -5.388105     -0.308663     -2.337272
  C      -0.370765      3.071188      0.765717
  C       0.303769      2.772108      3.194707
  C       1.957933      3.710273      1.527655
  H      -3.140865     -3.325636     -1.024965
  H       2.156447      0.184323     -0.412358
  H      -2.289125     -0.457117     -4.005029
  H      -3.869734      0.074933     -4.660102
  H      -3.655871     -1.620161     -4.106211
  H      -2.356631      1.470543     -2.307796
  H      -3.756525      1.659292     -1.200525
  H      -3.945879      2.001815     -2.953834
  H      -5.699207     -1.347688     -2.560228
  H      -5.910390      0.368055     -3.045014
  H      -5.723971     -0.054755     -1.311622
  H      -1.245476      2.399779      0.911104
  H      -0.053465      2.987159     -0.292083
  H      -0.708894      4.113424      0.948429
  H      -0.514703      2.048386      3.386239
  H      -0.079432      3.785978      3.435110
  H       1.135346      2.534175      3.887003
  H       2.279739      3.740013      0.467745
  H       2.827652      3.415586      2.146550
  H       1.641797      4.734092      1.820086
  Si      3.518567     -2.431536      0.632695
  C       5.081829     -1.509206      1.156843
  C       2.529345     -2.906291      2.168327
  C       3.915255     -3.915495     -0.485994
  H       4.803476     -0.499645      1.522845
  H       5.829864     -1.419673      0.342990
  H       5.560758     -2.057705      1.995405
  H       1.545989     -3.353326      1.919211
  H       2.350084     -1.992015      2.771536
  H       3.095596     -3.635335      2.785275
  H       3.015797     -4.230017     -1.054487
  H       4.268146     -4.792844      0.094615
  H       4.700221     -3.651155     -1.224221
  H       2.639569     -1.530417     -0.221903
51
Coordinates from ORCA-job my_molecule E -1977.844524689281
  Pt     -1.354294     -0.456162      0.771800
  O       0.345028     -0.139151      1.635251
  O      -3.392264     -0.792097      0.268355
  P       1.477912      1.032301      1.432345
  P      -3.045055     -1.155235     -1.219586
  O      -3.506680     -2.657073     -1.649387
  O      -1.452857     -1.026463     -1.190632
  O       1.745458      1.052294     -0.189195
  O       2.670471      0.727127      2.305622
  C       0.772701      2.728337      1.722676
  C      -3.863432     -0.118827     -2.494517
  C      -3.389110     -0.562409     -3.892578
  C      -3.446557      1.339482     -2.211178
  C      -5.388073     -0.298631     -2.332758
  C      -0.374508      3.066067      0.757283
  C       0.291986      2.763705      3.187876
  C       1.948756      3.712523      1.529413
  H      -3.148615     -3.326169     -1.028995
  H       2.158273      0.188532     -0.421998
  H      -2.290970     -0.459412     -4.002699
  H      -3.867997      0.084692     -4.656626
  H      -3.665385     -1.613146     -4.106749
  H      -2.350686      1.470779     -2.307223
  H      -3.745735      1.660809     -1.194202
  H      -3.941034      2.007369     -2.946051
  H      -5.702941     -1.337094     -2.553126
  H      -5.908533      0.378292     -3.041643
  H      -5.722238     -0.041286     -1.307427
  H      -1.244108      2.385986      0.892919
  H      -0.050953      2.992983     -0.299436
  H      -0.722436      4.103992      0.946177
  H      -0.530142      2.042293      3.372127
  H      -0.088008      3.777957      3.431769
  H       1.119775      2.519590      3.882620
  H       2.279466      3.740493      0.472177
  H       2.814741      3.423914      2.156341
  H       1.625461      4.735753      1.816039
  Si      3.523416     -2.433602      0.638794
  C       5.089985     -1.510732      1.153508
  C       2.542339     -2.908690      2.179555
  C       3.914213     -3.918199     -0.481658
  H       4.816264     -0.494544      1.504214
  H       5.839938     -1.436554      0.339885
  H       5.564569     -2.049155      2.000966
  H       1.557042     -3.354022      1.935119
  H       2.367677     -1.994035      2.783361
  H       3.110408     -3.638602      2.793745
  H       3.016228     -4.221771     -1.058348
  H       4.253743     -4.801143      0.098397
  H       4.707447     -3.659249     -1.212931
  H       2.639313     -1.531817     -0.209393
51
Coordinates from ORCA-job my_molecule E -1977.844402839801
  Pt     -1.347312     -0.464098      0.766602
  O       0.353773     -0.145656      1.625840
  O      -3.386290     -0.802724      0.268562
  P       1.480690      1.031732      1.423985
  P      -3.043467     -1.156045     -1.222685
  O      -3.505593     -2.655272     -1.660667
  O      -1.451093     -1.026679     -1.198029
  O       1.749092      1.052596     -0.197871
  O       2.674616      0.733164      2.297513
  C       0.767197      2.724631      1.713593
  C      -3.865425     -0.111947     -2.489051
  C      -3.395419     -0.548544     -3.890833
  C      -3.446711      1.344568     -2.199280
  C      -5.389654     -0.291498     -2.323810
  C      -0.375301      3.060180      0.741830
  C       0.277146      2.755331      3.175762
  C       1.940710      3.713423      1.529492
  H      -3.146283     -3.328062     -1.045019
  H       2.163183      0.189820     -0.431984
  H      -2.296992     -0.449618     -4.001905
  H      -3.872663      0.105590     -4.649896
  H      -3.676579     -1.596664     -4.111283
  H      -2.351471      1.476697     -2.301007
  H      -3.739933      1.659646     -1.178594
  H      -3.945611      2.016832     -2.927145
  H      -5.705456     -1.329528     -2.544968
  H      -5.911630      0.386653     -3.030405
  H      -5.721146     -0.035668     -1.297253
  H      -1.239864      2.371412      0.865411
  H      -0.042792      2.998123     -0.312823
  H      -0.733363      4.093688      0.935926
  H      -0.549746      2.037207      3.351148
  H      -0.099392      3.770354      3.421859
  H       1.099201      2.504646      3.875028
  H       2.282854      3.739090      0.475815
  H       2.801253      3.430967      2.166603
  H       1.609840      4.736222      1.808954
  Si      3.529303     -2.436778      0.647284
  C       5.098123     -1.512427      1.153941
  C       2.553870     -2.910784      2.191983
  C       3.916326     -3.923180     -0.472575
  H       4.828191     -0.489874      1.488096
  H       5.850761     -1.454061      0.341521
  H       5.567832     -2.039491      2.011141
  H       1.566809     -3.354204      1.951247
  H       2.382984     -1.995352      2.795575
  H       3.122822     -3.641216      2.804685
  H       3.020675     -4.217347     -1.057681
  H       4.242643     -4.810382      0.108528
  H       4.718103     -3.670340     -1.196631
  H       2.641190     -1.535137     -0.196528
51
Coordinates from ORCA-job my_molecule E -1977.844279668169
  Pt     -1.344555     -0.467299      0.763163
  O       0.358769     -0.150711      1.619325
  O      -3.385006     -0.804774      0.270213
  P       1.481605      1.030644      1.417022
  P      -3.046248     -1.155909     -1.222439
  O      -3.514010     -2.652571     -1.662824
  O      -1.453255     -1.031936     -1.200655
  O       1.749186      1.052862     -0.205535
  O       2.677915      0.736883      2.288761
  C       0.761234      2.720632      1.707440
  C      -3.866261     -0.106373     -2.485538
  C      -3.399168     -0.542580     -3.888487
  C      -3.441942      1.348170     -2.193989
  C      -5.390950     -0.280375     -2.319067
  C      -0.377640      3.054512      0.730867
  C       0.263751      2.746498      3.167147
  C       1.932343      3.713553      1.531234
  H      -3.156418     -3.327854     -1.048925
  H       2.165404      0.191616     -0.441053
  H      -2.300092     -0.450557     -3.999122
  H      -3.872069      0.116556     -4.645917
  H      -3.687119     -1.588310     -4.111458
  H      -2.346704      1.477634     -2.299006
  H      -3.730893      1.661881     -1.171643
  H      -3.941417      2.023403     -2.918713
  H      -5.710593     -1.317678     -2.538193
  H      -5.910982      0.398402     -3.026489
  H      -5.720807     -0.021627     -1.292729
  H      -1.237438      2.357986      0.843920
  H      -0.037903      3.002853     -0.322045
  H      -0.744890      4.083825      0.930140
  H      -0.567646      2.031718      3.334487
  H      -0.108854      3.762263      3.416197
  H       1.080890      2.488981      3.869759
  H       2.284576      3.737162      0.480814
  H       2.787985      3.436584      2.177268
  H       1.594892      4.735945      1.804250
  Si      3.536074     -2.438495      0.653939
  C       5.107082     -1.512311      1.151994
  C       2.568269     -2.914047      2.203031
  C       3.918863     -3.925192     -0.467512
  H       4.840783     -0.483727      1.470087
  H       5.862088     -1.468755      0.340845
  H       5.572320     -2.028216      2.018310
  H       1.579570     -3.355828      1.966031
  H       2.401391     -1.998816      2.807913
  H       3.138861     -3.645733      2.812656
  H       3.025028     -4.210351     -1.059785
  H       4.233842     -4.816777      0.113105
  H       4.727656     -3.676986     -1.185344
  H       2.642479     -1.536773     -0.183448
51
Coordinates from ORCA-job my_molecule E -1977.844144769079
  Pt     -1.339387     -0.475430      0.758669
  O       0.365918     -0.158303      1.610511
  O      -3.380957     -0.814623      0.270816
  P       1.483392      1.028256      1.408658
  P      -3.046542     -1.156015     -1.224996
  O      -3.515614     -2.649714     -1.673697
  O      -1.453327     -1.032279     -1.207290
  O       1.752216      1.050314     -0.214131
  O       2.680612      0.741060      2.281221
  C       0.755460      2.715575      1.697071
  C      -3.869299     -0.098345     -2.479532
  C      -3.406158     -0.527421     -3.886063
  C      -3.442770      1.354164     -2.181134
  C      -5.393675     -0.271655     -2.310134
  C      -0.377492      3.047669      0.712977
  C       0.247358      2.737592      3.153144
  C       1.924676      3.712295      1.530802
  H      -3.157477     -3.328866     -1.064411
  H       2.170419      0.190300     -0.450511
  H      -2.306826     -0.439415     -3.997496
  H      -3.877240      0.138667     -4.638523
  H      -3.698891     -1.570439     -4.115346
  H      -2.348050      1.484084     -2.290725
  H      -3.726645      1.661649     -1.155456
  H      -3.945622      2.033956     -2.899236
  H      -5.714533     -1.308299     -2.530672
  H      -5.914770      0.408903     -3.015059
  H      -5.721094     -0.014839     -1.282550
  H      -1.232619      2.343529      0.813805
  H      -0.028168      3.005997     -0.337248
  H      -0.754163      4.072819      0.916091
  H      -0.589186      2.026745      3.311118
  H      -0.121512      3.754344      3.403794
  H       1.057868      2.473373      3.861004
  H       2.289082      3.733485      0.484464
  H       2.773932      3.440844      2.187488
  H       1.580335      4.734383      1.796269
  Si      3.544021     -2.441364      0.663024
  C       5.116128     -1.512298      1.153785
  C       2.581636     -2.917168      2.215478
  C       3.924695     -3.929341     -0.457928
  H       4.852604     -0.477933      1.454378
  H       5.874418     -1.484146      0.345027
  H       5.576179     -2.015623      2.030150
  H       1.591483     -3.357219      1.981372
  H       2.417964     -2.001730      2.820846
  H       3.153090     -3.649692      2.823236
  H       3.033259     -4.207413     -1.057123
  H       4.229219     -4.823948      0.123584
  H       4.740293     -3.686010     -1.169698
  H       2.645763     -1.540474     -0.169822
51
Coordinates from ORCA-job my_molecule E -1977.844008719517
  Pt     -1.337676     -0.480218      0.755186
  O       0.369930     -0.165105      1.603776
  O      -3.380758     -0.818302      0.272629
  P       1.483595      1.025076      1.401086
  P      -3.050687     -1.155562     -1.225046
  O      -3.525561     -2.646051     -1.677965
  O      -1.456886     -1.037271     -1.210413
  O       1.752616      1.047103     -0.222203
  O       2.682435      0.743091      2.273007
  C       0.749060      2.709908      1.688309
  C      -3.871690     -0.090833     -2.474725
  C      -3.411378     -0.517317     -3.883045
  C      -3.439895      1.359318     -2.172404
  C      -5.396461     -0.259171     -2.304307
  C      -0.378641      3.040351      0.697629
  C       0.231586      2.728207      3.141092
  C       1.916460      3.710090      1.531021
  H      -3.169264     -3.328458     -1.071258
  H       2.173741      0.188786     -0.459149
  H      -2.311546     -0.435343     -3.994174
  H      -3.878643      0.154359     -4.632891
  H      -3.710225     -1.557748     -4.116130
  H      -2.345149      1.486900     -2.284402
  H      -3.720201      1.663967     -1.144880
  H      -3.942919      2.042960     -2.886729
  H      -5.720970     -1.294741     -2.524616
  H      -5.915777      0.423170     -3.008817
  H      -5.722242     -0.001301     -1.276478
  H      -1.229418      2.329483      0.787592
  H      -0.020910      3.007716     -0.350081
  H      -0.763917      4.061650      0.904098
  H      -0.609579      2.021014      3.290442
  H      -0.133658      3.745831      3.393561
  H       1.036100      2.457680      3.853476
  H       2.291832      3.729261      0.488504
  H       2.759834      3.443499      2.197184
  H       1.566056      4.731846      1.789743
  Si      3.553383     -2.443167      0.671155
  C       5.126305     -1.510762      1.154564
  C       2.597875     -2.921449      2.227189
  C       3.931859     -3.931087     -0.451103
  H       4.865255     -0.470866      1.437717
  H       5.888000     -1.497299      0.348633
  H       5.581088     -2.001456      2.040723
  H       1.606446     -3.360094      1.995849
  H       2.437488     -2.006618      2.834233
  H       3.170740     -3.655381      2.831869
  H       3.042149     -4.203038     -1.055627
  H       4.228429     -4.828612      0.129999
  H       4.752475     -3.690922     -1.158165
  H       2.649316     -1.543093     -0.155660
51
Coordinates from ORCA-job my_molecule E -1977.843864495332
  Pt     -1.334243     -0.489798      0.751076
  O       0.375595     -0.174476      1.594959
  O      -3.378482     -0.829418      0.273573
  P       1.484276      1.020397      1.392019
  P      -3.052875     -1.155417     -1.227488
  O      -3.529905     -2.642062     -1.690436
  O      -1.458807     -1.038250     -1.216759
  O       1.755380      1.040715     -0.231334
  O       2.683385      0.745342      2.265700
  C       0.742560      2.703033      1.675145
  C      -3.875961     -0.080727     -2.467274
  C      -3.419013     -0.497910     -3.879540
  C      -3.442027      1.366840     -2.155718
  C      -5.400496     -0.248533     -2.294819
  C      -0.377867      3.031439      0.675508
  C       0.213040      2.718864      3.123574
  C       1.908523      3.706374      1.528282
  H      -3.173486     -3.329200     -1.089175
  H       2.179397      0.183783     -0.468026
  H      -2.318988     -0.419218     -3.991182
  H      -3.884605      0.181359     -4.623559
  H      -3.722033     -1.535364     -4.120336
  H      -2.347662      1.494955     -2.270712
  H      -3.718489      1.663862     -1.124905
  H      -3.947403      2.056004     -2.863047
  H      -5.726269     -1.282981     -2.518568
  H      -5.920510      0.436973     -2.995734
  H      -5.724215      0.005571     -1.265417
  H      -1.224422      2.314125      0.753574
  H      -0.009776      3.006941     -0.368832
  H      -0.771815      4.049082      0.883684
  H      -0.633039      2.015650      3.263441
  H      -0.149012      3.737566      3.376373
  H       1.010148      2.442622      3.842141
  H       2.296393      3.723153      0.490281
  H       2.744824      3.444690      2.205191
  H       1.551911      4.727907      1.779290
  Si      3.564074     -2.446147      0.681747
  C       5.136628     -1.509152      1.159083
  C       2.613553     -2.925955      2.240438
  C       3.942583     -3.934682     -0.440095
  H       4.877133     -0.464047      1.423325
  H       5.902760     -1.510913      0.357260
  H       5.585278     -1.985715      2.055948
  H       1.621077     -3.363292      2.011128
  H       2.455568     -2.011369      2.848422
  H       3.187275     -3.660805      2.843142
  H       3.054818     -4.202965     -1.049082
  H       4.233160     -4.833709      0.141690
  H       4.767359     -3.697208     -1.143209
  H       2.654702     -1.547932     -0.140746
51
Coordinates from ORCA-job my_molecule E -1977.843723727372
  Pt     -1.333559     -0.498151      0.747494
  O       0.378703     -0.184041      1.587408
  O      -3.379153     -0.838043      0.275505
  P       1.483453      1.014403      1.382908
  P      -3.058188     -1.155273     -1.228385
  O      -3.540894     -2.637273     -1.699984
  O      -1.463587     -1.043307     -1.220861
  O       1.756263      1.032292     -0.240627
  O       2.683159      0.745727      2.257651
  C       0.735044      2.695051      1.661479
  C      -3.880031     -0.069883     -2.459655
  C      -3.425245     -0.479033     -3.875027
  C      -3.442083      1.374489     -2.138915
  C      -5.404853     -0.234479     -2.287073
  C      -0.378117      3.020997      0.652909
  C       0.193779      2.709137      3.105534
  C       1.899622      3.701312      1.524415
  H      -3.185997     -3.329432     -1.103616
  H       2.184156      0.177036     -0.476127
  H      -2.324883     -0.404422     -3.986142
  H      -3.887943      0.207551     -4.614106
  H      -3.732871     -1.513411     -4.123103
  H      -2.347660      1.501450     -2.254636
  H      -3.716343      1.664922     -1.105626
  H      -3.947281      2.069500     -2.840635
  H      -5.733509     -1.267210     -2.514547
  H      -5.923427      0.455109     -2.985046
  H      -5.727333      0.016600     -1.256550
  H      -1.220760      2.297985      0.720117
  H      -0.000050      3.003321     -0.387988
  H      -0.780175      4.035372      0.861658
  H      -0.656381      2.009202      3.236585
  H      -0.165950      3.728763      3.357996
  H       0.983822      2.428507      3.830255
  H       2.299108      3.716040      0.490774
  H       2.729188      3.444011      2.211189
  H       1.537416      4.722595      1.768320
  Si      3.576795     -2.448741      0.692547
  C       5.148296     -1.506139      1.163954
  C       2.632224     -2.931720      2.253959
  C       3.955951     -3.936900     -0.429945
  H       4.889709     -0.456108      1.408904
  H       5.919262     -1.522564      0.366949
  H       5.590515     -1.968047      2.071550
  H       1.639021     -3.368382      2.026498
  H       2.476318     -2.017908      2.863526
  H       3.207323     -3.667586      2.854062
  H       3.069309     -4.203480     -1.041294
  H       4.244007     -4.836837      0.151671
  H       4.782685     -3.700104     -1.130985
  H       2.661142     -1.552900     -0.124945
51
Coordinates from ORCA-job my_molecule E -1977.843583798051
  Pt     -1.332202     -0.510643      0.743838
  O       0.382511     -0.195924      1.578451
  O      -3.378862     -0.852801      0.276875
  P       1.482523      1.006743      1.372481
  P      -3.062490     -1.155431     -1.230912
  O      -3.548457     -2.631890     -1.716156
  O      -1.467561     -1.045843     -1.226956
  O       1.758562      1.020325     -0.250857
  O       2.681671      0.745877      2.250258
  C       0.727195      2.685800      1.643630
  C      -3.885513     -0.056566     -2.449458
  C      -3.432520     -0.451582     -3.869466
  C      -3.446258      1.384181     -2.114388
  C      -5.410233     -0.221560     -2.276878
  C      -0.377019      3.008731      0.624237
  C       0.172155      2.699648      3.082398
  C       1.890713      3.694625      1.517135
  H      -3.193670     -3.330471     -1.127271
  H       2.190468      0.166435     -0.484006
  H      -2.332000     -0.378606     -3.980107
  H      -3.893786      0.244103     -4.600889
  H      -3.742897     -1.482433     -4.128564
  H      -2.352015      1.512382     -2.230444
  H      -3.718834      1.663694     -1.077642
  H      -3.952539      2.086590     -2.807917
  H      -5.739802     -1.252360     -2.511703
  H      -5.928928      0.473573     -2.969245
  H      -5.731698      0.022133     -1.244280
  H      -1.216030      2.280548      0.680335
  H       0.012445      2.996408     -0.412520
  H      -0.786880      4.020268      0.831636
  H      -0.682158      2.003154      3.204257
  H      -0.185700      3.720422      3.332974
  H       0.954053      2.415490      3.814615
  H       2.302746      3.706873      0.488373
  H       2.712687      3.441736      2.214561
  H       1.523000      4.715804      1.753109
  Si      3.590936     -2.452380      0.705540
  C       5.160141     -1.502706      1.172066
  C       2.650991     -2.938131      2.268946
  C       3.972945     -3.940428     -0.416388
  H       4.901452     -0.448238      1.396550
  H       5.936824     -1.533934      0.381086
  H       5.595218     -1.948585      2.090991
  H       1.657386     -3.374547      2.042773
  H       2.496155     -2.024856      2.879522
  H       3.227304     -3.674422      2.867318
  H       3.087171     -4.208349     -1.028396
  H       4.261751     -4.839777      0.165758
  H       4.799939     -3.703020     -1.116917
  H       2.669112     -1.560059     -0.108357
51
Coordinates from ORCA-job my_molecule E -1977.843452452673
  Pt     -1.333482     -0.520189      0.740893
  O       0.383915     -0.207070      1.571056
  O      -3.381480     -0.862651      0.278946
  P       1.480762      0.998363      1.363009
  P      -3.069604     -1.154582     -1.231834
  O      -3.560937     -2.625677     -1.727657
  O      -1.474200     -1.050034     -1.230980
  O       1.759891      1.007433     -0.260157
  O       2.679365      0.743825      2.243266
  C       0.719845      2.676328      1.626819
  C      -3.891524     -0.043758     -2.440302
  C      -3.438296     -0.426901     -3.863524
  C      -3.450930      1.393574     -2.092426
  C      -5.416504     -0.208036     -2.269803
  C      -0.375697      2.996517      0.597214
  C       0.151955      2.690577      3.060494
  C       1.882713      3.687049      1.509991
  H      -3.207055     -3.329955     -1.145059
  H       2.196454      0.155098     -0.490209
  H      -2.337517     -0.355270     -3.972403
  H      -3.897497      0.276302     -4.589024
  H      -3.750614     -1.454715     -4.132240
  H      -2.356583      1.522523     -2.206731
  H      -3.723849      1.663856     -1.053332
  H      -3.956665      2.102368     -2.779836
  H      -5.747367     -1.236878     -2.511306
  H      -5.933822      0.492271     -2.957982
  H      -5.738318      0.029679     -1.235926
  H      -1.211978      2.264559      0.643870
  H       0.024206      2.987714     -0.435580
  H      -0.791810      4.006021      0.802209
  H      -0.705971      1.997159      3.174050
  H      -0.204293      3.712468      3.308893
  H       0.926230      2.403654      3.799767
  H       2.306092      3.697032      0.485800
  H       2.697570      3.437737      2.216958
  H       1.510512      4.708231      1.738787
  Si      3.606010     -2.455384      0.718113
  C       5.172550     -1.498664      1.180913
  C       2.671136     -2.945973      2.283121
  C       3.991174     -3.941736     -0.405161
  H       4.913565     -0.440135      1.385304
  H       5.955530     -1.543892      0.396860
  H       5.599681     -1.928876      2.110903
  H       1.677273     -3.382220      2.057731
  H       2.517326     -2.034036      2.895804
  H       3.248811     -3.683330      2.878818
  H       3.105063     -4.212965     -1.015214
  H       4.284941     -4.840067      0.176069
  H       4.815647     -3.701087     -1.107563
  H       2.677774     -1.566257     -0.091409
51
Coordinates from ORCA-job my_molecule E -1977.843327601053
  Pt     -1.334802     -0.527866      0.738025
  O       0.385284     -0.217401      1.563693
  O      -3.384332     -0.869298      0.280269
  P       1.479857      0.990217      1.355066
  P      -3.076591     -1.151964     -1.233059
  O      -3.570689     -2.619195     -1.737427
  O      -1.480934     -1.049612     -1.235788
  O       1.763250      0.995178     -0.267597
  O       2.676791      0.740514      2.238871
  C       0.715070      2.667849      1.611629
  C      -3.899660     -0.032462     -2.432806
  C      -3.445794     -0.404944     -3.858693
  C      -3.460285      1.402658     -2.074340
  C      -5.424555     -0.198554     -2.263834
  C      -0.371312      2.986872      0.571996
  C       0.134414      2.682756      3.040113
  C       1.878293      3.679266      1.504750
  H      -3.216125     -3.327703     -1.160419
  H       2.204198      0.144224     -0.494526
  H      -2.344899     -0.332945     -3.966126
  H      -3.904260      0.303914     -4.579139
  H      -3.758327     -1.430553     -4.135538
  H      -2.366187      1.534214     -2.188013
  H      -3.733247      1.664414     -1.033094
  H      -3.967350      2.115961     -2.756084
  H      -5.754908     -1.226273     -2.510746
  H      -5.941927      0.505188     -2.948471
  H      -5.746912      0.033771     -1.228908
  H      -1.206104      2.252768      0.609875
  H       0.038714      2.980276     -0.456830
  H      -0.791655      3.995233      0.774096
  H      -0.727560      1.993069      3.145348
  H      -0.219483      3.705966      3.286535
  H       0.900816      2.392359      3.786259
  H       2.312770      3.687023      0.485176
  H       2.685772      3.432363      2.220938
  H       1.502779      4.700717      1.726813
  Si      3.620236     -2.457948      0.730296
  C       5.183951     -1.495302      1.192124
  C       2.688864     -2.954869      2.295480
  C       4.009235     -3.941157     -0.395860
  H       4.924947     -0.433244      1.377165
  H       5.974177     -1.554002      0.416297
  H       5.601645     -1.910734      2.132992
  H       1.694637     -3.390080      2.069674
  H       2.536035     -2.044998      2.911347
  H       3.267140     -3.694323      2.887942
  H       3.121818     -4.217702     -1.001610
  H       4.311892     -4.837878      0.183295
  H       4.828598     -3.694882     -1.102293
  H       2.686713     -1.570881     -0.074864
51
Coordinates from ORCA-job my_molecule E -1977.843221403124
  Pt     -1.338156     -0.529817      0.735369
  O       0.384374     -0.225011      1.558360
  O      -3.389566     -0.867082      0.281408
  P       1.478961      0.982971      1.350150
  P      -3.085512     -1.147343     -1.233089
  O      -3.582676     -2.612783     -1.739607
  O      -1.489627     -1.047811     -1.239152
  O       1.766610      0.985165     -0.271958
  O       2.673957      0.734899      2.236919
  C       0.712859      2.661025      1.601501
  C      -3.908966     -0.024375     -2.429382
  C      -3.454565     -0.393170     -3.856099
  C      -3.470015      1.409914     -2.067086
  C      -5.433898     -0.190593     -2.261283
  C      -0.365168      2.980947      0.553522
  C       0.121359      2.676289      3.025475
  C       1.877533      3.671725      1.503801
  H      -3.227436     -3.323075     -1.165232
  H       2.212021      0.135689     -0.495967
  H      -2.353546     -0.321567     -3.962504
  H      -3.912165      0.317939     -4.574868
  H      -3.767531     -1.417810     -4.136089
  H      -2.376203      1.543100     -2.181523
  H      -3.742159      1.667906     -1.024702
  H      -3.978603      2.124847     -2.745985
  H      -5.764427     -1.217957     -2.509416
  H      -5.950851      0.514149     -2.945213
  H      -5.756633      0.040752     -1.226255
  H      -1.199785      2.246388      0.583840
  H       0.053384      2.975845     -0.471860
  H      -0.787561      3.988930      0.753384
  H      -0.744352      1.990211      3.123314
  H      -0.229951      3.700703      3.270675
  H       0.880857      2.382231      3.777273
  H       2.321364      3.677846      0.488237
  H       2.678380      3.425354      2.227550
  H       1.500494      4.693673      1.720902
  Si      3.633415     -2.459121      0.740535
  C       5.194575     -1.492072      1.203556
  C       2.705385     -2.965199      2.304902
  C       4.025725     -3.936951     -0.391463
  H       4.935997     -0.426980      1.371279
  H       5.992261     -1.562731      0.436437
  H       5.602161     -1.894707      2.154310
  H       1.710732     -3.398763      2.077768
  H       2.553800     -2.058645      2.925759
  H       3.284047     -3.708088      2.892631
  H       3.135427     -4.220722     -0.989607
  H       4.342166     -4.831700      0.183373
  H       4.836353     -3.681968     -1.104872
  H       2.695151     -1.572457     -0.059023
51
Coordinates from ORCA-job my_molecule E -1977.843137005919
  Pt     -1.342618     -0.531792      0.733680
  O       0.381979     -0.232316      1.554164
  O      -3.395671     -0.864385      0.282013
  P       1.477113      0.975502      1.346615
  P      -3.094277     -1.142364     -1.233389
  O      -3.593259     -2.606489     -1.741959
  O      -1.498249     -1.044453     -1.241973
  O       1.769291      0.974324     -0.274761
  O       2.669651      0.728492      2.236913
  C       0.711074      2.654625      1.592349
  C      -3.918355     -0.016779     -2.426847
  C      -3.464700     -0.383377     -3.854409
  C      -3.478816      1.416767     -2.062334
  C      -5.443252     -0.182473     -2.258298
  C      -0.358423      2.976189      0.536209
  C       0.109068      2.671083      3.011863
  C       1.878009      3.663566      1.503371
  H      -3.237191     -3.318166     -1.169828
  H       2.219014      0.126094     -0.495426
  H      -2.363586     -0.313039     -3.960709
  H      -3.921444      0.329725     -4.571751
  H      -3.779030     -1.407042     -4.136444
  H      -2.385401      1.550849     -2.179360
  H      -3.748411      1.671901     -1.018584
  H      -3.989538      2.133103     -2.738144
  H      -5.774430     -1.209548     -2.506759
  H      -5.960119      0.522931     -2.941614
  H      -5.765478      0.048569     -1.223046
  H      -1.193430      2.241861      0.559174
  H       0.068430      2.972098     -0.485735
  H      -0.781983      3.984138      0.733807
  H      -0.760235      1.988614      3.102902
  H      -0.239770      3.696777      3.255311
  H       0.861809      2.373834      3.769217
  H       2.330498      3.667860      0.491613
  H       2.672370      3.416823      2.234079
  H       1.500559      4.686295      1.716006
  Si      3.646117     -2.460226      0.750387
  C       5.204038     -1.488003      1.215105
  C       2.721350     -2.976605      2.313464
  C       4.042795     -3.931870     -0.387896
  H       4.945169     -0.420634      1.366751
  H       6.008822     -1.569151      0.456517
  H       5.602221     -1.878330      2.174876
  H       1.726605     -3.409165      2.084804
  H       2.570110     -2.073688      2.939594
  H       3.300963     -3.722564      2.896301
  H       3.148719     -4.226413     -0.975115
  H       4.378115     -4.822942      0.181952
  H       4.841116     -3.665860     -1.111118
  H       2.702658     -1.574349     -0.043540
51
Coordinates from ORCA-job my_molecule E -1977.843079937091
  Pt     -1.349283     -0.530905      0.732821
  O       0.376934     -0.237942      1.552400
  O      -3.403898     -0.857639      0.282670
  P       1.474230      0.968259      1.345248
  P      -3.104412     -1.136924     -1.232847
  O      -3.606077     -2.600463     -1.740522
  O      -1.508193     -1.041940     -1.243023
  O       1.770478      0.963674     -0.275436
  O       2.664335      0.720589      2.238533
  C       0.710081      2.649100      1.586021
  C      -3.927518     -0.010723     -2.426417
  C      -3.474772     -0.379067     -3.853855
  C      -3.485835      1.422457     -2.063039
  C      -5.452598     -0.173846     -2.257326
  C      -0.351487      2.973080      0.522703
  C       0.098853      2.667338      3.001525
  C       1.880030      3.655252      1.504716
  H      -3.250026     -3.312554     -1.168905
  H       2.224567      0.116648     -0.492377
  H      -2.373504     -0.311161     -3.960164
  H      -3.930023      0.334599     -4.571586
  H      -3.791291     -1.402205     -4.135346
  H      -2.392695      1.555988     -2.183128
  H      -3.752417      1.677466     -1.018482
  H      -3.998015      2.139188     -2.737327
  H      -5.785517     -1.200735     -2.504231
  H      -5.968473      0.531493     -2.941459
  H      -5.774235      0.059218     -1.222345
  H      -1.187722      2.240039      0.539384
  H       0.082603      2.969070     -0.496172
  H      -0.774842      3.981568      0.718046
  H      -0.773804      1.988405      3.086759
  H      -0.247405      3.694359      3.243129
  H       0.845480      2.367225      3.763812
  H       2.339889      3.657626      0.496271
  H       2.668492      3.407154      2.241299
  H       1.503412      4.679036      1.713698
  Si      3.658237     -2.460751      0.758901
  C       5.212688     -1.483228      1.225623
  C       2.737458     -2.989064      2.320483
  C       4.059393     -3.924955     -0.386995
  H       4.953143     -0.414131      1.363359
  H       6.023845     -1.572895      0.474853
  H       5.602508     -1.862726      2.193087
  H       1.742903     -3.421242      2.090255
  H       2.586068     -2.090405      2.952558
  H       3.318712     -3.738040      2.897748
  H       3.160683     -4.233089     -0.960020
  H       4.418229     -4.810970      0.176413
  H       4.841714     -3.645654     -1.122616
  H       2.709081     -1.575576     -0.028699
51
Coordinates from ORCA-job my_molecule E -1977.843038455609
  Pt     -1.357146     -0.530735      0.733291
  O       0.370367     -0.243579      1.551995
  O      -3.413085     -0.851453      0.283374
  P       1.470149      0.960543      1.344780
  P      -3.114555     -1.131594     -1.232128
  O      -3.618564     -2.594441     -1.739584
  O      -1.518147     -1.039367     -1.242973
  O       1.770525      0.951486     -0.275133
  O       2.657586      0.712327      2.241440
  C       0.708747      2.643590      1.579685
  C      -3.936136     -0.004477     -2.425916
  C      -3.484650     -0.374750     -3.853282
  C      -3.491569      1.428108     -2.063690
  C      -5.461437     -0.164489     -2.256126
  C      -0.344658      2.969998      0.509068
  C       0.088308      2.664670      2.991099
  C       1.882173      3.646301      1.505570
  H      -3.263009     -3.307058     -1.168319
  H       2.228922      0.105535     -0.487848
  H      -2.383201     -0.309988     -3.959711
  H      -3.937989      0.339836     -4.571313
  H      -3.804062     -1.397121     -4.134248
  H      -2.398653      1.560389     -2.187071
  H      -3.754775      1.683187     -1.018280
  H      -4.004870      2.145546     -2.736372
  H      -5.796414     -1.191065     -2.501556
  H      -5.976169      0.540964     -2.941004
  H      -5.782318      0.070563     -1.221359
  H      -1.182476      2.238679      0.519791
  H       0.096621      2.965306     -0.506695
  H      -0.767262      3.979328      0.701676
  H      -0.787698      1.989399      3.070959
  H      -0.255334      3.693185      3.230141
  H       0.828735      2.362136      3.758480
  H       2.349129      3.646217      0.500381
  H       2.664707      3.396609      2.247881
  H       1.507024      4.671392      1.710736
  Si      3.669998     -2.461501      0.766938
  C       5.220294     -1.477623      1.235580
  C       2.753991     -3.002226      2.327201
  C       4.076893     -3.917780     -0.386465
  H       4.959468     -0.407320      1.360417
  H       6.037339     -1.574610      0.492171
  H       5.602666     -1.846606      2.210008
  H       1.759973     -3.434997      2.095756
  H       2.601592     -2.107914      2.965151
  H       3.337797     -3.753458      2.898888
  H       3.173794     -4.242027     -0.943507
  H       4.461803     -4.797155      0.170142
  H       4.841005     -3.624180     -1.135569
  H       2.714572     -1.577778     -0.014451
51
Coordinates from ORCA-job my_molecule E -1977.842995547921
  Pt     -1.366749     -0.528521      0.734233
  O       0.361836     -0.248346      1.553171
  O      -3.424062     -0.842233      0.284426
  P       1.465440      0.952477      1.345770
  P      -3.126344     -1.125681     -1.230582
  O      -3.633495     -2.588298     -1.735683
  O      -1.529706     -1.037216     -1.241858
  O       1.770088      0.938602     -0.273322
  O       2.649846      0.702636      2.245962
  C       0.708145      2.638316      1.574609
  C      -3.945503      0.001007     -2.426453
  C      -3.495294     -0.373625     -3.853111
  C      -3.497304      1.433287     -2.067491
  C      -5.471135     -0.154813     -2.255963
  C      -0.336808      2.967678      0.496693
  C       0.078518      2.662948      2.981845
  C       1.885728      3.636697      1.507559
  H      -3.278972     -3.300776     -1.163613
  H       2.233211      0.094021     -0.481586
  H      -2.393650     -0.312514     -3.959693
  H      -3.946465      0.340849     -4.572620
  H      -3.817910     -1.395577     -4.131885
  H      -2.404527      1.563512     -2.194169
  H      -3.757156      1.690221     -1.021682
  H      -4.011198      2.150692     -2.739757
  H      -5.808704     -1.181159     -2.498806
  H      -5.984233      0.550262     -2.942457
  H      -5.791260      0.083588     -1.221730
  H      -1.176859      2.238908      0.501773
  H       0.111541      2.961487     -0.515943
  H      -0.757695      3.978315      0.686227
  H      -0.801045      1.991702      3.056448
  H      -0.262066      3.693151      3.218043
  H       0.812541      2.357891      3.754380
  H       2.359690      3.633666      0.505652
  H       2.662115      3.384903      2.255557
  H       1.512869      4.663394      1.708815
  Si      3.682266     -2.461687      0.774087
  C       5.227922     -1.471672      1.246560
  C       2.770910     -3.016381      2.332231
  C       4.095765     -3.908590     -0.388041
  H       4.966217     -0.400244      1.359065
  H       6.051477     -1.575612      0.511341
  H       5.601799     -1.830831      2.227878
  H       1.777607     -3.449838      2.098960
  H       2.617159     -2.127095      2.976923
  H       3.357343     -3.770196      2.897747
  H       3.189507     -4.248157     -0.930681
  H       4.505457     -4.781594      0.160916
  H       4.842403     -3.600319     -1.148802
  H       2.720746     -1.579239     -0.000943
51
Coordinates from ORCA-job my_molecule E -1977.842953940642
  Pt     -1.377134     -0.527347      0.736054
  O       0.352318     -0.253526      1.555066
  O      -3.435678     -0.834009      0.285577
  P       1.459837      0.943709      1.347163
  P      -3.138205     -1.119850     -1.228964
  O      -3.648387     -2.581932     -1.732709
  O      -1.541321     -1.035091     -1.240114
  O       1.769022      0.923975     -0.271036
  O       2.640971      0.692765      2.251405
  C       0.707010      2.632606      1.568904
  C      -3.954541      0.007134     -2.426502
  C      -3.505780     -0.371274     -3.852643
  C      -3.502301      1.438786     -2.070130
  C      -5.480523     -0.144304     -2.255343
  C      -0.329433      2.964459      0.483610
  C       0.068283      2.661787      2.971910
  C       1.888857      3.626396      1.508278
  H      -3.295290     -3.294570     -1.159959
  H       2.236965      0.080743     -0.474537
  H      -2.403949     -0.313997     -3.959438
  H      -3.954674      0.343521     -4.573261
  H      -3.831854     -1.392586     -4.129663
  H      -2.409563      1.566438     -2.199680
  H      -3.759037      1.697411     -1.023949
  H      -4.016186      2.156619     -2.741947
  H      -5.820832     -1.170196     -2.496294
  H      -5.991919      0.560898     -2.942975
  H      -5.799780      0.096746     -1.221457
  H      -1.171844      2.238415      0.483544
  H       0.125848      2.956032     -0.525895
  H      -0.748369      3.976580      0.669520
  H      -0.814723      1.994545      3.041681
  H      -0.269317      3.693791      3.204553
  H       0.795888      2.354762      3.749735
  H       2.369640      3.619779      0.509636
  H       2.659098      3.372743      2.261946
  H       1.518572      4.654863      1.705187
  Si      3.694798     -2.462018      0.781162
  C       5.235239     -1.465075      1.257508
  C       2.788198     -3.030793      2.337032
  C       4.115977     -3.899378     -0.389293
  H       4.972558     -0.392774      1.357696
  H       6.065352     -1.575596      0.530689
  H       5.600579     -1.814170      2.245602
  H       1.795864     -3.465546      2.101999
  H       2.632486     -2.146549      2.988262
  H       3.377705     -3.786628      2.896581
  H       3.207547     -4.255062     -0.917824
  H       4.550484     -4.765108      0.152112
  H       4.844864     -3.576507     -1.161141
  H       2.726679     -1.581618      0.012341
51
Coordinates from ORCA-job my_molecule E -1977.842911656466
  Pt     -1.388419     -0.524462      0.737864
  O       0.341667     -0.257835      1.557971
  O      -3.448190     -0.823400      0.286707
  P       1.454070      0.934936      1.349799
  P      -3.150992     -1.113592     -1.227008
  O      -3.664784     -2.575551     -1.727583
  O      -1.553852     -1.033205     -1.237964
  O       1.767983      0.909343     -0.267483
  O       2.631657      0.682048      2.258183
  C       0.706588      2.627193      1.564588
  C      -3.963967      0.012508     -2.427654
  C      -3.516446     -0.371388     -3.852735
  C      -3.507488      1.443824     -2.075390
  C      -5.490363     -0.134046     -2.255994
  C      -0.322031      2.961500      0.472681
  C       0.059839      2.661512      2.963759
  C       1.892912      3.615985      1.509257
  H      -3.313472     -3.287747     -1.153196
  H       2.240889      0.067582     -0.466211
  H      -2.414441     -0.317877     -3.959697
  H      -3.963136      0.342718     -4.575405
  H      -3.845778     -1.392456     -4.126713
  H      -2.414662      1.568407     -2.207138
  H      -3.761801      1.705590     -1.029383
  H      -4.020648      2.161377     -2.748063
  H      -5.833598     -1.159564     -2.494382
  H      -5.999760      0.570907     -2.945362
  H      -5.808876      0.110490     -1.222700
  H      -1.167255      2.238777      0.468658
  H       0.139222      2.949901     -0.534064
  H      -0.738169      3.975485      0.654737
  H      -0.826591      1.998399      3.029477
  H      -0.274424      3.695420      3.192781
  H       0.781481      2.352628      3.746399
  H       2.379773      3.605250      0.513596
  H       2.657392      3.360514      2.268128
  H       1.525715      4.646393      1.701728
  Si      3.707289     -2.461835      0.787543
  C       5.242472     -1.458531      1.268909
  C       2.805195     -3.045594      2.340484
  C       4.136411     -3.888809     -0.391968
  H       4.979442     -0.385336      1.357281
  H       6.079414     -1.575182      0.550949
  H       5.598506     -1.798283      2.263592
  H       1.813916     -3.481580      2.103235
  H       2.647444     -2.166878      2.998750
  H       3.397694     -3.803729      2.893688
  H       3.226689     -4.260127     -0.907385
  H       4.594825     -4.747246      0.141336
  H       4.847866     -3.551291     -1.173756
  H       2.732794     -1.583143      0.025154
51
Coordinates from ORCA-job my_molecule E -1977.842868325670
  Pt     -1.399549     -0.523470      0.739930
  O       0.330945     -0.262833      1.560798
  O      -3.460383     -0.815363      0.287751
  P       1.447871      0.925656      1.352324
  P      -3.163199     -1.107856     -1.225453
  O      -3.680312     -2.569137     -1.724762
  O      -1.565824     -1.031432     -1.235969
  O       1.767005      0.893335     -0.263884
  O       2.621580      0.671725      2.265552
  C       0.705518      2.621264      1.559031
  C      -3.972914      0.018772     -2.427812
  C      -3.526689     -0.368704     -3.852344
  C      -3.512297      1.449302     -2.077813
  C      -5.499687     -0.123339     -2.255765
  C      -0.315404      2.957120      0.460436
  C       0.050887      2.661552      2.954341
  C       1.896101      3.605195      1.508240
  H      -3.330957     -3.281509     -1.149403
  H       2.244782      0.052943     -0.457503
  H      -2.424532     -0.318754     -3.959468
  H      -3.971256      0.345628     -4.576103
  H      -3.859245     -1.389168     -4.124597
  H      -2.419293      1.570768     -2.210978
  H      -3.764757      1.713135     -1.031858
  H      -4.024223      2.167375     -2.750875
  H      -5.845672     -1.148214     -2.492955
  H      -6.007253      0.582168     -2.945916
  H      -5.817418      0.123217     -1.222712
  H      -1.163319      2.237589      0.453062
  H       0.151643      2.941683     -0.543573
  H      -0.728818      3.973012      0.638023
  H      -0.838707      2.002332      3.016479
  H      -0.280361      3.697388      3.179021
  H       0.766671      2.351587      3.741927
  H       2.388841      3.589774      0.515533
  H       2.654941      3.348525      2.272322
  H       1.531911      4.637582      1.695734
  Si      3.719818     -2.461878      0.794264
  C       5.249401     -1.451651      1.280304
  C       2.822113     -3.060180      2.344183
  C       4.157606     -3.878760     -0.393495
  H       4.986060     -0.377718      1.356495
  H       6.093155     -1.574439      0.571409
  H       5.596060     -1.781550      2.281550
  H       1.832097     -3.497897      2.104812
  H       2.661814     -2.186786      3.008996
  H       3.417883     -3.819992      2.891513
  H       3.247458     -4.266501     -0.895921
  H       4.639876     -4.728883      0.132089
  H       4.851342     -3.527065     -1.184904
  H       2.738692     -1.585544      0.037945
51
Coordinates from ORCA-job my_molecule E -1977.842823693736
  Pt     -1.411028     -0.520796      0.741562
  O       0.319697     -0.266959      1.564099
  O      -3.472958     -0.805032      0.288614
  P       1.441917      0.916602      1.355854
  P      -3.176047     -1.101830     -1.223755
  O      -3.697170     -2.562829     -1.719885
  O      -1.578441     -1.030088     -1.233949
  O       1.766379      0.878047     -0.259252
  O       2.611542      0.660712      2.273896
  C       0.705330      2.615677      1.555058
  C      -3.982071      0.024127     -2.429204
  C      -3.536789     -0.368505     -3.852627
  C      -3.517309      1.454191     -2.082878
  C      -5.509280     -0.113169     -2.257057
  C      -0.309123      2.952924      0.450958
  C       0.044444      2.662241      2.947188
  C       1.900182      3.594586      1.507283
  H      -3.350062     -3.274766     -1.142634
  H       2.248966      0.039077     -0.447845
  H      -2.434488     -0.321905     -3.959776
  H      -3.979346      0.345024     -4.578407
  H      -3.872213     -1.388789     -4.121964
  H      -2.423996      1.572207     -2.216623
  H      -3.768782      1.721439     -1.037542
  H      -4.027306      2.172029     -2.757659
  H      -5.858124     -1.137500     -2.492402
  H      -6.014716      0.592495     -2.948609
  H      -5.826441      0.136233     -1.224516
  H      -1.160129      2.237104      0.441817
  H       0.162316      2.932737     -0.550908
  H      -0.718979      3.971052      0.623997
  H      -0.848166      2.006868      3.006811
  H      -0.283530      3.700016      3.167707
  H       0.755223      2.351347      3.738932
  H       2.397659      3.574159      0.517031
  H       2.654158      3.336863      2.275792
  H       1.539366      4.629016      1.689960
  Si      3.731830     -2.461353      0.800412
  C       5.255859     -1.444821      1.291907
  C       2.838396     -3.074906      2.346750
  C       4.178171     -3.867488     -0.396229
  H       4.992690     -0.370083      1.356337
  H       6.106533     -1.573321      0.592367
  H       5.592599     -1.765474      2.299482
  H       1.849708     -3.514268      2.104878
  H       2.675659     -2.207200      3.018413
  H       3.437313     -3.836657      2.887892
  H       3.268250     -4.271342     -0.886233
  H       4.683723     -4.709148      0.121086
  H       4.854166     -3.501637     -1.196532
  H       2.744417     -1.586907      0.050400
51
Coordinates from ORCA-job my_molecule E -1977.842778476556
  Pt     -1.421799     -0.521068      0.743126
  O       0.309037     -0.272265      1.566555
  O      -3.484600     -0.799179      0.289294
  P       1.435767      0.906942      1.358585
  P      -3.187825     -1.096678     -1.222889
  O      -3.712230     -2.556557     -1.719052
  O      -1.590029     -1.028616     -1.232741
  O       1.766247      0.861196     -0.255123
  O       2.600902      0.650443      2.282350
  C       0.704348      2.609334      1.548825
  C      -3.990833      0.030904     -2.428849
  C      -3.546614     -0.363485     -3.852125
  C      -3.522439      1.459892     -2.083083
  C      -5.518373     -0.102659     -2.256617
  C      -0.303287      2.946960      0.438636
  C       0.036673      2.662834      2.937440
  C       1.903150      3.583540      1.503920
  H      -3.367238     -3.269100     -1.141282
  H       2.253406      0.023459     -0.438201
  H      -2.444209     -0.319666     -3.959377
  H      -3.987482      0.350773     -4.578223
  H      -3.884651     -1.383051     -4.120844
  H      -2.428808      1.574931     -2.216846
  H      -3.773286      1.728349     -1.037894
  H      -4.030454      2.178769     -2.758258
  H      -5.869613     -1.126102     -2.492261
  H      -6.022163      0.604367     -2.947979
  H      -5.834872      0.147184     -1.223982
  H      -1.157037      2.234439      0.427746
  H       0.172930      2.921685     -0.560851
  H      -0.710055      3.967194      0.606467
  H      -0.858652      2.010942      2.994580
  H      -0.288618      3.702509      3.152949
  H       0.742244      2.351886      3.733810
  H       2.405570      3.557757      0.516291
  H       2.652141      3.325405      2.277135
  H       1.545392      4.619959      1.681237
  Si      3.743956     -2.461428      0.807355
  C       5.261686     -1.437365      1.303696
  C       2.854674     -3.089247      2.350224
  C       4.199821     -3.857586     -0.396717
  H       4.998260     -0.362071      1.355535
  H       6.119314     -1.571871      0.613850
  H       5.588582     -1.747625      2.317702
  H       1.867626     -3.531015      2.106042
  H       2.688765     -2.226711      3.027800
  H       3.457107     -3.851942      2.886087
  H       3.291047     -4.278929     -0.873966
  H       4.729048     -4.689253      0.113080
  H       4.857464     -3.478315     -1.206021
  H       2.750012     -1.589870      0.062864
51
Coordinates from ORCA-job my_molecule E -1977.842730490415
  Pt     -1.433072     -0.518225      0.744118
  O       0.297707     -0.275977      1.569648
  O      -3.496938     -0.788671      0.289938
  P       1.430015      0.897999      1.362647
  P      -3.200793     -1.090894     -1.221394
  O      -3.729946     -2.550374     -1.713847
  O      -1.602794     -1.028092     -1.231130
  O       1.766329      0.846276     -0.249730
  O       2.590688      0.639299      2.291616
  C       0.704554      2.603764      1.545466
  C      -3.999795      0.036020     -2.430618
  C      -3.556131     -0.363488     -3.852645
  C      -3.527345      1.464500     -2.088401
  C      -5.527805     -0.092675     -2.258740
  C      -0.297880      2.942092      0.430832
  C       0.032197      2.663949      2.931526
  C       1.907347      3.573092      1.501895
  H      -3.387613     -3.262384     -1.133843
  H       2.258022      0.009924     -0.427700
  H      -2.453592     -0.322674     -3.959701
  H      -3.995085      0.349748     -4.580901
  H      -3.896655     -1.382983     -4.118444
  H      -2.433241      1.575817     -2.221469
  H      -3.778348      1.736736     -1.044222
  H      -4.032511      2.183034     -2.766080
  H      -5.881921     -1.115452     -2.492960
  H      -6.029242      0.614760     -2.951392
  H      -5.843941      0.159705     -1.226612
  H      -1.154902      2.233551      0.419869
  H       0.181337      2.911068     -0.567058
  H      -0.700529      3.964754      0.593831
  H      -0.865775      2.015577      2.987251
  H      -0.289929      3.705476      3.142812
  H       0.733677      2.352609      3.731344
  H       2.413307      3.541972      0.516232
  H       2.652360      3.314417      2.278757
  H       1.553079      4.611506      1.674462
  Si      3.755391     -2.460804      0.813097
  C       5.267073     -1.430134      1.315087
  C       2.870312     -3.103757      2.351976
  C       4.220218     -3.846193     -0.399356
  H       5.004013     -0.354189      1.354842
  H       6.131717     -1.570309      0.635204
  H       5.583543     -1.730748      2.335247
  H       1.884901     -3.547685      2.105093
  H       2.701533     -2.246838      3.035940
  H       3.476085     -3.867841      2.882044
  H       3.313104     -4.284386     -0.864438
  H       4.772389     -4.667944      0.102181
  H       4.859552     -3.453546     -1.216921
  H       2.755335     -1.591381      0.074646
51
Coordinates from ORCA-job my_molecule E -1977.842683362994
  Pt     -1.443263     -0.519927      0.745073
  O       0.287467     -0.281627      1.571273
  O      -3.507850     -0.785373      0.290392
  P       1.424029      0.888140      1.365151
  P      -3.212100     -1.086289     -1.221194
  O      -3.744317     -2.544174     -1.715248
  O      -1.613952     -1.026619     -1.230928
  O       1.767168      0.828792     -0.245471
  O       2.579631      0.629453      2.300663
  C       0.703554      2.597070      1.538203
  C      -4.008606      0.043515     -2.429402
  C      -3.565658     -0.355489     -3.851799
  C      -3.533301      1.470661     -2.085708
  C      -5.536878     -0.082474     -2.257757
  C      -0.292250      2.934942      0.417499
  C       0.024629      2.664673      2.920711
  C       1.910002      3.561923      1.496906
  H      -3.404024     -3.257315     -1.135429
  H       2.263043     -0.006541     -0.417677
  H      -2.463051     -0.316556     -3.958836
  H      -4.003370      0.359162     -4.579421
  H      -3.908077     -1.374119     -4.118425
  H      -2.438802      1.579455     -2.217642
  H      -3.784726      1.742881     -1.041618
  H      -4.036074      2.190819     -2.763447
  H      -5.892862     -1.104163     -2.493878
  H      -6.036978      0.627124     -2.949165
  H      -5.852529      0.168589     -1.225162
  H      -1.151823      2.229508      0.405288
  H       0.191524      2.898371     -0.578006
  H      -0.691921      3.959645      0.574853
  H      -0.875764      2.019471      2.974251
  H      -0.295139      3.708022      3.126523
  H       0.721061      2.353917      3.725151
  H       2.420591      3.525183      0.513828
  H       2.650264      3.303389      2.278337
  H       1.558674      4.602242      1.663890
  Si      3.767510     -2.461381      0.820338
  C       5.272038     -1.422085      1.326833
  C       2.886041     -3.117791      2.355434
  C       4.242865     -3.837410     -0.398094
  H       5.008435     -0.345973      1.352935
  H       6.143743     -1.568386      0.657337
  H       5.578325     -1.711032      2.353406
  H       1.902735     -3.564934      2.106000
  H       2.713155     -2.265622      3.044357
  H       3.495560     -3.881803      2.881274
  H       3.338587     -4.294351     -0.850477
  H       4.818502     -4.647161      0.096596
  H       4.863306     -3.432622     -1.224259
  H       2.760879     -1.595730      0.086544
51
Coordinates from ORCA-job my_molecule E -1977.842634428569
  Pt     -1.454562     -0.515476      0.745708
  O       0.275889     -0.284221      1.574628
  O      -3.520300     -0.772264      0.291177
  P       1.418592      0.879752      1.370137
  P      -3.225664     -1.080316     -1.219172
  O      -3.763890     -2.538065     -1.707203
  O      -1.627321     -1.027144     -1.229033
  O       1.767655      0.815061     -0.239024
  O       2.569650      0.618100      2.310596
  C       0.704451      2.591949      1.536665
  C      -4.017315      0.047630     -2.432259
  C      -3.574222     -0.358235     -3.852675
  C      -3.537791      1.474519     -2.093533
  C      -5.546168     -0.072836     -2.261690
  C      -0.287397      2.930452      0.412685
  C       0.022425      2.666071      2.917304
  C       1.914734      3.551967      1.495464
  H      -3.426869     -3.249999     -1.124005
  H       2.267718     -0.018955     -0.406345
  H      -2.471442     -0.322438     -3.958995
  H      -4.009654      0.354488     -4.583544
  H      -3.918984     -1.377105     -4.115332
  H      -2.442619      1.578982     -2.223420
  H      -3.790639      1.752144     -1.051213
  H      -4.036532      2.193520     -2.775473
  H      -5.905262     -1.093949     -2.495568
  H      -6.043303      0.636667     -2.955325
  H      -5.861882      0.181887     -1.230009
  H      -1.150406      2.229264      0.401571
  H       0.198082      2.887780     -0.581750
  H      -0.682461      3.957649      0.565479
  H      -0.880474      2.024322      2.970196
  H      -0.293934      3.711179      3.119417
  H       0.715630      2.354787      3.724312
  H       2.427755      3.509909      0.513873
  H       2.651844      3.293035      2.279740
  H       1.567079      4.594199      1.658122
  Si      3.778199     -2.460390      0.824871
  C       5.276510     -1.414661      1.337229
  C       2.900773     -3.131971      2.355560
  C       4.262414     -3.825602     -0.401693
  H       5.013525     -0.338089      1.351009
  H       6.155263     -1.566730      0.678314
  H       5.571821     -1.693694      2.369703
  H       1.919387     -3.581590      2.103049
  H       2.724675     -2.285491      3.050612
  H       3.513688     -3.897043      2.875868
  H       3.361101     -4.299818     -0.842043
  H       4.860516     -4.624133      0.084586
  H       4.863994     -3.408368     -1.235589
  H       2.765723     -1.596730      0.097016
51
Coordinates from ORCA-job my_molecule E -1977.842583293982
  Pt     -1.464325     -0.519327      0.746210
  O       0.265972     -0.290670      1.575284
  O      -3.530620     -0.772622      0.291551
  P       1.412495      0.869348      1.371944
  P      -3.236543     -1.076235     -1.219703
  O      -3.777220     -2.531720     -1.711915
  O      -1.638088     -1.025222     -1.229922
  O       1.769215      0.796086     -0.235057
  O       2.557926      0.608781      2.319788
  C       0.703038      2.584550      1.527414
  C      -4.026450      0.056523     -2.429486
  C      -3.583643     -0.345587     -3.851067
  C      -3.545067      1.481688     -2.086317
  C      -5.555480     -0.062636     -2.259527
  C      -0.281543      2.921817      0.396654
  C       0.013708      2.666598      2.903985
  C       1.916752      3.540290      1.488748
  H      -3.441992     -3.245643     -1.130106
  H       2.273105     -0.037154     -0.396220
  H      -2.480814     -0.310715     -3.957167
  H      -4.018220      0.369771     -4.579877
  H      -3.929576     -1.363265     -4.116740
  H      -2.449438      1.584297     -2.213845
  H      -3.799453      1.757392     -1.043853
  H      -4.041071      2.203263     -2.767540
  H      -5.915713     -1.082420     -2.497406
  H      -6.051722      0.650070     -2.950514
  H      -5.870949      0.188423     -1.226875
  H      -1.146660      2.223226      0.383772
  H       0.209169      2.873676     -0.594966
  H      -0.674217      3.950794      0.543379
  H      -0.891579      2.028004      2.954306
  H      -0.300423      3.713526      3.100050
  H       0.701381      2.356262      3.716072
  H       2.434864      3.492260      0.510112
  H       2.648741      3.282097      2.278047
  H       1.571813      4.584365      1.645231
  Si      3.790927     -2.461831      0.832741
  C       5.280935     -1.405736      1.348800
  C       2.916759     -3.145795      2.359659
  C       4.287208     -3.818685     -0.397742
  H       5.016714     -0.329597      1.347066
  H       6.166950     -1.564275      0.701236
  H       5.565647     -1.670969      2.387816
  H       1.938117     -3.599815      2.104444
  H       2.735204     -2.303486      3.058470
  H       3.533887     -3.909400      2.877111
  H       3.390660     -4.312555     -0.826031
  H       4.907740     -4.603310      0.083115
  H       4.870303     -3.391142     -1.239512
  H       2.771576     -1.603292      0.108378
51
Coordinates from ORCA-job my_molecule E -1977.842537228009
  Pt     -1.476382     -0.511891      0.746830
  O       0.253426     -0.291542      1.579532
  O      -3.543984     -0.754492      0.292547
  P       1.406999      0.861775      1.378346
  P      -3.251419     -1.069522     -1.216678
  O      -3.799883     -2.525421     -1.699008
  O      -1.652782     -1.026978     -1.226992
  O       1.769155      0.784177     -0.227235
  O       2.548159      0.596760      2.330139
  C       0.704635      2.580225      1.529055
  C      -4.034901      0.059106     -2.434397
  C      -3.591105     -0.353477     -3.852674
  C      -3.548581      1.484452     -2.099177
  C      -5.564704     -0.052995     -2.266467
  C      -0.277406      2.918718      0.396501
  C       0.014084      2.668235      2.904648
  C       1.922235      3.530936      1.489371
  H      -3.468873     -3.236946     -1.111879
  H       2.276902     -0.047841     -0.383966
  H      -2.488023     -0.322502     -3.957300
  H      -4.022532      0.358379     -4.586752
  H      -3.939639     -1.371859     -4.112211
  H      -2.452055      1.581588     -2.223304
  H      -3.805622      1.768469     -1.059611
  H      -4.039024      2.203441     -2.787136
  H      -5.928684     -1.072420     -2.500117
  H      -6.056882      0.658484     -2.961605
  H      -5.880794      0.204262     -1.235527
  H      -1.146253      2.224819      0.385692
  H       0.213548      2.864496     -0.594690
  H      -0.664806      3.950258      0.539431
  H      -0.893838      2.033392      2.954994
  H      -0.295907      3.716873      3.098112
  H       0.699453      2.356559      3.718151
  H       2.441574      3.477780      0.511660
  H       2.651942      3.272106      2.280584
  H       1.581364      4.576874      1.642252
  Si      3.801146     -2.460471      0.835571
  C       5.285116     -1.398086      1.356828
  C       2.931227     -3.159707      2.357941
  C       4.305633     -3.806633     -0.402872
  H       5.021463     -0.321795      1.342536
  H       6.177797     -1.562254      0.719907
  H       5.558941     -1.653057      2.401283
  H       1.954822     -3.616653      2.099416
  H       2.746070     -2.323302      3.062745
  H       3.552022     -3.923997      2.869952
  H       3.413188     -4.318218     -0.818727
  H       4.948359     -4.578648      0.069241
  H       4.868894     -3.367693     -1.252248
  H       2.775927     -1.603762      0.117308
51
Coordinates from ORCA-job my_molecule E -1977.842488577275
  Pt     -1.486198     -0.517987      0.747006
  O       0.243319     -0.298927      1.579477
  O      -3.554127     -0.758641      0.292648
  P       1.400332      0.850655      1.379395
  P      -3.262023     -1.065810     -1.218173
  O      -3.812074     -2.518760     -1.707649
  O      -1.663312     -1.024297     -1.228970
  O       1.770635      0.763394     -0.223668
  O       2.535509      0.587674      2.339028
  C       0.702484      2.571977      1.517843
  C      -4.044447      0.069729     -2.430195
  C      -3.600300     -0.335622     -3.850461
  C      -3.557372      1.492944     -2.087250
  C      -5.574360     -0.042540     -2.263439
  C      -0.271635      2.908534      0.377822
  C       0.003940      2.668468      2.888851
  C       1.923374      3.518517      1.480979
  H      -3.482550     -3.233254     -1.123282
  H       2.281869     -0.068137     -0.373684
  H      -2.497167     -0.304596     -3.954523
  H      -4.031179      0.380209     -4.581002
  H      -3.949234     -1.352465     -4.115398
  H      -2.460344      1.589023     -2.207792
  H      -3.817085      1.772859     -1.047226
  H      -4.044797      2.215597     -2.773517
  H      -5.938672     -1.060391     -2.503332
  H      -6.066023      0.673243     -2.954516
  H      -5.890626      0.208615     -1.231051
  H      -1.142157      2.216715      0.364609
  H       0.225275      2.849006     -0.610104
  H      -0.657213      3.941596      0.514308
  H      -0.906437      2.036920      2.936274
  H      -0.303767      3.718968      3.075737
  H       0.683265      2.358027      3.707878
  H       2.448313      3.458947      0.506633
  H       2.647523      3.261020      2.277717
  H       1.585063      4.566263      1.626991
  Si      3.814998     -2.463032      0.844363
  C       5.289687     -1.388124      1.367163
  C       2.948520     -3.173069      2.363630
  C       4.332733     -3.802439     -0.395479
  H       5.023581     -0.313140      1.335319
  H       6.189364     -1.558829      0.741932
  H       5.553327     -1.626798      2.418012
  H       1.975655     -3.636088      2.102660
  H       2.756273     -2.340111      3.070746
  H       3.574400     -3.934047      2.874362
  H       3.446867     -4.335105     -0.798715
  H       4.997527     -4.558067      0.072649
  H       4.877046     -3.355381     -1.252928
  H       2.782221     -1.613242      0.128321
51
Coordinates from ORCA-job my_molecule E -1977.842447537750
  Pt     -1.499653     -0.508722      0.747907
  O       0.229241     -0.298878      1.584578
  O      -3.568934     -0.737058      0.293755
  P       1.394096      0.843127      1.386817
  P      -3.278476     -1.058378     -1.214473
  O      -3.837722     -2.511871     -1.691766
  O      -1.679618     -1.026979     -1.225062
  O       1.769346      0.751831     -0.214821
  O       2.525215      0.574570      2.349582
  C       0.704247      2.567830      1.521512
  C      -4.052968      0.071778     -2.436480
  C      -3.607138     -0.346442     -3.852492
  C      -3.560165      1.495294     -2.103247
  C      -5.583810     -0.032047     -2.272708
  C      -0.267659      2.906343      0.380236
  C       0.005151      2.670037      2.891838
  C       1.929336      3.508849      1.483487
  H      -3.513396     -3.223261     -1.100755
  H       2.284074     -0.078665     -0.360386
  H      -2.503672     -0.320295     -3.954291
  H      -4.033780      0.365119     -4.589644
  H      -3.959236     -1.364095     -4.110091
  H      -2.462084      1.584885     -2.219172
  H      -3.823501      1.785467     -1.066971
  H      -4.040620      2.214522     -2.797984
  H      -5.952477     -1.049631     -2.506983
  H      -6.070372      0.681742     -2.969424
  H      -5.901213      0.227222     -1.242670
  H      -1.142100      2.219547      0.369046
  H       0.229055      2.841002     -0.607428
  H      -0.647551      3.941970      0.513494
  H      -0.908187      2.042778      2.939280
  H      -0.297650      3.722293      3.076795
  H       0.682312      2.357446      3.711823
  H       2.455024      3.444263      0.509876
  H       2.651422      3.250241      2.281751
  H       1.595597      4.558480      1.626396
  Si      3.825573     -2.461759      0.846204
  C       5.293826     -1.379355      1.372441
  C       2.964587     -3.186992      2.361460
  C       4.351493     -3.790972     -0.400812
  H       5.027188     -0.304841      1.327158
  H       6.199593     -1.555172      0.757517
  H       5.547418     -1.606519      2.428257
  H       1.994661     -3.654394      2.097406
  H       2.767707     -2.360002      3.074063
  H       3.595206     -3.947444      2.867113
  H       3.471182     -4.342232     -0.790962
  H       5.038340     -4.532120      0.058628
  H       4.874874     -3.333835     -1.265939
  H       2.786218     -1.614678      0.136143
51
Coordinates from ORCA-job my_molecule E -1977.842402353934
  Pt     -1.511009     -0.513693      0.748580
  O       0.217410     -0.305833      1.585469
  O      -3.580645     -0.738756      0.294127
  P       1.386452      0.831579      1.388551
  P      -3.290541     -1.054104     -1.215333
  O      -3.852560     -2.504669     -1.698317
  O      -1.691607     -1.025175     -1.226030
  O       1.769225      0.730585     -0.210548
  O       2.511840      0.564323      2.358474
  C       0.702026      2.559289      1.511515
  C      -4.062488      0.082373     -2.433127
  C      -3.615445     -0.330183     -3.850437
  C      -3.568316      1.503770     -2.093072
  C      -5.593624     -0.020461     -2.271594
  C      -0.262358      2.896166      0.363316
  C      -0.004244      2.670177      2.877515
  C       1.930679      3.495683      1.475802
  H      -3.530581     -3.218683     -1.109174
  H       2.287199     -0.099409     -0.349252
  H      -2.511836     -0.304786     -3.950841
  H      -4.040517      0.384966     -4.585034
  H      -3.968358     -1.346330     -4.112793
  H      -2.469583      1.591454     -2.204306
  H      -3.835252      1.791076     -1.056906
  H      -4.044512      2.226297     -2.787325
  H      -5.963106     -1.036434     -2.511477
  H      -6.078658      0.697348     -2.965242
  H      -5.911845      0.233847     -1.240570
  H      -1.138716      2.211779      0.350022
  H       0.239776      2.825359     -0.621240
  H      -0.639910      3.933401      0.490329
  H      -0.920419      2.046872      2.922257
  H      -0.303825      3.724413      3.056319
  H       0.667014      2.358206      3.702573
  H       2.461579      3.424273      0.505501
  H       2.647329      3.238436      2.279392
  H       1.599973      4.547198      1.611723
  Si      3.839899     -2.464435      0.854312
  C       5.297985     -1.367967      1.380561
  C       2.983781     -3.200371      2.367139
  C       4.379503     -3.787223     -0.393326
  H       5.027776     -0.295566      1.316779
  H       6.210486     -1.549544      0.777413
  H       5.541721     -1.577521      2.442254
  H       2.018258     -3.675537      2.100892
  H       2.778612     -2.376763      3.081472
  H       3.620626     -3.956123      2.872018
  H       3.507453     -4.360426     -0.770135
  H       5.088282     -4.509953      0.062203
  H       4.882869     -3.323324     -1.266675
  H       2.792203     -1.625605      0.146244
51
Coordinates from ORCA-job my_molecule E -1977.842356774184
  Pt     -1.524516     -0.506674      0.749295
  O       0.203364     -0.306962      1.589703
  O      -3.595251     -0.721116      0.295121
  P       1.379961      0.822901      1.395051
  P      -3.306836     -1.046792     -1.212478
  O      -3.876688     -2.497259     -1.686477
  O      -1.707840     -1.026245     -1.223281
  O       1.768328      0.716641     -0.202309
  O       2.500675      0.551241      2.369200
  C       0.703633      2.554054      1.512483
  C      -4.072180      0.086238     -2.437557
  C      -3.623418     -0.335650     -3.851592
  C      -3.573448      1.507578     -2.104128
  C      -5.604052     -0.009918     -2.278959
  C      -0.256863      2.892499      0.361511
  C      -0.004981      2.671457      2.876742
  C       1.936637      3.484675      1.476867
  H      -3.559234     -3.209083     -1.092264
  H       2.289437     -0.112379     -0.336065
  H      -2.519536     -0.314077     -3.949827
  H      -4.044900      0.376530     -4.591115
  H      -3.978792     -1.352254     -4.108861
  H      -2.473788      1.589853     -2.210267
  H      -3.844406      1.802816     -1.071258
  H      -4.043006      2.227652     -2.805422
  H      -5.976973     -1.025462     -2.515279
  H      -6.084792      0.706831     -2.976675
  H      -5.923430      0.250054     -1.249701
  H      -1.136749      2.212734      0.348754
  H       0.246650      2.816132     -0.621935
  H      -0.629293      3.932068      0.484739
  H      -0.924455      2.052951      2.920411
  H      -0.299387      3.727599      3.052841
  H       0.662803      2.357389      3.703812
  H       2.469458      3.407778      0.508049
  H       2.650170      3.226587      2.282972
  H       1.610513      4.538109      1.608866
  Si      3.851728     -2.464226      0.857111
  C       5.301355     -1.358096      1.387087
  C       3.000754     -3.214526      2.365759
  C       4.402075     -3.777323     -0.395800
  H       5.029860     -0.286895      1.308079
  H       6.220747     -1.544453      0.796011
  H       5.533540     -1.554221      2.453865
  H       2.039297     -3.695799      2.095823
  H       2.788940     -2.396351      3.084324
  H       3.642906     -3.968052      2.867222
  H       3.537937     -4.370131     -0.760231
  H       5.131991     -4.483399      0.052489
  H       4.884857     -3.304887     -1.276153
  H       2.797200     -1.630136      0.153445
51
Coordinates from ORCA-job my_molecule E -1977.842304891170
  Pt     -1.536498     -0.508850      0.749924
  O       0.190888     -0.312798      1.591155
  O      -3.607863     -0.717530      0.295970
  P       1.372598      0.811441      1.397641
  P      -3.320471     -1.041498     -1.212124
  O      -3.894936     -2.489575     -1.687874
  O      -1.721411     -1.025360     -1.223298
  O       1.767848      0.696612     -0.197312
  O       2.487862      0.539929      2.378364
  C       0.702463      2.545607      1.504796
  C      -4.081973      0.095555     -2.435866
  C      -3.632202     -0.324743     -3.850080
  C      -3.580466      1.515120     -2.099205
  C      -5.614248      0.002423     -2.279480
  C      -0.251696      2.882963      0.348192
  C      -0.011660      2.671354      2.865474
  C       1.939119      3.471370      1.470503
  H      -3.580617     -3.202836     -1.093706
  H       2.292147     -0.131447     -0.324906
  H      -2.528166     -0.305008     -3.946935
  H      -4.051525      0.389402     -4.588937
  H      -3.989113     -1.340272     -4.109450
  H      -2.480088      1.594041     -2.200481
  H      -3.855041      1.810601     -1.067355
  H      -4.044742      2.237111     -2.802053
  H      -5.989044     -1.011680     -2.518973
  H      -6.092595      0.722020     -2.975906
  H      -5.934273      0.260261     -1.249883
  H      -1.133800      2.206063      0.334164
  H       0.255965      2.801145     -0.632692
  H      -0.621155      3.924228      0.465838
  H      -0.934158      2.057224      2.906986
  H      -0.302009      3.729460      3.036378
  H       0.650943      2.357098      3.696625
  H       2.476089      3.387745      0.504537
  H       2.647945      3.214454      2.281133
  H       1.616436      4.526645      1.596084
  Si      3.865831     -2.466181      0.863559
  C       5.303921     -1.346214      1.396227
  C       3.019414     -3.228261      2.368755
  C       4.430890     -3.771568     -0.390611
  H       5.029629     -0.277342      1.298542
  H       6.231287     -1.537537      0.819410
  H       5.523182     -1.525054      2.468693
  H       2.063175     -3.717833      2.095284
  H       2.798590     -2.413879      3.089054
  H       3.667571     -3.976953      2.869718
  H       3.576731     -4.385553     -0.743246
  H       5.181125     -4.458668      0.053676
  H       4.894429     -3.292795     -1.277835
  H       2.803672     -1.640439      0.161526
51
Coordinates from ORCA-job my_molecule E -1977.842253299754
  Pt     -1.549997     -0.504379      0.750428
  O       0.177075     -0.315501      1.594153
  O      -3.622362     -0.703454      0.297192
  P       1.365746      0.801432      1.402673
  P      -3.336955     -1.034459     -1.209730
  O      -3.918950     -2.481527     -1.679311
  O      -1.737871     -1.026092     -1.221398
  O       1.766968      0.680277     -0.190285
  O       2.475990      0.526871      2.388417
  C       0.703457      2.538932      1.502860
  C      -4.092415      0.101401     -2.438258
  C      -3.641326     -0.325303     -3.850155
  C      -3.586456      1.520270     -2.105491
  C      -5.625313      0.014324     -2.284577
  C      -0.245650      2.877286      0.342387
  C      -0.014256      2.671773      2.861008
  C       1.944359      3.458984      1.469493
  H      -3.608867     -3.193648     -1.081569
  H       2.294441     -0.146720     -0.312847
  H      -2.537082     -0.308881     -3.945173
  H      -4.057522      0.387179     -4.592370
  H      -4.000521     -1.340848     -4.106331
  H      -2.485254      1.594075     -2.201623
  H      -3.864872      1.821707     -1.076406
  H      -4.044196      2.241033     -2.813871
  H      -6.003417     -0.998882     -2.522636
  H      -6.099719      0.734243     -2.983356
  H      -5.946207      0.275475     -1.256077
  H      -1.130756      2.204386      0.327715
  H       0.264589      2.790350     -0.636727
  H      -0.610769      3.920554      0.455921
  H      -0.940202      2.062724      2.900647
  H      -0.299313      3.731835      3.028623
  H       0.643954      2.355585      3.694908
  H       2.484187      3.369396      0.505665
  H       2.649264      3.201815      2.283469
  H       1.626070      4.516142      1.590284
  Si      3.879200     -2.466882      0.867171
  C       5.306301     -1.334949      1.404477
  C       3.037200     -3.242621      2.367827
  C       4.458161     -3.762858     -0.390231
  H       5.030431     -0.268195      1.289348
  H       6.241840     -1.530655      0.842547
  H       5.511357     -1.498269      2.482164
  H       2.086229     -3.739827      2.089824
  H       2.807692     -2.433145      3.090923
  H       3.690933     -3.987457      2.867278
  H       3.614180     -4.396435     -0.732470
  H       5.227474     -4.431949      0.048973
  H       4.903089     -3.277120     -1.283159
  H       2.810062     -1.647994      0.167675
51
Coordinates from ORCA-job my_molecule E -1977.842199755132
  Pt     -1.562589     -0.504516      0.750580
  O       0.164018     -0.320691      1.595569
  O      -3.635799     -0.695912      0.298235
  P       1.358417      0.789907      1.405603
  P      -3.352233     -1.028253     -1.208702
  O      -3.940424     -2.473169     -1.677139
  O      -1.753137     -1.025905     -1.221147
  O       1.766144      0.660948     -0.185007
  O       2.463342      0.514440      2.397310
  C       0.702952      2.530424      1.496760
  C      -4.102973      0.110076     -2.437804
  C      -3.651174     -0.317917     -3.849111
  C      -3.593145      1.527353     -2.104314
  C      -5.636326      0.027558     -2.286236
  C      -0.240270      2.868401      0.331347
  C      -0.019457      2.671141      2.851663
  C       1.947646      3.445340      1.464603
  H      -3.633947     -3.185914     -1.078277
  H       2.296877     -0.164900     -0.301988
  H      -2.546786     -0.304149     -3.942823
  H      -4.064824      0.395396     -4.591949
  H      -4.012503     -1.332654     -4.105497
  H      -2.491242      1.596831     -2.195666
  H      -3.874934      1.831129     -1.076835
  H      -4.045030      2.249067     -2.815491
  H      -6.017155     -0.984246     -2.525875
  H      -6.107692      0.749623     -2.984849
  H      -5.957671      0.288487     -1.257817
  H      -1.127675      2.198558      0.315354
  H       0.273609      2.776498     -0.645420
  H      -0.602148      3.913315      0.440045
  H      -0.948706      2.067005      2.889085
  H      -0.299648      3.733155      3.014987
  H       0.633747      2.353842      3.689063
  H       2.491137      3.349245      0.503465
  H       2.648093      3.189008      2.282695
  H       1.633141      4.504287      1.579482
  Si      3.893968     -2.468586      0.872606
  C       5.308370     -1.322590      1.413946
  C       3.056108     -3.256506      2.369229
  C       4.488908     -3.756263     -0.385712
  H       5.030344     -0.258760      1.279167
  H       6.252729     -1.522690      0.868604
  H       5.497924     -1.468152      2.496943
  H       2.111200     -3.762655      2.086761
  H       2.816484     -2.451095      3.093657
  H       3.715801     -3.995920      2.868885
  H       3.656289     -4.409657     -0.718295
  H       5.276118     -4.406337      0.050399
  H       4.916592     -3.265076     -1.284043
  H       2.817530     -1.658524      0.173957
51
Coordinates from ORCA-job my_molecule E -1977.842149848765
  Pt     -1.576032     -0.501904      0.750447
  O       0.150388     -0.324852      1.597203
  O      -3.650220     -0.684087      0.299281
  P       1.351282      0.778688      1.409277
  P      -3.369025     -1.021126     -1.207035
  O      -3.964548     -2.464384     -1.671234
  O      -1.769966     -1.026091     -1.220407
  O       1.765139      0.642863     -0.179102
  O       2.451013      0.500842      2.406209
  C       0.703488      2.522374      1.492864
  C      -4.114310      0.117606     -2.439033
  C      -3.661700     -0.314734     -3.848779
  C      -3.600061      1.533724     -2.107556
  C      -5.648172      0.040731     -2.289755
  C      -0.234081      2.861031      0.323068
  C      -0.023069      2.670372      2.844805
  C       1.952305      3.431663      1.462136
  H      -3.661966     -3.176745     -1.069941
  H       2.299045     -0.181882     -0.290921
  H      -2.557160     -0.304058     -3.941033
  H      -4.072552      0.397923     -4.593792
  H      -4.025348     -1.329122     -4.103297
  H      -2.497457      1.598334     -2.194022
  H      -3.885291      1.841987     -1.082369
  H      -4.045689      2.255104     -2.823016
  H      -6.032239     -0.969878     -2.529231
  H      -6.115934      0.763967     -2.989571
  H      -5.970056      0.303515     -1.261970
  H      -1.124050      2.194667      0.305609
  H       0.283049      2.764528     -0.651550
  H      -0.592221      3.907665      0.427660
  H      -0.955825      2.071526      2.879891
  H      -0.297826      3.734318      3.004673
  H       0.625252      2.351165      3.685263
  H       2.499073      3.329458      0.503492
  H       2.648436      3.175405      2.283942
  H       1.642076      4.492411      1.571865
  Si      3.908883     -2.469923      0.877096
  C       5.310304     -1.310054      1.422972
  C       3.075223     -3.270597      2.369363
  C       4.519962     -3.748789     -0.382363
  H       5.030372     -0.249450      1.268346
  H       6.263611     -1.514118      0.894984
  H       5.483490     -1.437931      2.510878
  H       2.136733     -3.785855      2.082032
  H       2.825137     -2.469670      3.095186
  H       3.740895     -4.004496      2.869202
  H       3.699094     -4.421031     -0.706378
  H       5.323863     -4.380181      0.050813
  H       4.931367     -3.252336     -1.285366
  H       2.825317     -1.668572      0.179161
51
Coordinates from ORCA-job my_molecule E -1977.842105778465
  Pt     -1.589520     -0.501498      0.749990
  O       0.136568     -0.330463      1.598078
  O      -3.664661     -0.674600      0.300185
  P       1.343493      0.766348      1.411864
  P      -3.385945     -1.014283     -1.205980
  O      -3.989018     -2.455110     -1.667879
  O      -1.786955     -1.026687     -1.220360
  O       1.763475      0.623020     -0.174133
  O       2.438083      0.486785      2.414015
  C       0.703051      2.513051      1.487292
  C      -4.125700      0.126665     -2.439219
  C      -3.672845     -0.308312     -3.848103
  C      -3.606421      1.540976     -2.108006
  C      -5.660033      0.055750     -2.291922
  C      -0.228410      2.852032      0.312679
  C      -0.028156      2.668508      2.835931
  C       1.955843      3.416881      1.458367
  H      -3.690454     -3.167928     -1.065124
  H       2.300623     -0.200610     -0.280409
  H      -2.568180     -0.301221     -3.939140
  H      -4.080656      0.404954     -4.594200
  H      -4.039440     -1.321778     -4.102087
  H      -2.503185      1.600459     -2.190099
  H      -3.894383      1.852380     -1.084536
  H      -4.045923      2.263153     -2.826454
  H      -6.047697     -0.953272     -2.532268
  H      -6.124153      0.781043     -2.992029
  H      -5.982106      0.319319     -1.264390
  H      -1.120655      2.188783      0.293254
  H       0.292479      2.751157     -0.659501
  H      -0.583225      3.900216      0.413031
  H      -0.964434      2.075027      2.868356
  H      -0.297486      3.734376      2.992125
  H       0.614913      2.347512      3.679735
  H       2.506275      3.308438      0.502512
  H       2.647336      3.161035      2.284221
  H       1.649706      4.479367      1.562589
  Si      3.924937     -2.471647      0.882508
  C       5.312163     -1.296122      1.431526
  C       3.096179     -3.284244      2.371216
  C       4.553253     -3.742458     -0.376546
  H       5.029440     -0.239680      1.255399
  H       6.274506     -1.503678      0.921647
  H       5.468643     -1.404563      2.524010
  H       2.164852     -3.809893      2.079453
  H       2.834571     -2.487432      3.097466
  H       3.768519     -4.011233      2.872210
  H       3.744901     -4.433479     -0.692311
  H       5.372926     -4.354510      0.054900
  H       4.949222     -3.241891     -1.284143
  H       2.833682     -1.680642      0.184281
51
Coordinates from ORCA-job my_molecule E -1977.842072494563
  Pt     -1.603915     -0.500076      0.749371
  O       0.121996     -0.336067      1.598965
  O      -3.680021     -0.663325      0.300883
  P       1.335391      0.753547      1.414598
  P      -3.403939     -1.006865     -1.204885
  O      -4.015127     -2.445295     -1.663467
  O      -1.805073     -1.027422     -1.220186
  O       1.761118      0.602986     -0.169049
  O       2.424989      0.471385      2.421359
  C       0.702992      2.503407      1.482620
  C      -4.137655      0.135664     -2.440228
  C      -3.684571     -0.303154     -3.847871
  C      -3.612926      1.548220     -2.110238
  C      -5.672473      0.071386     -2.295037
  C      -0.222293      2.843361      0.303383
  C      -0.032659      2.666142      2.828018
  C       1.960054      3.401322      1.455748
  H      -3.720737     -3.158276     -1.058857
  H       2.301328     -0.219663     -0.269736
  H      -2.579785     -0.300069     -3.937568
  H      -4.089048      0.410266     -4.595630
  H      -4.054412     -1.315764     -4.100590
  H      -2.509086      1.602270     -2.188006
  H      -3.903495      1.863507     -1.088699
  H      -4.046128      2.270794     -2.832114
  H      -6.064091     -0.936042     -2.535622
  H      -6.132566      0.798444     -2.995966
  H      -5.994772      0.336601     -1.267994
  H      -1.116962      2.183481      0.281735
  H       0.302278      2.738325     -0.666386
  H      -0.573469      3.893139      0.399883
  H      -0.972656      2.078421      2.857651
  H      -0.296076      3.733950      2.980956
  H       0.605065      2.342876      3.675005
  H       2.514003      3.286759      0.502643
  H       2.646859      3.145414      2.285497
  H       1.658422      4.465584      1.554817
  Si      3.941452     -2.473291      0.887817
  C       5.313680     -1.281087      1.438995
  C       3.118500     -3.297777      2.373430
  C       4.587452     -3.736137     -0.370256
  H       5.027398     -0.229612      1.240625
  H       6.284900     -1.491355      0.947445
  H       5.453447     -1.369307      2.535500
  H       2.194975     -3.834743      2.077513
  H       2.844656     -2.505214      3.099704
  H       3.798118     -4.016934      2.875888
  H       3.792127     -4.445553     -0.678100
  H       5.422120     -4.328572      0.059892
  H       4.968490     -3.232060     -1.282266
  H       2.842128     -1.693588      0.188809
51
Coordinates from ORCA-job my_molecule E -1977.842052100652
  Pt     -1.619004     -0.499694      0.748820
  O       0.106620     -0.342674      1.599823
  O      -3.696018     -0.652455      0.301497
  P       1.326447      0.739637      1.416907
  P      -3.422564     -0.999428     -1.203962
  O      -4.042612     -2.434873     -1.659870
  O      -1.823881     -1.029015     -1.219938
  O       1.757512      0.581502     -0.164382
  O       2.411329      0.454903      2.427860
  C       0.702274      2.492646      1.477513
  C      -4.149445      0.145572     -2.441029
  C      -3.696605     -0.296983     -3.847605
  C      -3.618160      1.555836     -2.111838
  C      -5.684751      0.089057     -2.297861
  C      -0.216616      2.833624      0.293542
  C      -0.037914      2.662765      2.819547
  C       1.963670      3.384503      1.452894
  H      -3.752870     -3.148410     -1.053675
  H       2.300701     -0.240198     -0.259187
  H      -2.591716     -0.298921     -3.935995
  H      -4.097084      0.417243     -4.596742
  H      -4.070659     -1.308273     -4.099433
  H      -2.513759      1.603719     -2.185718
  H      -3.910646      1.874756     -1.091977
  H      -4.044850      2.279391     -2.836613
  H      -6.081079     -0.916429     -2.538823
  H      -6.140312      0.818301     -2.999477
  H      -6.007014      0.355995     -1.271247
  H      -1.113654      2.177073      0.269397
  H       0.311807      2.724539     -0.673697
  H      -0.564177      3.884950      0.386236
  H      -0.981718      2.081033      2.846243
  H      -0.295188      3.732519      2.969254
  H       0.594265      2.337132      3.669781
  H       2.521233      3.263726      0.502668
  H       2.645621      3.128548      2.286636
  H       1.666660      4.450534      1.546724
  Si      3.958703     -2.474942      0.893488
  C       5.314685     -1.264253      1.445007
  C       3.142915     -3.310742      2.377012
  C       4.623147     -3.730319     -0.362441
  H       5.023631     -0.218841      1.223284
  H       6.294604     -1.476241      0.971870
  H       5.437943     -1.330915      2.544943
  H       2.228057     -3.860474      2.077627
  H       2.855831     -2.522292      3.102550
  H       3.830747     -4.020548      2.881569
  H       3.841518     -4.458094     -0.662301
  H       5.472189     -4.302458      0.067116
  H       4.989608     -3.223685     -1.278973
  H       2.850579     -1.708347      0.192975
51
Coordinates from ORCA-job my_molecule E -1977.842048920436
  Pt     -1.635034     -0.499094      0.748255
  O       0.090297     -0.349719      1.600955
  O      -3.712890     -0.640558      0.301897
  P       1.316898      0.724864      1.419333
  P      -3.442122     -0.991653     -1.203102
  O      -4.071760     -2.423853     -1.655920
  O      -1.843704     -1.031194     -1.219500
  O       1.752777      0.559169     -0.159671
  O       2.397327      0.436955      2.433889
  C       0.701573      2.481144      1.473026
  C      -4.161386      0.155745     -2.442381
  C      -3.709105     -0.291466     -3.847689
  C      -3.622641      1.563477     -2.114563
  C      -5.697167      0.108099     -2.301238
  C      -0.210850      2.823599      0.284446
  C      -0.042958      2.658663      2.811729
  C       1.967555      3.366522      1.450797
  H      -3.786983     -3.137917     -1.047998
  H       2.298713     -0.261714     -0.248454
  H      -2.604141     -0.299214     -3.934750
  H      -4.105103      0.423477     -4.598517
  H      -4.088058     -1.301270     -4.098179
  H      -2.517720      1.604563     -2.184795
  H      -3.916617      1.886505     -1.096427
  H      -4.042565      2.287971     -2.842354
  H      -6.098886     -0.895238     -2.542198
  H      -6.147657      0.839551     -3.003828
  H      -6.019241      0.377423     -1.275184
  H      -1.110361      2.170579      0.257616
  H       0.321380      2.710578     -0.680264
  H      -0.554529      3.876511      0.373592
  H      -0.990716      2.083270      2.835463
  H      -0.293681      3.730381      2.958434
  H       0.583589      2.330393      3.665117
  H       2.528595      3.239536      0.503428
  H       2.644608      3.110197      2.288420
  H       1.675538      4.434359      1.539591
  Si      3.976369     -2.476397      0.899106
  C       5.314954     -1.245749      1.449343
  C       3.169027     -3.323064      2.381392
  C       4.659863     -3.724605     -0.353763
  H       5.018006     -0.207439      1.203690
  H       6.303291     -1.458293      0.994399
  H       5.422031     -1.290057      2.552020
  H       2.263757     -3.886937      2.079145
  H       2.867687     -2.538778      3.105541
  H       3.865927     -4.022057      2.888580
  H       3.892499     -4.470553     -0.645600
  H       5.522645     -4.275940      0.075687
  H       5.012068     -3.216217     -1.274876
  H       2.858903     -1.724556      0.196359
51
Coordinates from ORCA-job my_molecule E -1977.842094584111
  Pt     -1.655188     -0.498280      0.750012
  O       0.069339     -0.357222      1.605497
  O      -3.733485     -0.625915      0.302515
  P       1.303688      0.708170      1.423031
  P      -3.464248     -0.983726     -1.201219
  O      -4.106519     -2.411464     -1.650134
  O      -1.866278     -1.037413     -1.215621
  O       1.741787      0.534035     -0.154132
  O       2.381357      0.415877      2.438690
  C       0.698967      2.468192      1.470808
  C      -4.171151      0.166435     -2.445030
  C      -3.719236     -0.288629     -3.847954
  C      -3.621211      1.570425     -2.119800
  C      -5.707625      0.132405     -2.307626
  C      -0.208247      2.812738      0.278801
  C      -0.047897      2.653889      2.807130
  C       1.970238      3.345963      1.449268
  H      -3.829132     -3.126138     -1.039521
  H       2.290236     -0.286380     -0.236277
  H      -2.614180     -0.305458     -3.932471
  H      -4.107913      0.427083     -4.601865
  H      -4.105701     -1.296159     -4.096138
  H      -2.515700      1.601675     -2.185811
  H      -3.916257      1.899399     -1.103880
  H      -4.032029      2.296166     -2.851544
  H      -6.117460     -0.867805     -2.547897
  H      -6.150009      0.866561     -3.012541
  H      -6.029875      0.406324     -1.282842
  H      -1.110668      2.163857      0.250240
  H       0.326518      2.695517     -0.684018
  H      -0.547241      3.867426      0.364877
  H      -0.999971      2.085620      2.829309
  H      -0.290967      3.727744      2.951052
  H       0.573892      2.322702      3.662878
  H       2.533344      3.212250      0.504048
  H       2.643277      3.088786      2.289872
  H       1.684300      4.415820      1.533356
  Si      3.994746     -2.477463      0.903542
  C       5.314078     -1.222834      1.446423
  C       3.200035     -3.333485      2.387659
  C       4.697932     -3.719908     -0.344255
  H       5.007080     -0.193279      1.178061
  H       6.308995     -1.432995      1.005016
  H       5.410221     -1.244510      2.550705
  H       2.306788     -3.916005      2.084917
  H       2.881347     -2.553089      3.108362
  H       3.909108     -4.017030      2.899012
  H       3.945849     -4.484954     -0.626164
  H       5.574795     -4.248487      0.085358
  H       5.034726     -3.211546     -1.271104
  H       2.865543     -1.744884      0.197405
51
Coordinates from ORCA-job my_molecule E -1977.842070183750
  Pt     -1.638886     -0.497732      0.750608
  O       0.086115     -0.348615      1.604241
  O      -3.716379     -0.638442      0.302373
  P       1.313786      0.724486      1.420534
  P      -3.444235     -0.991484     -1.201946
  O      -4.075426     -2.423147     -1.654227
  O      -1.845863     -1.033590     -1.216173
  O       1.747652      0.557555     -0.158720
  O       2.395523      0.435487      2.432978
  C       0.700021      2.481255      1.474544
  C      -4.159975      0.155862     -2.443287
  C      -3.705815     -0.293123     -3.847423
  C      -3.619968      1.563183     -2.115683
  C      -5.696071      0.110471     -2.304842
  C      -0.214318      2.823603      0.287412
  C      -0.041904      2.660111      2.814510
  C       1.966617      3.365688      1.449466
  H      -3.792175     -3.137174     -1.045545
  H       2.294070     -0.263530     -0.246662
  H      -2.600724     -0.301655     -3.932749
  H      -4.100243      0.421251     -4.599617
  H      -4.085005     -1.302964     -4.097423
  H      -2.514882      1.603055     -2.184155
  H      -3.915163      1.887268     -1.098236
  H      -4.037960      2.287635     -2.844630
  H      -6.098873     -0.892298     -2.546360
  H      -6.144212      0.842541     -3.008290
  H      -6.019568      0.380485     -1.279416
  H      -1.114149      2.170965      0.262235
  H       0.316218      2.710102     -0.678171
  H      -0.557488      3.876661      0.376758
  H      -0.989975      2.085340      2.840382
  H      -0.291605      3.732097      2.961033
  H       0.586028      2.331972      3.666928
  H       2.525683      3.237922      0.501038
  H       2.645126      3.109167      2.285859
  H       1.675610      4.433783      1.538453
  Si      3.977413     -2.477027      0.898527
  C       5.315529     -1.244386      1.445662
  C       3.172139     -3.323852      2.381977
  C       4.660988     -3.725343     -0.354236
  H       5.016184     -0.206407      1.202130
  H       6.302407     -1.455439      0.986885
  H       5.427017     -1.289814      2.547861
  H       2.268002     -3.890027      2.080606
  H       2.868971     -2.539590      3.105155
  H       3.870797     -4.020589      2.889847
  H       3.894586     -4.473129     -0.643869
  H       5.525675     -4.274425      0.074253
  H       5.010540     -3.217277     -1.276531
  H       2.858166     -1.726882      0.195937
51
Coordinates from ORCA-job my_molecule E -1977.842101242320
  Pt     -1.626010     -0.496832      0.751417
  O       0.098377     -0.339491      1.605199
  O      -3.702265     -0.650420      0.300999
  P       1.321074      0.739348      1.419539
  P      -3.426359     -0.998393     -1.203842
  O      -4.045900     -2.433953     -1.659961
  O      -1.827708     -1.028508     -1.216997
  O       1.749939      0.577779     -0.161529
  O       2.406946      0.451863      2.427739
  C       0.701338      2.493829      1.479601
  C      -4.150467      0.146115     -2.442952
  C      -3.693634     -0.296882     -3.848116
  C      -3.620415      1.556654     -2.112771
  C      -5.686127      0.089562     -2.304077
  C      -0.219633      2.835292      0.297369
  C      -0.035217      2.667276      2.823201
  C       1.964664      3.382837      1.450825
  H      -3.756916     -3.147317     -1.053193
  H       2.293930     -0.244506     -0.253792
  H      -2.588527     -0.297237     -3.933824
  H      -4.093476      0.416100     -4.598775
  H      -4.065554     -1.308949     -4.100030
  H      -2.515842      1.605256     -2.183910
  H      -3.915512      1.875526     -1.093646
  H      -4.045788      2.279906     -2.838634
  H      -6.081897     -0.915697     -2.546848
  H      -6.139640      0.819443     -3.006354
  H      -6.011257      0.355912     -1.278227
  H      -1.117818      2.180281      0.275518
  H       0.306529      2.724594     -0.670947
  H      -0.565186      3.887292      0.389872
  H      -0.980165      2.087611      2.852954
  H      -0.289758      3.737791      2.972187
  H       0.598344      2.341377      3.672284
  H       2.519504      3.259814      0.499284
  H       2.648163      3.126268      2.283134
  H       1.670297      4.449631      1.544309
  Si      3.962146     -2.477402      0.893698
  C       5.316855     -1.263088      1.440833
  C       3.148203     -3.314044      2.378111
  C       4.628318     -3.732893     -0.361281
  H       5.021135     -0.218433      1.223269
  H       6.294033     -1.472247      0.960863
  H       5.448177     -1.332254      2.539675
  H       2.236461     -3.869031      2.078828
  H       2.855445     -2.525755      3.101193
  H       3.839243     -4.018797      2.885334
  H       3.849962     -4.466514     -0.655274
  H       5.482881     -4.298076      0.066507
  H       4.987744     -3.227108     -1.281039
  H       2.851363     -1.713533      0.192275
51
Coordinates from ORCA-job my_molecule E -1977.842092461320
  Pt     -1.638759     -0.498288      0.748166
  O       0.085500     -0.348793      1.603407
  O      -3.716153     -0.641229      0.300372
  P       1.313785      0.723979      1.420455
  P      -3.444156     -0.991218     -1.204752
  O      -4.072670     -2.423443     -1.658967
  O      -1.845788     -1.030034     -1.219879
  O       1.748313      0.556582     -0.158399
  O       2.394700      0.434004      2.433269
  C       0.701391      2.481242      1.474188
  C      -4.162959      0.156655     -2.443855
  C      -3.709235     -0.289780     -3.848959
  C      -3.625043      1.564457     -2.114796
  C      -5.698826      0.108617     -2.304236
  C      -0.212785      2.824146      0.287053
  C      -0.040251      2.660982      2.814170
  C       1.968675      3.364692      1.448864
  H      -3.787369     -3.137930     -1.051782
  H       2.294404     -0.265009     -0.245494
  H      -2.604200     -0.295792     -3.935370
  H      -4.106038      0.424514     -4.599980
  H      -4.086465     -1.300184     -4.099664
  H      -2.520133      1.606596     -2.184919
  H      -3.919295      1.886164     -1.096318
  H      -4.045590      2.289347     -2.841844
  H      -6.100254     -0.894315     -2.547277
  H      -6.148646      0.841310     -3.005960
  H      -6.021987      0.376343     -1.278127
  H      -1.112982      2.172067      0.261861
  H       0.317743      2.710266     -0.678521
  H      -0.555114      3.877482      0.376333
  H      -0.988926      2.087253      2.840309
  H      -0.288827      3.733251      2.960577
  H       0.587403      2.332402      3.666604
  H       2.527585      3.236279      0.500413
  H       2.647050      3.107924      2.285299
  H       1.678426      4.433026      1.537519
  Si      3.978731     -2.478033      0.900266
  C       5.315787     -1.243907      1.446560
  C       3.172893     -3.324128      2.383824
  C       4.664047     -3.727038     -0.350871
  H       5.015527     -0.206366      1.202839
  H       6.302414     -1.454891      0.987276
  H       5.428147     -1.288851      2.548662
  H       2.270014     -3.892320      2.082378
  H       2.867130     -2.539587      3.105533
  H       3.872370     -4.018757      2.893453
  H       3.898572     -4.476118     -0.639594
  H       5.529454     -4.274469      0.078251
  H       5.012911     -3.219690     -1.273809
  H       2.859478     -1.729411      0.195472
51
Coordinates from ORCA-job my_molecule E -1977.842167626042
  Pt     -1.662217     -0.496431      0.754853
  O       0.061721     -0.356862      1.611918
  O      -3.739761     -0.620837      0.302441
  P       1.297872      0.706087      1.425645
  P      -3.467333     -0.982749     -1.199800
  O      -4.111882     -2.409802     -1.647557
  O      -1.869508     -1.040643     -1.209591
  O       1.731263      0.530639     -0.152379
  O       2.378424      0.411406      2.436991
  C       0.696589      2.467192      1.475173
  C      -4.167990      0.166620     -2.447869
  C      -3.714150     -0.293015     -3.848684
  C      -3.614768      1.569776     -2.124481
  C      -5.704874      0.137459     -2.314068
  C      -0.214173      2.812742      0.286177
  C      -0.045302      2.654647      2.813979
  C       1.969293      3.342785      1.448977
  H      -3.837207     -3.124172     -1.035354
  H       2.279184     -0.290582     -0.233515
  H      -2.608957     -0.312627     -3.930791
  H      -4.099603      0.421670     -4.605218
  H      -4.102450     -1.300270     -4.095119
  H      -2.509140      1.598439     -2.189824
  H      -3.909641      1.900837     -1.109184
  H      -4.023505      2.295399     -2.857507
  H      -6.117189     -0.861881     -2.553705
  H      -6.143275      0.871853     -3.021221
  H      -6.028821      0.414184     -1.290578
  H      -1.117860      2.165445      0.260809
  H       0.317063      2.694216     -0.678444
  H      -0.551091      3.868029      0.372895
  H      -0.997823      2.087332      2.840151
  H      -0.286771      3.728863      2.957952
  H       0.579233      2.323577      3.667763
  H       2.528641      3.208260      0.501638
  H       2.645006      3.084371      2.287068
  H       1.685526      4.413128      1.534235
  Si      3.995168     -2.477551      0.901716
  C       5.312980     -1.217639      1.435788
  C       3.206408     -3.331240      2.390361
  C       4.698472     -3.722064     -0.344059
  H       5.000199     -0.189010      1.171329
  H       6.304615     -1.424698      0.985617
  H       5.419013     -1.240573      2.539144
  H       2.316637     -3.921024      2.091378
  H       2.882611     -2.549973      3.107712
  H       3.920595     -4.007547      2.904229
  H       3.947104     -4.489087     -0.622496
  H       5.577278     -4.248059      0.084738
  H       5.032119     -3.215356     -1.272948
  H       2.862277     -1.751263      0.193711
51
Coordinates from ORCA-job my_molecule E -1977.842120097766
  Pt     -1.647929     -0.494251      0.758183
  O       0.076920     -0.346810      1.612186
  O      -3.724686     -0.630352      0.303767
  P       1.306813      0.723079      1.423776
  P      -3.448423     -0.989770     -1.198308
  O      -4.082652     -2.420887     -1.648038
  O      -1.850158     -1.037399     -1.206711
  O       1.735367      0.553944     -0.156295
  O       2.391835      0.431626      2.431245
  C       0.696883      2.481056      1.479100
  C      -4.155875      0.155708     -2.446083
  C      -3.697150     -0.298924     -3.846918
  C      -3.613299      1.562555     -2.120550
  C      -5.692661      0.115144     -2.313954
  C      -0.221577      2.823940      0.295336
  C      -0.039325      2.662316      2.821857
  C       1.965027      3.363143      1.448276
  H      -3.803300     -3.133975     -1.036442
  H       2.281991     -0.267611     -0.242737
  H      -2.591744     -0.310583     -3.927689
  H      -4.086679      0.414042     -4.602986
  H      -4.077914     -1.308597     -4.095237
  H      -2.507889      1.599677     -2.185511
  H      -3.910944      1.890032     -1.104904
  H      -4.027224      2.286082     -2.852729
  H      -6.097387     -0.887137     -2.554265
  H      -6.135661      0.846520     -3.021363
  H      -6.019711      0.389173     -1.290720
  H      -1.122863      2.173058      0.274169
  H       0.304819      2.708541     -0.672289
  H      -0.562526      3.877674      0.384959
  H      -0.987903      2.088641      2.852355
  H      -0.287142      3.734766      2.968200
  H       0.591760      2.334415      3.672025
  H       2.519819      3.233991      0.497531
  H       2.646562      3.105659      2.281930
  H       1.676461      4.431825      1.538130
  Si      3.978310     -2.477659      0.896207
  C       5.315385     -1.240424      1.435494
  C       3.179392     -3.324528      2.383266
  C       4.661098     -3.726336     -0.356713
  H       5.009993     -0.203435      1.196121
  H       6.298914     -1.448117      0.968074
  H       5.436745     -1.287606      2.536587
  H       2.277980     -3.896643      2.084908
  H       2.872226     -2.540212      3.104517
  H       3.882903     -4.015605      2.892161
  H       3.896262     -4.477655     -0.641285
  H       5.529861     -4.271123      0.069001
  H       5.004497     -3.218973     -1.281698
  H       2.854800     -1.731999      0.194068
51
Coordinates from ORCA-job my_molecule E -1977.842116305577
  Pt     -1.635934     -0.492582      0.758912
  O       0.087884     -0.336322      1.614113
  O      -3.711443     -0.641093      0.303485
  P       1.313446      0.738477      1.423035
  P      -3.432488     -0.997189     -1.198905
  O      -4.057374     -2.431701     -1.650868
  O      -1.833963     -1.035207     -1.206731
  O       1.737477      0.573623     -0.158656
  O       2.402369      0.448679      2.426594
  C       0.697772      2.494260      1.483250
  C      -4.146907      0.145512     -2.445251
  C      -3.686455     -0.305025     -3.846828
  C      -3.611970      1.555038     -2.118585
  C      -5.683378      0.096373     -2.312348
  C      -0.224826      2.836603      0.302582
  C      -0.035746      2.670274      2.828187
  C       1.962924      3.380584      1.451332
  H      -3.773367     -3.143963     -1.040464
  H       2.283131     -0.248142     -0.248560
  H      -2.581041     -0.310502     -3.928157
  H      -4.080239      0.406694     -4.601869
  H      -4.061704     -1.316503     -4.096203
  H      -2.507039      1.599177     -2.187023
  H      -3.908289      1.878582     -1.101292
  H      -4.032693      2.277485     -2.847952
  H      -6.082720     -0.908066     -2.552703
  H      -6.130766      0.825513     -3.019305
  H      -6.011399      0.368279     -1.288859
  H      -1.124324      2.183270      0.282570
  H       0.299288      2.724470     -0.666667
  H      -0.568439      3.889232      0.395076
  H      -0.981639      2.092306      2.860390
  H      -0.287998      3.741393      2.976747
  H       0.599002      2.343982      3.676248
  H       2.515520      3.255840      0.498725
  H       2.647552      3.122974      2.282398
  H       1.671114      4.448066      1.544919
  Si      3.964830     -2.478004      0.891738
  C       5.318603     -1.260516      1.434461
  C       3.156658     -3.318290      2.377545
  C       4.630239     -3.730666     -0.366498
  H       5.017359     -0.216388      1.222477
  H       6.292849     -1.465477      0.946737
  H       5.458439     -1.333380      2.532056
  H       2.246950     -3.877193      2.079403
  H       2.861009     -2.531363      3.100820
  H       3.851589     -4.019762      2.883965
  H       3.854452     -4.469077     -0.655218
  H       5.490766     -4.290405      0.056499
  H       4.981170     -3.223459     -1.288749
  H       2.849750     -1.716411      0.193425
51
Coordinates from ORCA-job my_molecule E -1977.842257305683
  Pt     -1.657844     -0.488720      0.766401
  O       0.063392     -0.338232      1.628264
  O      -3.732294     -0.625730      0.303704
  P       1.297049      0.726442      1.430842
  P      -3.449987     -0.992458     -1.195601
  O      -4.086005     -2.423545     -1.642525
  O      -1.851916     -1.044884     -1.195949
  O       1.715957      0.553870     -0.151125
  O       2.388015      0.430749      2.430027
  C       0.693705      2.486427      1.489228
  C      -4.148402      0.150227     -2.451027
  C      -3.688616     -0.313737     -3.848435
  C      -3.599369      1.555859     -2.131085
  C      -5.685713      0.118460     -2.322707
  C      -0.225673      2.833612      0.307436
  C      -0.039674      2.669061      2.833408
  C       1.964814      3.364129      1.457228
  H      -3.810752     -3.135301     -1.027546
  H       2.262441     -0.267931     -0.235668
  H      -2.583086     -0.331949     -3.926326
  H      -4.072219      0.397738     -4.608926
  H      -4.074355     -1.322473     -4.092853
  H      -2.493992      1.588401     -2.198654
  H      -3.893222      1.887406     -1.115649
  H      -4.012108      2.278879     -2.864445
  H      -6.095105     -0.883041     -2.558353
  H      -6.123025      0.848082     -3.035454
  H      -6.014011      0.400088     -1.301950
  H      -1.128910      2.185529      0.286429
  H       0.298958      2.717971     -0.661154
  H      -0.563106      3.888326      0.398951
  H      -0.989504      2.097656      2.865625
  H      -0.284652      3.742075      2.980490
  H       0.592129      2.339549      3.682438
  H       2.517517      3.234295      0.505341
  H       2.646905      3.103307      2.289370
  H       1.680063      4.433690      1.548848
  Si      3.975649     -2.477279      0.889740
  C       5.317764     -1.240360      1.416834
  C       3.182740     -3.319445      2.382723
  C       4.651929     -3.730124     -0.362682
  H       5.001659     -0.201139      1.203121
  H       6.289033     -1.437019      0.919874
  H       5.469566     -1.306899      2.513198
  H       2.285976     -3.901073      2.088693
  H       2.868116     -2.533350      3.099000
  H       3.892407     -4.000853      2.896081
  H       3.885742     -4.482681     -0.640257
  H       5.523708     -4.273133      0.059156
  H       4.989170     -3.225341     -1.291343
  H       2.849135     -1.735133      0.187265
51
Coordinates from ORCA-job my_molecule E -1977.842380396175
  Pt     -1.670495     -0.483449      0.778983
  O       0.048981     -0.332793      1.644382
  O      -3.742760     -0.618149      0.304734
  P       1.286060      0.726290      1.437891
  P      -3.451960     -0.992200     -1.191113
  O      -4.088962     -2.423358     -1.636307
  O      -1.853985     -1.049191     -1.181258
  O       1.695333      0.549482     -0.146035
  O       2.382741      0.427398      2.429516
  C       0.689302      2.488396      1.498310
  C      -4.139588      0.147391     -2.455293
  C      -3.676173     -0.325270     -3.848561
  C      -3.585646      1.552069     -2.139605
  C      -5.677560      0.122991     -2.333291
  C      -0.233083      2.838200      0.319659
  C      -0.038937      2.673825      2.844930
  C       1.963103      3.361982      1.461711
  H      -3.818835     -3.133651     -1.017369
  H       2.241747     -0.272575     -0.229300
  H      -2.570427     -0.349692     -3.921623
  H      -4.052678      0.384831     -4.613873
  H      -4.066243     -1.333016     -4.090126
  H      -2.480009      1.579903     -2.204916
  H      -3.880292      1.888596     -1.126029
  H      -3.993909      2.273915     -2.876615
  H      -6.090284     -0.878033     -2.565172
  H      -6.108722      0.850492     -3.051928
  H      -6.008930      0.411651     -1.315502
  H      -1.138524      2.193041      0.301672
  H       0.287790      2.720631     -0.650732
  H      -0.566880      3.893984      0.411985
  H      -0.989939      2.104664      2.880970
  H      -0.280830      3.747533      2.992072
  H       0.594998      2.343420      3.692028
  H       2.512051      3.230397      0.507877
  H       2.647289      3.098990      2.291441
  H       1.682156      4.432471      1.554282
  Si      3.973161     -2.476692      0.882843
  C       5.317684     -1.236638      1.396002
  C       3.188961     -3.313789      2.383267
  C       4.644568     -3.734402     -0.367479
  H       4.990467     -0.197259      1.201075
  H       6.278309     -1.422836      0.874864
  H       5.495100     -1.315689      2.487718
  H       2.297802     -3.906711      2.094713
  H       2.866718     -2.525844      3.094149
  H       3.906032     -3.984110      2.900939
  H       3.878233     -4.489831     -0.636725
  H       5.520234     -4.273655      0.051137
  H       4.974695     -3.233135     -1.300592
  H       2.842137     -1.740572      0.180298
51
Coordinates from ORCA-job my_molecule E -1977.842490449596
  Pt     -1.687311     -0.485343      0.780116
  O       0.030752     -0.341470      1.649484
  O      -3.759335     -0.608182      0.303355
  P       1.274064      0.709877      1.441868
  P      -3.469010     -0.986230     -1.191598
  O      -4.116508     -2.412979     -1.635583
  O      -1.871519     -1.055048     -1.179117
  O       1.684054      0.526426     -0.141179
  O       2.369135      0.406996      2.433921
  C       0.686760      2.475295      1.498659
  C      -4.145960      0.156929     -2.458378
  C      -3.685418     -0.322011     -3.850459
  C      -3.580715      1.557467     -2.144477
  C      -5.684197      0.145377     -2.337618
  C      -0.230482      2.828378      0.316889
  C      -0.044239      2.666551      2.843002
  C       1.965163      3.342116      1.464287
  H      -3.853008     -3.124449     -1.015162
  H       2.230898     -0.295936     -0.220025
  H      -2.579874     -0.355742     -3.922732
  H      -4.055558      0.389779     -4.617309
  H      -4.083822     -1.326860     -4.090393
  H      -2.474786      1.575674     -2.207684
  H      -3.874481      1.898442     -1.132123
  H      -3.981441      2.281253     -2.883709
  H      -6.104942     -0.852465     -2.568883
  H      -6.108788      0.875620     -3.057402
  H      -6.014064      0.437853     -1.320424
  H      -1.138640      2.187218      0.296583
  H       0.292957      2.707654     -0.651743
  H      -0.559676      3.885795      0.407264
  H      -0.998663      2.103036      2.876895
  H      -0.280206      3.741842      2.988200
  H       0.585236      2.333484      3.692414
  H       2.516483      3.205765      0.512477
  H       2.645438      3.077518      2.296704
  H       1.689398      4.414225      1.553604
  Si      3.986376     -2.475521      0.884299
  C       5.315013     -1.212471      1.382572
  C       3.215651     -3.312057      2.391977
  C       4.673968     -3.736250     -0.354339
  H       4.974494     -0.180559      1.171561
  H       6.277803     -1.394786      0.864053
  H       5.492560     -1.272485      2.475440
  H       2.338378     -3.927267      2.107466
  H       2.874857     -2.524989      3.094923
  H       3.945750     -3.962021      2.917412
  H       3.918361     -4.505605     -0.614295
  H       5.558019     -4.258297      0.068524
  H       4.995483     -3.240283     -1.293266
  H       2.845590     -1.761266      0.173949
51
Coordinates from ORCA-job my_molecule E -1977.842666761749
  Pt     -1.713156     -0.484921      0.785323
  O       0.003461     -0.352715      1.659608
  O      -3.784697     -0.589415      0.302370
  P       1.256279      0.686504      1.449293
  P      -3.493250     -0.977158     -1.189887
  O      -4.156417     -2.397871     -1.629932
  O      -1.896725     -1.064661     -1.170929
  O       1.665028      0.494525     -0.133084
  O       2.350069      0.376505      2.440246
  C       0.683378      2.456753      1.502765
  C      -4.151775      0.168557     -2.464145
  C      -3.693098     -0.322581     -3.852570
  C      -3.570159      1.563346     -2.154705
  C      -5.690429      0.176662     -2.348113
  C      -0.228387      2.815038      0.318239
  C      -0.049190      2.655975      2.845104
  C       1.968583      3.313375      1.469752
  H      -3.903847     -3.109794     -1.005496
  H       2.211893     -0.328583     -0.206799
  H      -2.587856     -0.370195     -3.921554
  H      -4.052436      0.389957     -4.623851
  H      -4.103298     -1.323561     -4.088743
  H      -2.463791      1.566954     -2.212325
  H      -3.864727      1.913124     -1.145596
  H      -3.957927      2.288336     -2.899644
  H      -6.122851     -0.816713     -2.577026
  H      -6.103684      0.909374     -3.071991
  H      -6.019847      0.477230     -1.333142
  H      -1.140737      2.179938      0.296036
  H       0.296914      2.689765     -0.648824
  H      -0.550532      3.874786      0.406599
  H      -1.008705      2.101094      2.877233
  H      -0.275777      3.733512      2.988550
  H       0.575069      2.318344      3.696578
  H       2.521521      3.170389      0.519829
  H       2.644576      3.045827      2.304702
  H       1.700864      4.387825      1.555367
  Si      4.001860     -2.472290      0.882945
  C       5.307979     -1.176634      1.356972
  C       3.251900     -3.305764      2.402798
  C       4.710854     -3.738673     -0.338010
  H       4.946399     -0.156026      1.126214
  H       6.272112     -1.350920      0.838242
  H       5.489292     -1.211423      2.450192
  H       2.395682     -3.953396      2.125922
  H       2.884904     -2.520236      3.093820
  H       4.000725     -3.925050      2.938951
  H       3.970005     -4.526995     -0.583187
  H       5.606252     -4.236291      0.090460
  H       5.020005     -3.251798     -1.285811
  H       2.847695     -1.790029      0.161254
51
Coordinates from ORCA-job my_molecule E -1977.842911332833
  Pt     -1.748285     -0.487062      0.789259
  O      -0.034539     -0.371370      1.671596
  O      -3.819163     -0.562525      0.300897
  P       1.231981      0.650533      1.458883
  P      -3.529879     -0.964504     -1.188115
  O      -4.219348     -2.374588     -1.621631
  O      -1.935477     -1.082127     -1.162223
  O       1.641119      0.446639     -0.121725
  O       2.322253      0.329802      2.449596
  C       0.679269      2.427351      1.507377
  C      -4.161538      0.186128     -2.471651
  C      -3.709438     -0.323249     -3.855637
  C      -3.552517      1.570716     -2.169283
  C      -5.700044      0.226302     -2.359903
  C      -0.222169      2.793724      0.317277
  C      -0.058101      2.637259      2.845465
  C       1.974090      3.269368      1.479536
  H      -3.983119     -3.087461     -0.991917
  H       2.188235     -0.377553     -0.188293
  H      -2.605209     -0.393134     -3.921816
  H      -4.053094      0.390975     -4.632484
  H      -4.139017     -1.317447     -4.085961
  H      -2.446052      1.550616     -2.220786
  H      -3.845261      1.933556     -1.164276
  H      -3.921218      2.298192     -2.921441
  H      -6.152102     -0.759217     -2.584794
  H      -6.096316      0.963357     -3.088870
  H      -6.026085      0.539260     -1.347607
  H      -1.140030      2.166907      0.289743
  H       0.307976      2.663125     -0.646456
  H      -0.534764      3.856536      0.403180
  H      -1.025283      2.095627      2.872530
  H      -0.270658      3.717908      2.986976
  H       0.556547      2.292021      3.700908
  H       2.531334      3.117197      0.533526
  H       2.642079      2.997470      2.319504
  H       1.717689      4.347007      1.559619
  Si      4.025193     -2.465977      0.881046
  C       5.294030     -1.121366      1.320641
  C       3.303715     -3.294476      2.417822
  C       4.769319     -3.740051     -0.311004
  H       4.900571     -0.119811      1.058670
  H       6.261998     -1.282024      0.804740
  H       5.476094     -1.117092      2.414085
  H       2.481274     -3.988812      2.151540
  H       2.897520     -2.513758      3.091299
  H       4.077994     -3.867416      2.969316
  H       4.051516     -4.555417     -0.535373
  H       5.679328     -4.200926      0.127756
  H       5.063209     -3.267896     -1.271036
  H       2.854373     -1.832319      0.139496
51
Coordinates from ORCA-job my_molecule E -1977.843046029128
  Pt     -1.770340     -0.486900      0.790306
  O      -0.057816     -0.384879      1.676499
  O      -3.841292     -0.539294      0.300812
  P       1.218090      0.625590      1.464742
  P      -3.556381     -0.955028     -1.185357
  O      -4.266758     -2.357321     -1.610236
  O      -1.964023     -1.095875     -1.156363
  O       1.629335      0.416098     -0.114398
  O       2.304385      0.296500      2.456665
  C       0.678970      2.406688      1.511049
  C      -4.169354      0.196492     -2.477195
  C      -3.723132     -0.328604     -3.857194
  C      -3.540157      1.573756     -2.182735
  C      -5.707240      0.260425     -2.367791
  C      -0.215136      2.779277      0.317291
  C      -0.061781      2.622982      2.846239
  C       1.980247      3.238759      1.487547
  H      -4.041945     -3.069540     -0.975620
  H       2.176478     -0.408716     -0.177300
  H      -2.619964     -0.414838     -3.921695
  H      -4.055766      0.385228     -4.639175
  H      -4.166851     -1.318008     -4.081360
  H      -2.433947      1.535971     -2.229046
  H      -3.831822      1.948410     -1.181777
  H      -3.894337      2.301123     -2.941934
  H      -6.173880     -0.719464     -2.587436
  H      -6.091396      0.999020     -3.101683
  H      -6.029926      0.584585     -1.357952
  H      -1.136697      2.158117      0.285606
  H       0.318405      2.645665     -0.644159
  H      -0.521285      3.844039      0.402210
  H      -1.034450      2.091084      2.869131
  H      -0.264078      3.705634      2.987526
  H       0.545857      2.271467      3.704153
  H       2.540488      3.080866      0.544233
  H       2.642578      2.963441      2.330874
  H       1.731615      4.318450      1.564497
  Si      4.040039     -2.459861      0.878740
  C       5.280675     -1.083280      1.301151
  C       3.334724     -3.287772      2.423583
  C       4.811229     -3.735133     -0.294859
  H       4.868394     -0.096257      1.013736
  H       6.255278     -1.235130      0.795212
  H       5.453407     -1.050643      2.395499
  H       2.535046     -4.010004      2.161995
  H       2.903500     -2.512508      3.087402
  H       4.123489     -3.832022      2.983636
  H       4.110206     -4.567842     -0.508299
  H       5.729614     -4.171505      0.151496
  H       5.097164     -3.271088     -1.261234
  H       2.860539     -1.858153      0.122970
51
Coordinates from ORCA-job my_molecule E -1977.843134505583
  Pt     -1.784510     -0.485857      0.789981
  O      -0.073258     -0.393376      1.679525
  O      -3.855427     -0.520616      0.300930
  P       1.209296      0.609168      1.468987
  P      -3.575233     -0.948771     -1.182714
  O      -4.302212     -2.345161     -1.598783
  O      -1.984728     -1.107755     -1.152128
  O       1.622172      0.397081     -0.109246
  O       2.292622      0.273454      2.461725
  C       0.679689      2.393160      1.514955
  C      -4.174585      0.201797     -2.481780
  C      -3.734097     -0.336906     -3.858365
  C      -3.529421      1.573384     -2.195343
  C      -5.711640      0.284489     -2.373288
  C      -0.209232      2.770868      0.318893
  C      -0.063370      2.613124      2.848258
  C       1.985471      3.218210      1.495058
  H      -4.085690     -3.056072     -0.959830
  H       2.169533     -0.427970     -0.170274
  H      -2.631952     -0.435792     -3.922221
  H      -4.058802      0.375631     -4.644845
  H      -4.188775     -1.322714     -4.076452
  H      -2.423665      1.521881     -2.238854
  H      -3.818866      1.958005     -1.197547
  H      -3.873272      2.299820     -2.960152
  H      -6.189893     -0.691103     -2.587012
  H      -6.086807      1.023081     -3.111821
  H      -6.030741      0.618876     -1.365656
  H      -1.133318      2.153670      0.283811
  H       0.326713      2.635902     -0.641033
  H      -0.510928      3.836891      0.403940
  H      -1.039861      2.088154      2.867899
  H      -0.258381      3.697040      2.990121
  H       0.539306      2.256675      3.707653
  H       2.547855      3.056751      0.553614
  H       2.643731      2.940090      2.340657
  H       1.742351      4.299275      1.570371
  Si      4.049421     -2.454482      0.875980
  C       5.270560     -1.057642      1.289698
  C       3.353184     -3.283260      2.424592
  C       4.839788     -3.728848     -0.285899
  H       4.846548     -0.080356      0.986359
  H       6.250166     -1.202625      0.791513
  H       5.435202     -1.007865      2.384557
  H       2.568947     -4.022916      2.164797
  H       2.905284     -2.512692      3.082619
  H       4.150574     -3.809118      2.990027
  H       4.150260     -4.572543     -0.493555
  H       5.762990     -4.149322      0.165765
  H       5.121516     -3.269253     -1.255633
  H       2.865485     -1.873466      0.110146
51
Coordinates from ORCA-job my_molecule E -1977.843231696987
  Pt     -1.800236     -0.482756      0.792515
  O      -0.090601     -0.399910      1.685996
  O      -3.870498     -0.498256      0.301782
  P       1.198985      0.593782      1.474892
  P      -3.594160     -0.942736     -1.177886
  O      -4.339518     -2.332635     -1.582936
  O      -2.006044     -1.122497     -1.143289
  O       1.611242      0.379345     -0.103032
  O       2.280671      0.250651      2.466690
  C       0.679779      2.380841      1.521791
  C      -4.176522      0.204742     -2.487352
  C      -3.741463     -0.351109     -3.858813
  C      -3.513405      1.569907     -2.211121
  C      -5.712455      0.309078     -2.381641
  C      -0.205433      2.764193      0.324741
  C      -0.063679      2.604472      2.854261
  C       1.990311      3.198347      1.503891
  H      -4.132844     -3.041166     -0.938102
  H       2.159023     -0.445759     -0.162863
  H      -2.640588     -0.464429     -3.920678
  H      -4.056383      0.358832     -4.651598
  H      -4.208293     -1.332915     -4.069305
  H      -2.408348      1.502766     -2.250540
  H      -3.800808      1.966984     -1.217648
  H      -3.844988      2.294170     -2.983359
  H      -6.203827     -0.661751     -2.587159
  H      -6.076640      1.046088     -3.127212
  H      -6.028104      0.657021     -1.377530
  H      -1.132313      2.151299      0.287355
  H       0.331514      2.627931     -0.634439
  H      -0.502292      3.831505      0.410597
  H      -1.043954      2.086555      2.871960
  H      -0.251068      3.689606      2.997082
  H       0.535150      2.242951      3.714243
  H       2.553538      3.033223      0.563577
  H       2.645473      2.917086      2.350866
  H       1.753280      4.280847      1.578070
  Si      4.056598     -2.447922      0.870270
  C       5.259302     -1.032385      1.275290
  C       3.369331     -3.277432      2.422568
  C       4.864846     -3.721099     -0.280703
  H       4.822753     -0.063847      0.961708
  H       6.241748     -1.168607      0.780274
  H       5.420273     -0.970119      2.369981
  H       2.600844     -4.034153      2.164703
  H       2.904852     -2.512024      3.074911
  H       4.175151     -3.784657      2.993111
  H       4.186036     -4.574722     -0.483045
  H       5.792269     -4.126867      0.175746
  H       5.142778     -3.265575     -1.253451
  H       2.868716     -1.886892      0.094832
51
Coordinates from ORCA-job my_molecule E -1977.843322063888
  Pt     -1.815867     -0.479068      0.794675
  O      -0.107714     -0.407216      1.691763
  O      -3.885455     -0.473433      0.302875
  P       1.189170      0.577214      1.480586
  P      -3.614231     -0.935523     -1.172442
  O      -4.379110     -2.318333     -1.565112
  O      -2.028918     -1.137187     -1.134289
  O       1.601364      0.360560     -0.096920
  O       2.268728      0.226524      2.471959
  C       0.680714      2.367388      1.528232
  C      -4.179369      0.207895     -2.492921
  C      -3.749924     -0.365802     -3.858754
  C      -3.498220      1.566415     -2.227602
  C      -5.713855      0.334188     -2.390327
  C      -0.200736      2.756380      0.330197
  C      -0.063010      2.594981      2.859876
  C       1.996097      3.177054      1.512145
  H      -4.182269     -3.024013     -0.914083
  H       2.149716     -0.464471     -0.155834
  H      -2.650475     -0.493296     -3.918476
  H      -4.055261      0.340778     -4.658261
  H      -4.228585     -1.343648     -4.061160
  H      -2.394085      1.483524     -2.262386
  H      -3.783684      1.976709     -1.238990
  H      -3.817197      2.287681     -3.007893
  H      -6.218558     -0.631669     -2.586821
  H      -6.066893      1.068864     -3.143529
  H      -6.025704      0.696551     -1.390147
  H      -1.130496      2.147940      0.290654
  H       0.337117      2.618622     -0.628258
  H      -0.492628      3.824993      0.416779
  H      -1.047126      2.084351      2.875699
  H      -0.242549      3.681329      3.003565
  H       0.531897      2.228332      3.720422
  H       2.560117      3.007916      0.573011
  H       2.648082      2.892763      2.360572
  H       1.765412      4.261022      1.584970
  Si      4.064142     -2.440940      0.864586
  C       5.246235     -1.006042      1.262957
  C       3.384991     -3.272456      2.419407
  C       4.892676     -3.711026     -0.275469
  H       4.797854     -0.047061      0.936942
  H       6.233179     -1.133101      0.774520
  H       5.399524     -0.930172      2.357823
  H       2.632364     -4.045344      2.162574
  H       2.904083     -2.512955      3.066633
  H       4.198544     -3.761651      2.994757
  H       4.225512     -4.574628     -0.474190
  H       5.823658     -4.101829      0.186753
  H       5.168068     -3.258595     -1.250380
  H       2.872673     -1.900517      0.079311
51
Coordinates from ORCA-job my_molecule E -1977.843408758664
  Pt     -1.831316     -0.474806      0.796695
  O      -0.124663     -0.414819      1.697352
  O      -3.900042     -0.447736      0.303720
  P       1.179778      0.559826      1.486228
  P      -3.634256     -0.927272     -1.167111
  O      -4.417733     -2.303135     -1.547277
  O      -2.051915     -1.149853     -1.125645
  O       1.592058      0.340724     -0.090767
  O       2.256891      0.201484      2.477498
  C       0.682687      2.353232      1.534251
  C      -4.183229      0.211312     -2.498489
  C      -3.759116     -0.379738     -3.858525
  C      -3.485371      1.563536     -2.244126
  C      -5.716085      0.358147     -2.399163
  C      -0.195156      2.747813      0.335362
  C      -0.060862      2.585368      2.865205
  C       2.003118      3.154594      1.519399
  H      -4.229910     -3.005689     -0.890214
  H       2.141004     -0.484183     -0.148833
  H      -2.661116     -0.520159     -3.916035
  H      -4.055704      0.322935     -4.664744
  H      -4.248462     -1.353965     -4.052877
  H      -2.382294      1.466127     -2.274555
  H      -3.768762      1.986721     -1.260399
  H      -3.792765      2.281229     -3.032300
  H      -6.233255     -0.602903     -2.586634
  H      -6.058666      1.089978     -3.159924
  H      -6.024135      0.734537     -1.403000
  H      -1.127993      2.144139      0.294109
  H       0.343271      2.608084     -0.622481
  H      -0.481708      3.817817      0.422463
  H      -1.048897      2.082324      2.879537
  H      -0.232235      3.672952      3.009511
  H       0.530206      2.213648      3.726230
  H       2.567606      2.980970      0.581353
  H       2.652040      2.867358      2.369197
  H       1.779182      4.240088      1.590636
  Si      4.071651     -2.433919      0.859206
  C       5.231615     -0.979462      1.252238
  C       3.399712     -3.267885      2.415806
  C       4.922106     -3.699551     -0.269735
  H       4.771741     -0.030467      0.913296
  H       6.223717     -1.096719      0.771896
  H       5.375263     -0.890096      2.347328
  H       2.663076     -4.056274      2.159598
  H       2.902405     -2.514642      3.057887
  H       4.220298     -3.739226      2.996116
  H       4.267294     -4.573136     -0.465917
  H       5.856090     -4.075113      0.199007
  H       5.195841     -3.249600     -1.246255
  H       2.876999     -1.914595      0.063880
51
Coordinates from ORCA-job my_molecule E -1977.843489416290
  Pt     -1.846031     -0.471311      0.798031
  O      -0.140593     -0.423768      1.701553
  O      -3.913877     -0.423971      0.304147
  P       1.171292      0.541025      1.490901
  P      -3.653494     -0.918133     -1.162880
  O      -4.453033     -2.287618     -1.532475
  O      -2.073940     -1.158816     -1.119054
  O       1.584411      0.318833     -0.085280
  O       2.245351      0.175666      2.482998
  C       0.685668      2.337649      1.538090
  C      -4.188930      0.216350     -2.503179
  C      -3.769447     -0.389061     -3.858271
  C      -3.477137      1.563086     -2.257951
  C      -5.720201      0.380372     -2.406668
  C      -0.188761      2.737035      0.338258
  C      -0.057392      2.575243      2.868352
  C       2.011118      3.130606      1.523635
  H      -4.272548     -2.987592     -0.870603
  H       2.133934     -0.505928     -0.142243
  H      -2.672733     -0.539950     -3.913933
  H      -4.058997      0.310111     -4.670079
  H      -4.267405     -1.360268     -4.045919
  H      -2.375087      1.453638     -2.284687
  H      -3.758618      1.997149     -1.278452
  H      -3.774885      2.277515     -3.052747
  H      -6.247849     -0.576354     -2.586928
  H      -6.054017      1.109972     -3.173439
  H      -6.024815      0.768061     -1.413787
  H      -1.124764      2.138257      0.296024
  H       0.349949      2.594480     -0.619005
  H      -0.469779      3.808510      0.425135
  H      -1.049238      2.079719      2.881745
  H      -0.220695      3.664083      3.012517
  H       0.530030      2.199102      3.729957
  H       2.575759      2.951924      0.586621
  H       2.657197      2.840925      2.374786
  H       1.794031      4.217633      1.592757
  Si      4.079738     -2.427511      0.855529
  C       5.215488     -0.952781      1.243911
  C       3.414113     -3.263656      2.413544
  C       4.954108     -3.687559     -0.261428
  H       4.744711     -0.014828      0.889669
  H       6.213964     -1.059992      0.774586
  H       5.346066     -0.848493      2.339256
  H       2.693483     -4.066937      2.157969
  H       2.900528     -2.516536      3.050000
  H       4.240925     -3.717135      2.999293
  H       4.312668     -4.571432     -0.455723
  H       5.890587     -4.047052      0.214853
  H       5.226982     -3.239873     -1.239222
  H       2.882163     -1.930392      0.049834
51
Coordinates from ORCA-job my_molecule E -1977.843564884891
  Pt     -1.859462     -0.469652      0.797991
  O      -0.154943     -0.434355      1.703707
  O      -3.926572     -0.404343      0.303999
  P       1.163992      0.520973      1.494126
  P      -3.671455     -0.908807     -1.160503
  O      -4.483868     -2.272712     -1.522557
  O      -2.094259     -1.163961     -1.115826
  O       1.578990      0.294940     -0.080838
  O       2.234292      0.149581      2.488204
  C       0.689502      2.320684      1.539032
  C      -4.196811      0.223448     -2.506594
  C      -3.781562     -0.392129     -3.858358
  C      -3.474045      1.565567     -2.267830
  C      -5.726671      0.400830     -2.411620
  C      -0.181317      2.723927      0.337819
  C      -0.053336      2.564491      2.868296
  C       2.019767      3.105440      1.524708
  H      -4.308677     -2.971213     -0.857700
  H       2.129116     -0.529655     -0.136242
  H      -2.685900     -0.550834     -3.913135
  H      -4.066197      0.304682     -4.673935
  H      -4.286027     -1.360906     -4.041222
  H      -2.372899      1.446792     -2.292272
  H      -3.753415      2.007524     -1.291275
  H      -3.764661      2.277844     -3.067172
  H      -6.262591     -0.552131     -2.587352
  H      -6.053872      1.129647     -3.181971
  H      -6.028110      0.795938     -1.420690
  H      -1.120480      2.130077      0.295006
  H       0.357763      2.577702     -0.618680
  H      -0.456721      3.796937      0.423566
  H      -1.048760      2.076157      2.880917
  H      -0.209003      3.654576      3.011461
  H       0.530402      2.184779      3.730837
  H       2.584571      2.921467      0.588803
  H       2.663041      2.813779      2.377325
  H       1.809349      4.193940      1.591339
  Si      4.088797     -2.422003      0.854205
  C       5.198615     -0.926499      1.237890
  C       3.428392     -3.259281      2.413636
  C       4.988593     -3.675940     -0.249423
  H       4.717597     -0.000661      0.866079
  H       6.204326     -1.023533      0.782029
  H       5.313187     -0.805901      2.333289
  H       2.723815     -4.077017      2.159058
  H       2.898559     -2.517810      3.043450
  H       4.260510     -3.694583      3.005701
  H       4.361371     -4.570349     -0.441936
  H       5.927022     -4.018489      0.235407
  H       5.261320     -3.230774     -1.228397
  H       2.888723     -1.948188      0.037651
51
Coordinates from ORCA-job my_molecule E -1977.843636167358
  Pt     -1.871462     -0.470396      0.796612
  O      -0.167531     -0.446705      1.703685
  O      -3.938062     -0.389411      0.303438
  P       1.157781      0.499946      1.495726
  P      -3.687971     -0.899816     -1.159919
  O      -4.510573     -2.258742     -1.517642
  O      -2.112701     -1.166369     -1.115776
  O       1.575566      0.269512     -0.077680
  O       2.223839      0.123705      2.492770
  C       0.693572      2.302471      1.537131
  C      -4.206150      0.232560     -2.508611
  C      -3.794898     -0.389014     -3.858818
  C      -3.474744      1.570660     -2.273412
  C      -5.734794      0.420168     -2.413839
  C      -0.173781      2.708454      0.334292
  C      -0.049152      2.552910      2.865233
  C       2.028201      3.079671      1.522529
  H      -4.339015     -2.957064     -0.851636
  H       2.126417     -0.554822     -0.131095
  H      -2.700085     -0.553477     -3.913706
  H      -4.076320      0.306937     -4.676248
  H      -4.304302     -1.355722     -4.038962
  H      -2.374369      1.444647     -2.296747
  H      -3.751879      2.017586     -1.298491
  H      -3.760163      2.282222     -3.075250
  H      -6.277193     -0.529464     -2.587693
  H      -6.057194      1.149837     -3.185398
  H      -6.033272      0.819025     -1.423505
  H      -1.116016      2.119423      0.291513
  H       0.365557      2.557793     -0.621372
  H      -0.443653      3.783015      0.418045
  H      -1.047746      2.071060      2.877403
  H      -0.197979      3.644175      3.006629
  H       0.531182      2.170649      3.728944
  H       2.593000      2.890598      0.587629
  H       2.669018      2.786484      2.376492
  H       1.823927      4.169500      1.586610
  Si      4.098809     -2.417339      0.855123
  C       5.181605     -0.900925      1.233270
  C       3.442692     -3.254108      2.416394
  C       5.024650     -3.665232     -0.233747
  H       4.691118      0.011754      0.841871
  H       6.195016     -0.987781      0.792710
  H       5.277857     -0.762760      2.328293
  H       2.754185     -4.085976      2.163566
  H       2.896738     -2.517567      3.038311
  H       4.279216     -3.670747      3.015706
  H       4.412113     -4.570229     -0.424047
  H       5.964504     -3.990163      0.260345
  H       5.297741     -3.223206     -1.214029
  H       2.896700     -1.967729      0.027356
51
Coordinates from ORCA-job my_molecule E -1977.843734310512
  Pt     -1.886982     -0.474761      0.791890
  O      -0.183473     -0.467502      1.699930
  O      -3.953232     -0.373198      0.302002
  P       1.150417      0.467517      1.495698
  P      -3.711026     -0.887092     -1.161529
  O      -4.545967     -2.239223     -1.516328
  O      -2.138101     -1.167136     -1.120588
  O       1.573969      0.230109     -0.074835
  O       2.209198      0.085422      2.498639
  C       0.700233      2.273801      1.530658
  C      -4.222463      0.248559     -2.509923
  C      -3.817410     -0.376784     -3.860233
  C      -3.480797      1.581347     -2.276620
  C      -5.749515      0.447769     -2.413180
  C      -0.161353      2.682791      0.324641
  C      -0.043369      2.534098      2.856391
  C       2.040717      3.040697      1.516379
  H      -4.377708     -2.938919     -0.850907
  H       2.126152     -0.593691     -0.124690
  H      -2.723630     -0.547407     -3.916990
  H      -4.096397      0.319865     -4.677912
  H      -4.332434     -1.340824     -4.038695
  H      -2.381404      1.446966     -2.300166
  H      -3.754135      2.031941     -1.302322
  H      -3.761029      2.293826     -3.079467
  H      -6.299560     -0.497437     -2.587103
  H      -6.067161      1.180662     -3.183638
  H      -6.043493      0.847978     -1.422028
  H      -1.108005      2.100828      0.281886
  H       0.378841      2.524830     -0.629363
  H      -0.423100      3.759648      0.404468
  H      -1.046106      2.060867      2.867482
  H      -0.183257      3.626964      2.994438
  H       0.531736      2.149193      3.722416
  H       2.605907      2.844802      0.583111
  H       2.677799      2.745460      2.372458
  H       1.844749      4.132258      1.576965
  Si      4.115410     -2.411277      0.859505
  C       5.156604     -0.864065      1.228207
  C       3.463907     -3.245057      2.423940
  C       5.080539     -3.650193     -0.205218
  H       4.653594      0.027413      0.805052
  H       6.181811     -0.935428      0.812973
  H       5.222120     -0.698560      2.321606
  H       2.799675     -4.097506      2.174661
  H       2.893905     -2.515117      3.032080
  H       4.305372     -3.633091      3.035523
  H       4.490309     -4.570690     -0.391605
  H       6.021425     -3.948253      0.303623
  H       5.355190     -3.213716     -1.187528
  H       2.911526     -1.998686      0.014249
51
Coordinates from ORCA-job my_molecule E -1977.843788171125
  Pt     -1.894336     -0.480716      0.785870
  O      -0.190363     -0.483556      1.692824
  O      -3.960999     -0.368168      0.300719
  P       1.147960      0.445740      1.492957
  P      -3.724624     -0.879417     -1.164722
  O      -4.565384     -2.227655     -1.520580
  O      -2.152685     -1.165228     -1.128538
  O       1.577523      0.203851     -0.075110
  O       2.200771      0.061481      2.501673
  C       0.705007      2.253946      1.522541
  C      -4.235419      0.261307     -2.509002
  C      -3.834558     -0.361643     -3.861662
  C      -3.489516      1.591365     -2.273713
  C      -5.761707      0.464645     -2.408795
  C      -0.152557      2.663492      0.313831
  C      -0.040085      2.520453      2.846218
  C       2.048487      3.015508      1.508910
  H      -4.397395     -2.929730     -0.857591
  H       2.130597     -0.619567     -0.122183
  H      -2.741206     -0.534044     -3.921223
  H      -4.114106      0.337374     -4.677127
  H      -4.351639     -1.324359     -4.041309
  H      -2.390553      1.453699     -2.298642
  H      -3.760451      2.041033     -1.298319
  H      -3.768345      2.306213     -3.074939
  H      -6.314889     -0.478260     -2.585213
  H      -6.078540      1.201361     -3.175930
  H      -6.052660      0.861989     -1.415588
  H      -1.101704      2.085584      0.271200
  H       0.388613      2.500374     -0.638752
  H      -0.409624      3.741715      0.390225
  H      -1.044949      2.051689      2.856318
  H      -0.175489      3.614224      2.981494
  H       0.531644      2.134936      3.714196
  H       2.614458      2.815612      0.576966
  H       2.683094      2.719761      2.366666
  H       1.856736      4.107957      1.566958
  Si      4.127798     -2.408494      0.865746
  C       5.140795     -0.841476      1.228205
  C       3.478049     -3.239501      2.432151
  C       5.118914     -3.640946     -0.182409
  H       4.632533      0.034391      0.779493
  H       6.175191     -0.903278      0.834888
  H       5.180096     -0.655539      2.319495
  H       2.828830     -4.104178      2.185397
  H       2.893260     -2.513132      3.030681
  H       4.321429     -3.609695      3.052150
  H       4.543686     -4.571435     -0.366026
  H       6.059876     -3.921058      0.336406
  H       5.395045     -3.208281     -1.165975
  H       2.923390     -2.020342      0.009169
51
Coordinates from ORCA-job my_molecule E -1977.843851979709
  Pt     -1.902118     -0.487091      0.779216
  O      -0.198476     -0.498799      1.686719
  O      -3.969014     -0.365312      0.298405
  P       1.144728      0.424174      1.490840
  P      -3.737745     -0.872745     -1.169260
  O      -4.582862     -2.217680     -1.527187
  O      -2.166576     -1.162791     -1.137675
  O       1.579635      0.177212     -0.074667
  O       2.191486      0.036973      2.504876
  C       0.710354      2.234567      1.515337
  C      -4.249030      0.273534     -2.508553
  C      -3.852736     -0.345931     -3.864141
  C      -3.499448      1.601064     -2.270722
  C      -5.774587      0.480212     -2.404048
  C      -0.141801      2.645725      0.303320
  C      -0.037246      2.507341      2.836350
  C       2.057330      2.989861      1.504002
  H      -4.414363     -2.922532     -0.867278
  H       2.133837     -0.645763     -0.118393
  H      -2.759771     -0.519545     -3.927185
  H      -4.133595      0.355872     -4.676763
  H      -4.371528     -1.307435     -4.045340
  H      -2.400870      1.460868     -2.298503
  H      -3.767115      2.048393     -1.293356
  H      -3.778304      2.319043     -3.069133
  H      -6.330543     -0.460607     -2.582857
  H      -6.091327      1.220724     -3.167550
  H      -6.062257      0.874409     -1.408629
  H      -1.093897      2.072798      0.259834
  H       0.400993      2.477155     -0.647396
  H      -0.393123      3.725533      0.376324
  H      -1.044413      2.043501      2.844548
  H      -0.167779      3.602028      2.968959
  H       0.530179      2.120899      3.706739
  H       2.624739      2.786237      0.573737
  H       2.688543      2.692657      2.363767
  H       1.870442      4.083265      1.560019
  Si      4.140498     -2.405110      0.871560
  C       5.127040     -0.819618      1.225321
  C       3.490811     -3.230618      2.440665
  C       5.156297     -3.633150     -0.157904
  H       4.612102      0.042166      0.756983
  H       6.167534     -0.871380      0.847012
  H       5.147382     -0.617274      2.314140
  H       2.858824     -4.109062      2.197766
  H       2.888964     -2.507893      3.026420
  H       4.335300     -3.579666      3.071397
  H       4.595136     -4.572987     -0.337363
  H       6.096665     -3.895642      0.371120
  H       5.434505     -3.205864     -1.143224
  H       2.937200     -2.041715      0.001754
51
Coordinates from ORCA-job my_molecule E -1977.843949746160
  Pt     -1.913764     -0.496744      0.772374
  O      -0.210332     -0.519853      1.679795
  O      -3.980542     -0.364747      0.294700
  P       1.139097      0.394583      1.488285
  P      -3.753145     -0.864880     -1.176135
  O      -4.601709     -2.206023     -1.540025
  O      -2.182636     -1.158646     -1.148686
  O       1.579481      0.140740     -0.074153
  O       2.178623      0.003431      2.508557
  C       0.716471      2.207851      1.506567
  C      -4.264743      0.290081     -2.507722
  C      -3.872804     -0.322151     -3.867827
  C      -3.511787      1.614575     -2.263710
  C      -5.789634      0.499366     -2.398440
  C      -0.131270      2.620633      0.292000
  C      -0.031430      2.489268      2.825642
  C       2.067983      2.954866      1.495005
  H      -4.432341     -2.915422     -0.885213
  H       2.135515     -0.681190     -0.113385
  H      -2.780192     -0.496525     -3.934823
  H      -4.155091      0.384574     -4.675680
  H      -4.393104     -1.282041     -4.053188
  H      -2.413585      1.472041     -2.294402
  H      -3.776489      2.056970     -1.283295
  H      -3.790492      2.337727     -3.057487
  H      -6.348068     -0.439028     -2.582203
  H      -6.106453      1.245594     -3.156318
  H      -6.074198      0.887581     -1.399780
  H      -1.087687      2.054871      0.250195
  H       0.411083      2.443877     -0.657482
  H      -0.374342      3.702617      0.360357
  H      -1.041159      2.031022      2.834045
  H      -0.156127      3.585105      2.954282
  H       0.532729      2.102663      3.698072
  H       2.635168      2.746186      0.565715
  H       2.696679      2.655986      2.356049
  H       1.887623      4.049494      1.548561
  Si      4.156215     -2.399564      0.878173
  C       5.110201     -0.791163      1.215127
  C       3.505182     -3.211360      2.453319
  C       5.202169     -3.625562     -0.123105
  H       4.585033      0.052440      0.725382
  H       6.155843     -0.829907      0.849754
  H       5.112561     -0.569280      2.300247
  H       2.898177     -4.109622      2.219234
  H       2.878958     -2.491941      3.017439
  H       4.349832     -3.527799      3.100881
  H       4.657793     -4.576682     -0.294571
  H       6.140716     -3.865418      0.419762
  H       5.484187     -3.208275     -1.111608
  H       2.955809     -2.070323     -0.010285
51
Coordinates from ORCA-job my_molecule E -1977.844010099662
  Pt     -1.918484     -0.504586      0.764142
  O      -0.214754     -0.534571      1.670668
  O      -3.985908     -0.367371      0.291550
  P       1.138065      0.375816      1.484789
  P      -3.762688     -0.860418     -1.182360
  O      -4.612421     -2.199660     -1.550458
  O      -2.192217     -1.154584     -1.160463
  O       1.584415      0.118737     -0.075251
  O       2.171253     -0.017608      2.510952
  C       0.722083      2.190655      1.499291
  C      -4.278085      0.301247     -2.506578
  C      -3.889586     -0.303654     -3.870929
  C      -3.524851      1.624634     -2.257511
  C      -5.802754      0.509489     -2.392101
  C      -0.120164      2.605008      0.281414
  C      -0.029115      2.476383      2.815577
  C       2.076217      2.932849      1.491301
  H      -4.440723     -2.912539     -0.900042
  H       2.141528     -0.702589     -0.111791
  H      -2.797036     -0.476793     -3.941946
  H      -4.174767      0.407018     -4.674293
  H      -4.409693     -1.262965     -4.059775
  H      -2.426703      1.482559     -2.292006
  H      -3.786915      2.061624     -1.273972
  H      -3.805929      2.352019     -3.046567
  H      -6.361427     -0.427954     -2.579938
  H      -6.121715      1.260075     -3.144762
  H      -6.084863      0.891787     -1.390464
  H      -1.079205      2.043879      0.238380
  H       0.423958      2.423418     -0.666144
  H      -0.358012      3.688336      0.346768
  H      -1.040242      2.021182      2.821544
  H      -0.150954      3.572793      2.942076
  H       0.531206      2.089504      3.690350
  H       2.645465      2.721858      0.563783
  H       2.701410      2.632477      2.354374
  H       1.899445      4.028120      1.543679
  Si      4.167635     -2.396402      0.884067
  C       5.101863     -0.774529      1.210538
  C       3.512710     -3.197778      2.462480
  C       5.232787     -3.621702     -0.097581
  H       4.572896      0.057300      0.704985
  H       6.151501     -0.806161      0.856135
  H       5.089944     -0.539302      2.292745
  H       2.921201     -4.107799      2.234156
  H       2.871040     -2.479611      3.010928
  H       4.355511     -3.493606      3.122112
  H       4.698375     -4.579240     -0.264568
  H       6.168855     -3.848115      0.455279
  H       5.519255     -3.211065     -1.087579
  H       2.970593     -2.088166     -0.016987
51
Coordinates from ORCA-job my_molecule E -1977.844092762732
  Pt     -1.923085     -0.518568      0.750295
  O      -0.218568     -0.556798      1.654471
  O      -3.991783     -0.377419      0.286065
  P       1.137776      0.349758      1.478260
  P      -3.773798     -0.855764     -1.193514
  O      -4.622944     -2.192687     -1.571239
  O      -2.202861     -1.147710     -1.180435
  O       1.594003      0.088988     -0.078135
  O       2.161267     -0.045830      2.513894
  C       0.728972      2.166226      1.487388
  C      -4.296725      0.318225     -2.503736
  C      -3.912555     -0.271604     -3.875872
  C      -3.545085      1.640399     -2.243723
  C      -5.821366      0.522083     -2.380887
  C      -0.108351      2.580837      0.266188
  C      -0.024772      2.457762      2.800966
  C       2.085801      2.903424      1.481372
  H      -4.446536     -2.912021     -0.929238
  H       2.152667     -0.731373     -0.110917
  H      -2.819898     -0.441233     -3.953331
  H      -4.202987      0.446609     -4.670598
  H      -4.431158     -1.230197     -4.072350
  H      -2.446819      1.500632     -2.283535
  H      -3.804383      2.066695     -1.254776
  H      -3.830212      2.375446     -3.024178
  H      -6.378880     -0.414288     -2.577291
  H      -6.144794      1.280576     -3.123652
  H      -6.100351      0.892330     -1.373859
  H      -1.070580      2.025288      0.223866
  H       0.436475      2.392290     -0.679595
  H      -0.339921      3.665786      0.326956
  H      -1.036950      2.004851      2.805828
  H      -0.144440      3.554827      2.923785
  H       0.532619      2.072220      3.678183
  H       2.656329      2.689515      0.555301
  H       2.708198      2.602182      2.346166
  H       1.912721      3.999369      1.532013
  Si      4.184129     -2.392744      0.894040
  C       5.093546     -0.753644      1.203071
  C       3.521482     -3.175121      2.478004
  C       5.273997     -3.619619     -0.058019
  H       4.562157      0.061818      0.673696
  H       6.148724     -0.777533      0.864935
  H       5.061100     -0.498440      2.280285
  H       2.951280     -4.101134      2.259932
  H       2.858575     -2.457009      3.001135
  H       4.359765     -3.440840      3.155982
  H       4.751801     -4.585106     -0.217696
  H       6.205613     -3.828335      0.509170
  H       5.567999     -3.219871     -1.050251
  H       2.992806     -2.113248     -0.024421
51
Coordinates from ORCA-job my_molecule E -1977.844189206728
  Pt     -1.923939     -0.538560      0.724596
  O      -0.217377     -0.586440      1.623936
  O      -3.995483     -0.394866      0.276449
  P       1.142356      0.318074      1.467842
  P      -3.787566     -0.851075     -1.211610
  O      -4.633802     -2.186447     -1.601139
  O      -2.215361     -1.135807     -1.215105
  O       1.616905      0.056401     -0.082605
  O       2.148671     -0.081062      2.519823
  C       0.741863      2.136279      1.471630
  C      -4.327267      0.339286     -2.499975
  C      -3.950159     -0.227243     -3.883794
  C      -3.581207      1.661588     -2.224991
  C      -5.852131      0.532202     -2.362511
  C      -0.082937      2.553303      0.242656
  C      -0.022062      2.432210      2.778286
  C       2.101799      2.867595      1.476830
  H      -4.447965     -2.914266     -0.971470
  H       2.176552     -0.763271     -0.111580
  H      -2.857250     -0.389823     -3.971827
  H      -4.250359      0.501535     -4.665155
  H      -4.465297     -1.185436     -4.091026
  H      -2.482524      1.528621     -2.275181
  H      -3.835355      2.070568     -1.227441
  H      -3.876317      2.407336     -2.991456
  H      -6.405643     -0.404076     -2.570288
  H      -6.185452      1.300882     -3.090290
  H      -6.125922      0.884334     -1.347587
  H      -1.049385      2.005704      0.196022
  H       0.467107      2.356491     -0.698403
  H      -0.305751      3.640384      0.297815
  H      -1.034995      1.980915      2.775959
  H      -0.141014      3.529754      2.897452
  H       0.527682      2.047831      3.660790
  H       2.678349      2.652984      0.554657
  H       2.716637      2.562876      2.345802
  H       1.932636      3.964134      1.527747
  Si      4.207706     -2.388637      0.907955
  C       5.090771     -0.731217      1.194590
  C       3.526755     -3.141014      2.497424
  C       5.326943     -3.620887     -0.002008
  H       4.563806      0.064755      0.631649
  H       6.153863     -0.749876      0.881907
  H       5.028800     -0.449310      2.263810
  H       2.983237     -4.086205      2.293854
  H       2.836229     -2.420666      2.980999
  H       4.353951     -3.366823      3.202926
  H       4.816791     -4.593980     -0.154234
  H       6.249337     -3.810895      0.586446
  H       5.636143     -3.235917     -0.995443
  H       3.027633     -2.142244     -0.034729
51
Coordinates from ORCA-job my_molecule E -1977.844232465591
  Pt     -1.928175     -0.542443      0.726311
  O      -0.224728     -0.581369      1.632382
  O      -3.998169     -0.415168      0.269421
  P       1.135025      0.322572      1.474510
  P      -3.779000     -0.860919     -1.220220
  O      -4.613406     -2.199777     -1.622848
  O      -2.204709     -1.134874     -1.216707
  O       1.604034      0.063054     -0.077239
  O       2.143655     -0.080742      2.522700
  C       0.736928      2.141073      1.483672
  C      -4.321052      0.334504     -2.502832
  C      -3.941827     -0.222526     -3.889877
  C      -3.579269      1.657513     -2.219437
  C      -5.846611      0.521594     -2.364814
  C      -0.095007      2.559697      0.259965
  C      -0.019470      2.435779      2.795019
  C       2.097166      2.871774      1.481787
  H      -4.423996     -2.931196     -0.998441
  H       2.164825     -0.755395     -0.107026
  H      -2.848475     -0.381860     -3.978571
  H      -4.243490      0.510360     -4.666835
  H      -4.454515     -1.180697     -4.103169
  H      -2.480236      1.528714     -2.272650
  H      -3.832924      2.057881     -1.218253
  H      -3.878508      2.407986     -2.979659
  H      -6.396968     -0.415370     -2.577881
  H      -6.182392      1.293097     -3.088453
  H      -6.121728      0.867080     -1.348002
  H      -1.062778      2.014124      0.219335
  H       0.448599      2.362257     -0.684674
  H      -0.315653      3.647135      0.316884
  H      -1.030422      1.980190      2.799840
  H      -0.142019      3.532973      2.913641
  H       0.537492      2.054342      3.674254
  H       2.666978      2.660818      0.554593
  H       2.718287      2.563472      2.345033
  H       1.928787      3.968167      1.538437
  Si      4.206412     -2.384859      0.897772
  C       5.120990     -0.741042      1.163021
  C       3.509128     -3.100246      2.495877
  C       5.305543     -3.648396      0.006051
  H       4.585140      0.073571      0.635803
  H       6.167409     -0.776851      0.799535
  H       5.119360     -0.474784      2.238178
  H       2.973855     -4.053866      2.310288
  H       2.808579     -2.370378      2.949059
  H       4.328224     -3.301790      3.217980
  H       4.776085     -4.612117     -0.139830
  H       6.221213     -3.852166      0.600313
  H       5.626709     -3.278854     -0.989450
  H       3.035106     -2.132043     -0.054796
51
Coordinates from ORCA-job my_molecule E -1977.844264904922
  Pt     -1.931133     -0.532752      0.746909
  O      -0.227667     -0.561998      1.653371
  O      -3.998946     -0.409752      0.273568
  P       1.129137      0.344094      1.486531
  P      -3.767648     -0.867875     -1.210205
  O      -4.599304     -2.209625     -1.608794
  O      -2.193221     -1.142612     -1.192458
  O       1.586676      0.088873     -0.069720
  O       2.147675     -0.058677      2.525425
  C       0.727527      2.161675      1.503177
  C      -4.298966      0.317588     -2.506605
  C      -3.910706     -0.250537     -3.886606
  C      -3.557970      1.642179     -2.228827
  C      -5.825399      0.506603     -2.380808
  C      -0.107816      2.583740      0.282927
  C      -0.026774      2.449565      2.817197
  C       2.086452      2.894711      1.501482
  H      -4.416031     -2.935819     -0.976518
  H       2.146084     -0.730254     -0.106190
  H      -2.817293     -0.414610     -3.965564
  H      -4.203166      0.478028     -4.671101
  H      -4.425285     -1.208257     -4.097201
  H      -2.458850      1.512477     -2.277647
  H      -3.814660      2.049091     -1.231059
  H      -3.854367      2.387938     -2.994781
  H      -6.374575     -0.432367     -2.588185
  H      -6.156119      1.270672     -3.114580
  H      -6.107164      0.862027     -1.369258
  H      -1.075506      2.037812      0.242577
  H       0.433411      2.389890     -0.663814
  H      -0.329322      3.670788      0.344027
  H      -1.036020      1.990249      2.822515
  H      -0.152866      3.545902      2.939809
  H       0.533375      2.066574      3.693706
  H       2.653818      2.689971      0.571410
  H       2.710449      2.581991      2.361089
  H       1.916679      3.990486      1.565331
  Si      4.190703     -2.385680      0.877650
  C       5.139910     -0.760191      1.137390
  C       3.492951     -3.089587      2.480520
  C       5.261134     -3.666789     -0.024013
  H       4.598999      0.074423      0.650002
  H       6.168878     -0.808003      0.727931
  H       5.192841     -0.516847      2.216812
  H       2.947765     -4.038562      2.300264
  H       2.800454     -2.350705      2.933466
  H       4.312837     -3.295859      3.200280
  H       4.710364     -4.617506     -0.176150
  H       6.172984     -3.895267      0.567202
  H       5.588714     -3.297039     -1.017374
  H       3.016952     -2.110178     -0.065111
51
Coordinates from ORCA-job my_molecule E -1977.844107092151
  Pt     -1.928800     -0.594627      0.667965
  O      -0.213562     -0.670061      1.541729
  O      -4.006758     -0.415904      0.264841
  P       1.151099      0.231082      1.431392
  P      -3.834203     -0.831985     -1.239450
  O      -4.701191     -2.148687     -1.646465
  O      -2.264765     -1.127704     -1.284231
  O       1.673535     -0.041388     -0.100154
  O       2.115646     -0.168517      2.523358
  C       0.765462      2.052207      1.412658
  C      -4.392240      0.399317     -2.480434
  C      -4.048913     -0.127072     -3.888613
  C      -3.630135      1.707161     -2.181694
  C      -5.912604      0.596903     -2.304271
  C      -0.018671      2.468206      0.156756
  C      -0.034975      2.361124      2.694148
  C       2.129890      2.773798      1.454579
  H      -4.507579     -2.895344     -1.041577
  H       2.238565     -0.857796     -0.113181
  H      -2.959959     -0.298922     -4.003724
  H      -4.355717      0.629558     -4.640391
  H      -4.579468     -1.072277     -4.115376
  H      -2.534104      1.566207     -2.260219
  H      -3.858302      2.087503     -1.166713
  H      -3.935262      2.478665     -2.918149
  H      -6.476685     -0.327933     -2.533908
  H      -6.256233      1.393136     -2.996785
  H      -6.162451      0.913010     -1.271472
  H      -0.992740      1.935771      0.092117
  H       0.552544      2.250769     -0.766896
  H      -0.225362      3.559124      0.193799
  H      -1.049061      1.913127      2.665183
  H      -0.153767      3.459914      2.800975
  H       0.487865      1.981253      3.594701
  H       2.731222      2.553635      0.549757
  H       2.718151      2.468148      2.341502
  H       1.966470      3.871482      1.498756
  Si      4.269589     -2.376576      0.955042
  C       5.040430     -0.659045      1.204864
  C       3.575044     -3.108126      2.548444
  C       5.480410     -3.577680      0.124031
  H       4.547250      0.052994      0.512872
  H       6.134159     -0.632669      1.029416
  H       4.817373     -0.296229      2.227009
  H       3.096520     -4.090904      2.360315
  H       2.827940     -2.407123      2.977106
  H       4.385589     -3.260632      3.292012
  H       5.029052     -4.582784     -0.003386
  H       6.392383     -3.693170      0.747148
  H       5.799982     -3.215294     -0.874571
  H       3.107338     -2.225643     -0.030815
51
Coordinates from ORCA-job my_molecule E -1977.843592738467
  Pt     -1.919249     -0.636723      0.583401
  O      -0.200946     -0.743200      1.448935
  O      -4.004708     -0.453796      0.245248
  P       1.170163      0.152819      1.388320
  P      -3.875651     -0.810722     -1.279076
  O      -4.754513     -2.111881     -1.709632
  O      -2.308583     -1.101604     -1.378014
  O       1.752887     -0.138130     -0.120556
  O       2.084723     -0.242632      2.525161
  C       0.794537      1.975438      1.337412
  C      -4.469071      0.465693     -2.456225
  C      -4.158474     -0.005391     -3.891474
  C      -3.703807      1.764109     -2.126023
  C      -5.984933      0.651220     -2.235138
  C       0.040832      2.376132      0.058139
  C      -0.032489      2.306578      2.596353
  C       2.160797      2.692042      1.399026
  H      -4.541062     -2.881226     -1.140892
  H       2.324078     -0.953597     -0.114003
  H      -3.071089     -0.158842     -4.041619
  H      -4.495354      0.773344     -4.606951
  H      -4.683805     -0.948707     -4.137608
  H      -2.608746      1.627640     -2.223554
  H      -3.918776      2.111366     -1.096367
  H      -4.019840      2.558465     -2.832963
  H      -6.553640     -0.261826     -2.497842
  H      -6.345098      1.481150     -2.877934
  H      -6.210861      0.915118     -1.182299
  H      -0.934476      1.848116     -0.017414
  H       0.630679      2.140422     -0.849087
  H      -0.159770      3.468654      0.073667
  H      -1.048586      1.864196      2.551130
  H      -0.147073      3.407438      2.685040
  H       0.468354      1.937251      3.513676
  H       2.783101      2.452862      0.513512
  H       2.726587      2.402309      2.305629
  H       2.000478      3.790899      1.418268
  Si      4.334653     -2.378246      1.027077
  C       4.967260     -0.603622      1.252752
  C       3.640738     -3.129543      2.614760
  C       5.646135     -3.514632      0.260554
  H       4.522416      0.003198      0.436680
  H       6.068121     -0.483430      1.230016
  H       4.553217     -0.189373      2.192109
  H       3.216573     -4.135626      2.419080
  H       2.850856     -2.462960      3.025413
  H       4.440393     -3.241575      3.377139
  H       5.272658     -4.554346      0.162650
  H       6.549298     -3.538972      0.906289
  H       5.962003     -3.166243     -0.744117
  H       3.189069     -2.319615      0.011354
51
Coordinates from ORCA-job my_molecule E -1977.843205720921
  Pt     -1.927488     -0.683072      0.532988
  O      -0.202129     -0.788675      1.380363
  O      -4.017118     -0.502587      0.229024
  P       1.166428      0.108600      1.358675
  P      -3.907239     -0.813099     -1.306848
  O      -4.801200     -2.093845     -1.766015
  O      -2.343030     -1.111290     -1.431290
  O       1.792056     -0.187318     -0.122977
  O       2.045655     -0.284585      2.521228
  C       0.797608      1.931536      1.287793
  C      -4.505034      0.504005     -2.435935
  C      -4.212898      0.078928     -3.889330
  C      -3.728360      1.786353     -2.071671
  C      -6.017464      0.689931     -2.191961
  C       0.051138      2.319692      0.000231
  C      -0.035048      2.277004      2.539054
  C       2.164782      2.646095      1.348559
  H      -4.585774     -2.882214     -1.224673
  H       2.364533     -0.996892     -0.096152
  H      -3.128180     -0.075302     -4.056718
  H      -4.553516      0.882363     -4.575109
  H      -4.746731     -0.852919     -4.159554
  H      -2.634704      1.642712     -2.174506
  H      -3.938660      2.107856     -1.032686
  H      -4.038522      2.602402     -2.756129
  H      -6.595262     -0.205752     -2.491928
  H      -6.377466      1.551663     -2.791563
  H      -6.231564      0.905512     -1.125719
  H      -0.933303      1.807408     -0.063252
  H       0.636220      2.056117     -0.902203
  H      -0.132024      3.415329     -0.005346
  H      -1.046620      1.823697      2.498557
  H      -0.160220      3.378036      2.608282
  H       0.467470      1.927164      3.462997
  H       2.787928      2.403611      0.464721
  H       2.729339      2.359480      2.257013
  H       2.005685      3.745166      1.364523
  Si      4.390299     -2.375082      1.068198
  C       4.952268     -0.576226      1.282115
  C       3.683249     -3.110046      2.654126
  C       5.735630     -3.499259      0.343634
  H       4.523507     -0.013142      0.425695
  H       6.047201     -0.411708      1.309884
  H       4.477114     -0.153058      2.188276
  H       3.329042     -4.144978      2.469862
  H       2.853476     -2.462838      3.004453
  H       4.452580     -3.162807      3.453017
  H       5.372719     -4.541102      0.229904
  H       6.614163     -3.520204      1.022662
  H       6.086219     -3.146397     -0.647830
  H       3.273245     -2.356262      0.013558
51
Coordinates from ORCA-job my_molecule E -1977.842803088238
  Pt     -1.933778     -0.695069      0.533098
  O      -0.205306     -0.813975      1.371599
  O      -4.022155     -0.480723      0.242257
  P       1.163257      0.084729      1.356856
  P      -3.928682     -0.805497     -1.291910
  O      -4.855944     -2.067748     -1.736230
  O      -2.372980     -1.141693     -1.422171
  O       1.798079     -0.211668     -0.124218
  O       2.035985     -0.304145      2.527314
  C       0.793103      1.907491      1.278495
  C      -4.500716      0.516273     -2.429234
  C      -4.215359      0.075095     -3.879245
  C      -3.699701      1.786020     -2.073275
  C      -6.009145      0.734322     -2.188020
  C       0.066860      2.292069     -0.021625
  C      -0.059815      2.254307      2.515486
  C       2.157950      2.624256      1.360334
  H      -4.656705     -2.856814     -1.189657
  H       2.375330     -1.018489     -0.099551
  H      -3.133213     -0.098123     -4.044476
  H      -4.542896      0.878369     -4.571589
  H      -4.764368     -0.849878     -4.142691
  H      -2.608245      1.618627     -2.162949
  H      -3.913945      2.124803     -1.040617
  H      -3.986016      2.599574     -2.770956
  H      -6.605860     -0.148074     -2.490125
  H      -6.348837      1.604850     -2.786837
  H      -6.220756      0.954243     -1.122138
  H      -0.915417      1.777073     -0.099534
  H       0.666847      2.027230     -0.913810
  H      -0.118050      3.387259     -0.032669
  H      -1.072890      1.806347      2.457347
  H      -0.180904      3.355890      2.584059
  H       0.425169      1.902571      3.448116
  H       2.800810      2.371352      0.493729
  H       2.702704      2.350278      2.284556
  H       1.997247      3.723193      1.358367
  Si      4.400085     -2.366123      1.071920
  C       4.914542     -0.554536      1.274718
  C       3.712323     -3.119554      2.658701
  C       5.771513     -3.458564      0.348111
  H       4.495648     -0.028957      0.390155
  H       6.000519     -0.347856      1.336623
  H       4.387045     -0.128542      2.149955
  H       3.359433     -4.152882      2.462920
  H       2.880080     -2.486698      3.034458
  H       4.492535     -3.180880      3.446378
  H       5.441383     -4.513360      0.256076
  H       6.657278     -3.438930      1.017681
  H       6.100699     -3.111448     -0.652645
  H       3.275260     -2.375994      0.026862
51
Coordinates from ORCA-job my_molecule E -1977.842463025657
  Pt     -1.932962     -0.711405      0.499475
  O      -0.203840     -0.834490      1.335744
  O      -4.023514     -0.496384      0.234382
  P       1.166038      0.062332      1.341635
  P      -3.948269     -0.803602     -1.304632
  O      -4.887786     -2.055213     -1.752789
  O      -2.396143     -1.147343     -1.454410
  O       1.822237     -0.235607     -0.127502
  O       2.020062     -0.327896      2.525175
  C       0.800768      1.885825      1.256358
  C      -4.524620      0.533797     -2.421584
  C      -4.248864      0.108709     -3.878386
  C      -3.718896      1.797820     -2.055772
  C      -6.030846      0.753472     -2.168937
  C       0.087943      2.267438     -0.052285
  C      -0.064026      2.237475      2.483611
  C       2.165430      2.600898      1.350008
  H      -4.683468     -2.853123     -1.221095
  H       2.401078     -1.039841     -0.093318
  H      -3.166128     -0.047069     -4.056286
  H      -4.596581      0.912260     -4.560523
  H      -4.787449     -0.821957     -4.143336
  H      -2.627813      1.628370     -2.145286
  H      -3.933538      2.129360     -1.020805
  H      -4.002553      2.617371     -2.747496
  H      -6.634211     -0.115529     -2.495515
  H      -6.366460      1.644291     -2.739623
  H      -6.238053      0.943942     -1.096501
  H      -0.898242      1.760637     -0.133003
  H       0.692288      1.990229     -0.937696
  H      -0.086511      3.364145     -0.072914
  H      -1.078614      1.794483      2.414884
  H      -0.180151      3.339770      2.550323
  H       0.409148      1.884879      3.421982
  H       2.819566      2.339519      0.494470
  H       2.697573      2.335010      2.283861
  H       2.006153      3.699963      1.335887
  Si      4.426567     -2.363629      1.094849
  C       4.904099     -0.541931      1.290873
  C       3.741268     -3.115119      2.681477
  C       5.813496     -3.444105      0.383256
  H       4.496172     -0.040027      0.388819
  H       5.983017     -0.309800      1.378802
  H       4.344489     -0.116127      2.146027
  H       3.416107     -4.158510      2.490698
  H       2.891952     -2.493755      3.036989
  H       4.511239     -3.151806      3.480576
  H       5.490361     -4.500286      0.283073
  H       6.689603     -3.422364      1.065466
  H       6.155079     -3.091334     -0.611293
  H       3.307807     -2.393745      0.042287
51
Coordinates from ORCA-job my_molecule E -1977.842350786425
  Pt     -1.939476     -0.727362      0.482585
  O      -0.209559     -0.852441      1.314201
  O      -4.030205     -0.498367      0.234646
  P       1.161616      0.041619      1.327598
  P      -3.968836     -0.800115     -1.306120
  O      -4.928662     -2.036289     -1.753264
  O      -2.422528     -1.165233     -1.466721
  O       1.828603     -0.259817     -0.134114
  O       2.011056     -0.347322      2.514518
  C       0.794473      1.864336      1.238641
  C      -4.533063      0.549533     -2.414531
  C      -4.257811      0.131741     -3.873783
  C      -3.718705      1.805088     -2.038933
  C      -6.038060      0.779529     -2.163115
  C       0.083116      2.240575     -0.072667
  C      -0.073652      2.216767      2.463310
  C       2.157108      2.582516      1.333412
  H      -4.725991     -2.841931     -1.232674
  H       2.413556     -1.059398     -0.089933
  H      -3.174981     -0.020791     -4.053289
  H      -4.608428      0.937838     -4.551436
  H      -4.795912     -0.798048     -4.142886
  H      -2.628212      1.626523     -2.116869
  H      -3.941095      2.137562     -1.005842
  H      -3.988246      2.627850     -2.732512
  H      -6.649008     -0.077671     -2.506181
  H      -6.362280      1.683270     -2.719860
  H      -6.247441      0.955873     -1.088610
  H      -0.905991      1.738547     -0.149105
  H       0.685551      1.954117     -0.956383
  H      -0.086114      3.337892     -0.100958
  H      -1.089337      1.777241      2.389622
  H      -0.185452      3.319371      2.532325
  H       0.395009      1.860847      3.402727
  H       2.818096      2.312795      0.485798
  H       2.683192      2.328382      2.273987
  H       1.996132      3.681079      1.306245
  Si      4.450795     -2.358116      1.110590
  C       4.908555     -0.529336      1.299283
  C       3.769734     -3.107969      2.698701
  C       5.846582     -3.431081      0.405468
  H       4.502699     -0.037075      0.391637
  H       5.985054     -0.287552      1.391950
  H       4.343234     -0.103303      2.150442
  H       3.465532     -4.158576      2.513552
  H       2.908101     -2.493358      3.035184
  H       4.529870     -3.124875      3.507523
  H       5.526707     -4.487816      0.301227
  H       6.717798     -3.408223      1.094043
  H       6.194409     -3.075909     -0.586049
  H       3.332466     -2.402919      0.056618
51
Coordinates from ORCA-job my_molecule E -1977.842258034347
  Pt     -1.934802     -0.733015      0.461532
  O      -0.203394     -0.860566      1.290128
  O      -4.027418     -0.510833      0.229269
  P       1.167860      0.033865      1.316196
  P      -3.975831     -0.797697     -1.314811
  O      -4.932783     -2.034413     -1.766726
  O      -2.429257     -1.154083     -1.489785
  O       1.847996     -0.269987     -0.139022
  O       2.004820     -0.354150      2.512466
  C       0.805128      1.857521      1.221516
  C      -4.555026      0.558562     -2.407744
  C      -4.273904      0.159258     -3.871125
  C      -3.755478      1.819255     -2.017688
  C      -6.062486      0.769944     -2.155141
  C       0.107810      2.232877     -0.097703
  C      -0.074566      2.213854      2.436692
  C       2.167771      2.573551      1.328998
  H      -4.717935     -2.845610     -1.259818
  H       2.433962     -1.068774     -0.088837
  H      -3.188441      0.031343     -4.053363
  H      -4.643521      0.963371     -4.541039
  H      -4.793313     -0.778981     -4.147672
  H      -2.662516      1.650955     -2.082170
  H      -3.994513      2.145482     -0.986345
  H      -4.023638      2.642205     -2.711595
  H      -6.665404     -0.085033     -2.517193
  H      -6.392806      1.682569     -2.693642
  H      -6.276373      0.924134     -1.078072
  H      -0.882946      1.735361     -0.180820
  H       0.716813      1.939617     -0.974692
  H      -0.054913      3.330980     -0.131800
  H      -1.094295      1.786440      2.349006
  H      -0.174650      3.317414      2.509536
  H       0.378592      1.849981      3.380712
  H       2.841862      2.291741      0.495760
  H       2.678159      2.330479      2.281049
  H       2.009653      3.671998      1.285179
  Si      4.463618     -2.360106      1.128431
  C       4.912906     -0.529278      1.315306
  C       3.780798     -3.112418      2.713980
  C       5.864123     -3.428047      0.425651
  H       4.516616     -0.044912      0.399297
  H       5.986916     -0.282443      1.422175
  H       4.334654     -0.101230      2.156684
  H       3.478009     -4.163116      2.526887
  H       2.915938     -2.500297      3.046291
  H       4.537176     -3.128072      3.526275
  H       5.548939     -4.486726      0.326952
  H       6.735842     -3.397405      1.113261
  H       6.209559     -3.076171     -0.567852
  H       3.344690     -2.409396      0.075427
51
Coordinates from ORCA-job my_molecule E -1977.842175588803
  Pt     -1.934269     -0.737329      0.450886
  O      -0.202129     -0.872689      1.275129
  O      -4.026407     -0.501983      0.231124
  P       1.168924      0.022061      1.307486
  P      -3.986269     -0.789925     -1.313241
  O      -4.953811     -2.020651     -1.759000
  O      -2.443286     -1.156610     -1.497123
  O       1.856689     -0.281591     -0.144900
  O       2.001139     -0.364948      2.507732
  C       0.803181      1.844968      1.209688
  C      -4.563579      0.569038     -2.403863
  C      -4.278643      0.172503     -3.867374
  C      -3.765875      1.829528     -2.009389
  C      -6.071803      0.779626     -2.154666
  C       0.112095      2.216643     -0.113909
  C      -0.083597      2.200765      2.419869
  C       2.163596      2.564154      1.323606
  H      -4.737606     -2.834436     -1.256822
  H       2.447208     -1.076689     -0.090136
  H      -3.192156      0.053925     -4.049474
  H      -4.655526      0.973547     -4.536930
  H      -4.790604     -0.769703     -4.144392
  H      -2.672394      1.658080     -2.054994
  H      -4.020479      2.163171     -0.984177
  H      -4.020673      2.648749     -2.712683
  H      -6.674786     -0.069578     -2.529756
  H      -6.398074      1.699705     -2.682873
  H      -6.290049      0.921623     -1.076745
  H      -0.877588      1.717522     -0.201129
  H       0.725865      1.922652     -0.987274
  H      -0.052598      3.314345     -0.151098
  H      -1.103415      1.775108      2.325076
  H      -0.182049      3.304388      2.494189
  H       0.363294      1.835063      3.366201
  H       2.845540      2.278429      0.498146
  H       2.666333      2.328245      2.281554
  H       2.003766      3.661989      1.271892
  Si      4.477921     -2.358222      1.141222
  C       4.917470     -0.525351      1.325145
  C       3.801747     -3.114376      2.727301
  C       5.881319     -3.419617      0.434352
  H       4.529682     -0.049139      0.401220
  H       5.988359     -0.271025      1.444284
  H       4.326138     -0.096625      2.157060
  H       3.501766     -4.165551      2.538226
  H       2.934561     -2.506597      3.060965
  H       4.558451     -3.129089      3.539246
  H       5.571973     -4.480561      0.341688
  H       6.756381     -3.380872      1.117300
  H       6.219671     -3.069731     -0.562264
  H       3.354594     -2.412942      0.093626
51
Coordinates from ORCA-job my_molecule E -1977.842091967901
  Pt     -1.928858     -0.738792      0.430109
  O      -0.195212     -0.880402      1.250346
  O      -4.021910     -0.500461      0.226823
  P       1.176014      0.013937      1.296145
  P      -3.995092     -0.783003     -1.318979
  O      -4.962467     -2.015625     -1.760089
  O      -2.452963     -1.143972     -1.517913
  O       1.876204     -0.289601     -0.150203
  O       1.995684     -0.375200      2.504497
  C       0.814929      1.837775      1.195533
  C      -4.587311      0.577076     -2.400402
  C      -4.298639      0.191633     -3.866231
  C      -3.802523      1.843427     -1.998828
  C      -6.097594      0.771285     -2.150037
  C       0.142401      2.212153     -0.136854
  C      -0.086756      2.194550      2.394382
  C       2.175246      2.553895      1.328072
  H      -4.735220     -2.831683     -1.266569
  H       2.468337     -1.083119     -0.089836
  H      -3.210673      0.093976     -4.051501
  H      -4.692622      0.987972     -4.531553
  H      -4.794161     -0.758620     -4.145766
  H      -2.707372      1.679871     -2.032155
  H      -4.070839      2.176181     -0.976867
  H      -4.055380      2.660241     -2.705611
  H      -6.692981     -0.077580     -2.537648
  H      -6.430778      1.695950     -2.665818
  H      -6.318789      0.897410     -1.070708
  H      -0.846463      1.714185     -0.237853
  H       0.767553      1.918446     -1.002209
  H      -0.020343      3.310118     -0.174803
  H      -1.108678      1.778089      2.282644
  H      -0.177141      3.298582      2.473216
  H       0.343445      1.820909      3.345363
  H       2.870195      2.262154      0.515696
  H       2.661373      2.321857      2.295513
  H       2.019023      3.651835      1.268255
  Si      4.490561     -2.358867      1.158474
  C       4.923756     -0.525258      1.344024
  C       3.816032     -3.119766      2.742215
  C       5.896235     -3.414934      0.448489
  H       4.548073     -0.053905      0.412820
  H       5.991894     -0.267353      1.478771
  H       4.319302     -0.095866      2.166150
  H       3.518015     -4.171004      2.550215
  H       2.946067     -2.515146      3.073420
  H       4.570201     -3.134168      3.556457
  H       5.591300     -4.477549      0.360442
  H       6.773652     -3.369954      1.128040
  H       6.229400     -3.066719     -0.550429
  H       3.365869     -2.414962      0.112750
51
Coordinates from ORCA-job my_molecule E -1977.842028167638
  Pt     -1.927028     -0.746143      0.415983
  O      -0.192924     -0.895257      1.232389
  O      -4.019581     -0.498384      0.227350
  P       1.177293      0.000181      1.284035
  P      -4.004772     -0.776551     -1.319557
  O      -4.981315     -2.003047     -1.757617
  O      -2.466006     -1.144537     -1.529351
  O       1.885906     -0.304101     -0.158468
  O       1.991198     -0.387366      2.497060
  C       0.812718      1.822988      1.178388
  C      -4.597400      0.589479     -2.393174
  C      -4.309453      0.211252     -3.861155
  C      -3.811833      1.853485     -1.985777
  C      -6.107700      0.783065     -2.141730
  C       0.154006      2.194458     -0.161652
  C      -0.102770      2.178541      2.367177
  C       2.169887      2.542465      1.325313
  H      -4.752034     -2.822723     -1.271047
  H       2.483728     -1.092866     -0.092435
  H      -3.221362      0.122995     -4.050175
  H      -4.712097      1.006577     -4.522508
  H      -4.798434     -0.741867     -4.142574
  H      -2.716946      1.685750     -2.007725
  H      -4.088851      2.189384     -0.967197
  H      -4.054350      2.670167     -2.696323
  H      -6.704083     -0.059938     -2.540397
  H      -6.438875      1.714548     -2.646388
  H      -6.329831      0.896176     -1.061131
  H      -0.831157      1.691532     -0.274793
  H       0.790728      1.904784     -1.019823
  H      -0.014450      3.291500     -0.200814
  H      -1.123616      1.763205      2.242071
  H      -0.192964      3.282488      2.447210
  H       0.315921      1.802546      3.322374
  H       2.876209      2.248742      0.523562
  H       2.643582      2.315459      2.300095
  H       2.012247      3.639844      1.259442
  Si      4.505272     -2.356035      1.174501
  C       4.928881     -0.520618      1.355412
  C       3.838705     -3.119616      2.759931
  C       5.914105     -3.405805      0.461308
  H       4.563765     -0.057167      0.416070
  H       5.993510     -0.255862      1.503383
  H       4.311006     -0.089771      2.166751
  H       3.543824     -4.171714      2.567684
  H       2.966136     -2.519676      3.091988
  H       4.593675     -3.131275      3.573375
  H       5.616836     -4.471302      0.382296
  H       6.795450     -3.349736      1.134948
  H       6.238407     -3.061666     -0.541904
  H       3.376836     -2.418591      0.133618
51
Coordinates from ORCA-job my_molecule E -1977.841967864924
  Pt     -1.921573     -0.747976      0.395562
  O      -0.185741     -0.905124      1.206988
  O      -4.014251     -0.492502      0.224311
  P       1.183893     -0.009395      1.271204
  P      -4.014587     -0.768772     -1.323139
  O      -4.994480     -1.995675     -1.752745
  O      -2.477933     -1.134966     -1.548228
  O       1.904264     -0.311886     -0.165544
  O       1.986477     -0.399712      2.490909
  C       0.821864      1.813934      1.164070
  C      -4.619393      0.597707     -2.389495
  C      -4.336346      0.224902     -3.859920
  C      -3.838069      1.864444     -1.982389
  C      -6.129590      0.783281     -2.131157
  C       0.189571      2.190069     -0.187257
  C      -0.116021      2.166898      2.336155
  C       2.176578      2.531830      1.339445
  H      -4.756877     -2.816651     -1.272400
  H       2.505586     -1.097652     -0.094661
  H      -3.248636      0.150324     -4.056634
  H      -4.753581      1.015966     -4.517326
  H      -4.815706     -0.733674     -4.139484
  H      -2.742737      1.699060     -2.000482
  H      -4.118981      2.202169     -0.965516
  H      -4.079920      2.679192     -2.695378
  H      -6.724030     -0.058524     -2.535195
  H      -6.465997      1.717758     -2.626730
  H      -6.348849      0.886381     -1.048958
  H      -0.792055      1.685725     -0.322440
  H       0.843969      1.905542     -1.033746
  H       0.019740      3.286958     -0.224780
  H      -1.136424      1.758379      2.186994
  H      -0.201724      3.270793      2.421758
  H       0.280900      1.782436      3.297288
  H       2.899976      2.235988      0.553878
  H       2.628349      2.305521      2.324723
  H       2.021783      3.629317      1.268883
  Si      4.518838     -2.354781      1.190770
  C       4.936619     -0.519145      1.374309
  C       3.855348     -3.124049      2.774126
  C       5.929881     -3.399051      0.473944
  H       4.584901     -0.058788      0.428501
  H       5.998213     -0.251640      1.538139
  H       4.306064     -0.088104      2.175784
  H       3.562432     -4.176110      2.578619
  H       2.980204     -2.527920      3.105119
  H       4.608695     -3.135829      3.588975
  H       5.638608     -4.466670      0.401554
  H       6.814393     -3.334594      1.142697
  H       6.247039     -3.057710     -0.532476
  H       3.389318     -2.417671      0.151372
51
Coordinates from ORCA-job my_molecule E -1977.841950567302
  Pt     -1.916668     -0.757012      0.376523
  O      -0.180239     -0.920736      1.183642
  O      -4.009290     -0.496030      0.223157
  P       1.187470     -0.022848      1.255489
  P      -4.022913     -0.763775     -1.325881
  O      -5.009659     -1.985828     -1.753689
  O      -2.489218     -1.132113     -1.565056
  O       1.918339     -0.326170     -0.175607
  O       1.981999     -0.411269      2.481161
  C       0.821952      1.799458      1.142599
  C      -4.633222      0.610132     -2.379424
  C      -4.359756      0.246875     -3.854132
  C      -3.847918      1.873387     -1.969148
  C      -6.141780      0.795255     -2.110866
  C       0.219534      2.175702     -0.222245
  C      -0.143459      2.148465      2.293480
  C       2.170429      2.520825      1.350104
  H      -4.768866     -2.810410     -1.281143
  H       2.524992     -1.107144     -0.098139
  H      -3.273390      0.179299     -4.060506
  H      -4.786705      1.039318     -4.503599
  H      -4.836359     -0.712630     -4.135317
  H      -2.753084      1.704484     -1.988921
  H      -4.126404      2.209346     -0.951046
  H      -4.087748      2.691160     -2.679351
  H      -6.739504     -0.041869     -2.519789
  H      -6.479816      1.734752     -2.595676
  H      -6.354956      0.887786     -1.026504
  H      -0.755926      1.666496     -0.382431
  H       0.895292      1.897655     -1.053880
  H       0.044194      3.271662     -0.260454
  H      -1.160126      1.741243      2.117416
  H      -0.230572      3.252039      2.381564
  H       0.230021      1.759648      3.262256
  H       2.913858      2.225564      0.583247
  H       2.597863      2.296539      2.346583
  H       2.014906      3.617875      1.274660
  Si      4.534296     -2.352086      1.208555
  C       4.943703     -0.514951      1.388008
  C       3.876546     -3.123088      2.793203
  C       5.948665     -3.390897      0.490177
  H       4.604392     -0.060872      0.434681
  H       6.001763     -0.242695      1.566084
  H       4.300481     -0.082024      2.178353
  H       3.586687     -4.175963      2.597414
  H       2.998615     -2.531082      3.123551
  H       4.629674     -3.132254      3.608202
  H       5.665550     -4.461343      0.427918
  H       6.836632     -3.314370      1.153091
  H       6.257270     -3.054934     -0.520683
  H       3.402455     -2.420574      0.172370
51
Coordinates from ORCA-job my_molecule E -1977.842033736044
  Pt     -1.908444     -0.762597      0.354275
  O      -0.170419     -0.932164      1.156725
  O      -4.001440     -0.499220      0.219793
  P       1.195057     -0.031562      1.239778
  P      -4.029534     -0.758690     -1.330582
  O      -5.018196     -1.980491     -1.754837
  O      -2.497696     -1.122180     -1.586316
  O       1.938407     -0.334653     -0.184574
  O       1.978672     -0.419080      2.472812
  C       0.827848      1.790299      1.122512
  C      -4.653594      0.619567     -2.370370
  C      -4.392418      0.266034     -3.849689
  C      -3.868526      1.882878     -1.959769
  C      -6.160320      0.798307     -2.087419
  C       0.266993      2.170564     -0.258838
  C      -0.173690      2.133434      2.244032
  C       2.167725      2.513623      1.374884
  H      -4.770405     -2.807206     -1.289688
  H       2.548100     -1.112709     -0.100786
  H      -3.307837      0.207221     -4.067761
  H      -4.831621      1.058938     -4.490368
  H      -4.865296     -0.695178     -4.131420
  H      -2.773507      1.716069     -1.986640
  H      -4.141621      2.214533     -0.938820
  H      -4.113922      2.703025     -2.665318
  H      -6.759069     -0.037637     -2.497276
  H      -6.505339      1.740185     -2.562587
  H      -6.364525      0.882313     -1.000647
  H      -0.700638      1.658189     -0.452748
  H       0.969957      1.899937     -1.070037
  H       0.088058      3.265940     -0.296911
  H      -1.184393      1.728262      2.032220
  H      -0.262813      3.236558      2.335788
  H       0.167906      1.738826      3.222246
  H       2.936349      2.221197      0.632116
  H       2.562565      2.287471      2.384216
  H       2.012783      3.610563      1.296717
  Si      4.549034     -2.352068      1.225469
  C       4.956889     -0.514762      1.403069
  C       3.892595     -3.123583      2.810190
  C       5.964159     -3.388919      0.505745
  H       4.630135     -0.062418      0.444576
  H       6.013034     -0.243700      1.594038
  H       4.305384     -0.079013      2.185090
  H       3.603333     -4.176634      2.614377
  H       3.012825     -2.533501      3.138534
  H       4.644518     -3.131340      3.626228
  H       5.685353     -4.460895      0.450929
  H       6.854880     -3.304958      1.164084
  H       6.266811     -3.057396     -0.508358
  H       3.415895     -2.421379      0.191315
51
Coordinates from ORCA-job my_molecule E -1977.842215174802
  Pt     -1.917392     -0.747669      0.388723
  O      -0.176518     -0.913288      1.190573
  O      -4.011613     -0.496459      0.226308
  P       1.190777     -0.013105      1.258117
  P      -4.017051     -0.762841     -1.322844
  O      -4.989927     -1.993971     -1.756462
  O      -2.479024     -1.117292     -1.557259
  O       1.917937     -0.317068     -0.175748
  O       1.988337     -0.398377      2.483009
  C       0.824934      1.809018      1.144828
  C      -4.635403      0.605541     -2.379015
  C      -4.351798      0.243400     -3.852084
  C      -3.863624      1.876212     -1.965793
  C      -6.146524      0.777957     -2.117457
  C       0.229564      2.186376     -0.222598
  C      -0.146426      2.155189      2.291345
  C       2.171731      2.531107      1.359815
  H      -4.742742     -2.817006     -1.284570
  H       2.520347     -1.100783     -0.097691
  H      -3.263779      0.187144     -4.053000
  H      -4.784541      1.030103     -4.504671
  H      -4.816699     -0.721642     -4.133904
  H      -2.767110      1.718794     -1.981680
  H      -4.149662      2.208299     -0.948504
  H      -4.109438      2.691735     -2.676528
  H      -6.735782     -0.063027     -2.530696
  H      -6.489227      1.715915     -2.602023
  H      -6.365990      0.867681     -1.034113
  H      -0.745191      1.677148     -0.386922
  H       0.909282      1.907258     -1.050844
  H       0.056085      3.282623     -0.262005
  H      -1.162157      1.747764      2.111511
  H      -0.234847      3.258599      2.380647
  H       0.223532      1.765828      3.261185
  H       2.918710      2.236154      0.596337
  H       2.594794      2.307362      2.358305
  H       2.015918      3.628057      1.283236
  Si      4.528269     -2.357727      1.205263
  C       4.957242     -0.523703      1.384840
  C       3.868149     -3.123814      2.790952
  C       5.933943     -3.404026      0.480819
  H       4.618081     -0.062008      0.435725
  H       6.020201     -0.268086      1.558441
  H       4.325722     -0.083399      2.180476
  H       3.567196     -4.174235      2.598667
  H       2.995382     -2.524908      3.123496
  H       4.624665     -3.136538      3.602848
  H       5.641992     -4.471724      0.412334
  H       6.823167     -3.338578      1.143179
  H       6.244163     -3.064301     -0.528313
  H       3.392345     -2.419693      0.173746
51
Coordinates from ORCA-job my_molecule E -1977.842201429545
  Pt     -1.912380     -0.756114      0.366074
  O      -0.170463     -0.926957      1.165513
  O      -4.007115     -0.505112      0.220473
  P       1.195022     -0.025320      1.243664
  P      -4.024414     -0.760144     -1.330540
  O      -5.001375     -1.987927     -1.765078
  O      -2.488535     -1.112375     -1.579298
  O       1.935098     -0.330214     -0.182731
  O       1.981444     -0.410260      2.475494
  C       0.828737      1.796885      1.123797
  C      -4.653083      0.616542     -2.369898
  C      -4.383000      0.268346     -3.848712
  C      -3.879213      1.884614     -1.952322
  C      -6.161978      0.784652     -2.092729
  C       0.266234      2.174244     -0.257579
  C      -0.171210      2.142931      2.245546
  C       2.169230      2.519996      1.372848
  H      -4.748891     -2.814894     -1.302895
  H       2.543553     -1.109152     -0.099973
  H      -3.296975      0.222558     -4.062680
  H      -4.829588      1.056810     -4.489808
  H      -4.843586     -0.697909     -4.133561
  H      -2.782888      1.725781     -1.969975
  H      -4.163824      2.212966     -0.933444
  H      -4.124693      2.703543     -2.659239
  H      -6.754225     -0.052250     -2.509988
  H      -6.510030      1.727631     -2.563607
  H      -6.371618      0.862098     -1.006523
  H      -0.702128      1.661989     -0.448951
  H       0.967939      1.900694     -1.068989
  H       0.088512      3.269715     -0.298471
  H      -1.182044      1.736566      2.037324
  H      -0.260676      3.246367      2.333593
  H       0.171945      1.753008      3.225062
  H       2.936345      2.226258      0.629041
  H       2.565853      2.294615      2.381667
  H       2.014760      3.616895      1.292945
  Si      4.544789     -2.355791      1.223766
  C       4.966818     -0.520988      1.400880
  C       3.885952     -3.124241      2.808389
  C       5.953961     -3.398077      0.500388
  H       4.635882     -0.060599      0.448287
  H       6.027348     -0.262533      1.584991
  H       4.327615     -0.081555      2.190933
  H       3.586122     -4.174640      2.613920
  H       3.010159     -2.528868      3.138840
  H       4.640193     -3.136643      3.622308
  H       5.671361     -4.469161      0.447469
  H       6.847646     -3.316144      1.154910
  H       6.253807     -3.068244     -0.515107
  H       3.407605     -2.419591      0.193972
51
Coordinates from ORCA-job my_molecule E -1977.842172138660
  Pt     -1.907701     -0.767656      0.343879
  O      -0.165788     -0.943754      1.139580
  O      -4.002466     -0.512789      0.214908
  P       1.198125     -0.041381      1.227843
  P      -4.031424     -0.755535     -1.337956
  O      -5.012873     -1.979307     -1.774243
  O      -2.497925     -1.105849     -1.601222
  O       1.951683     -0.349048     -0.189948
  O       1.973190     -0.424554      2.467077
  C       0.831066      1.780583      1.099579
  C      -4.669834      0.630485     -2.359027
  C      -4.414021      0.297820     -3.843820
  C      -3.893107      1.895199     -1.936329
  C      -6.176330      0.794098     -2.065714
  C       0.303661      2.157239     -0.295839
  C      -0.198488      2.126270      2.194363
  C       2.163579      2.505570      1.384010
  H      -4.756848     -2.810003     -1.320730
  H       2.566074     -1.122837     -0.100668
  H      -3.330263      0.257827     -4.070180
  H      -4.869854      1.091355     -4.472054
  H      -4.874695     -0.666842     -4.133955
  H      -2.797002      1.735350     -1.960090
  H      -4.172653      2.217110     -0.914034
  H      -4.140962      2.719306     -2.636366
  H      -6.771546     -0.039318     -2.485745
  H      -6.530248      1.741257     -2.523672
  H      -6.375442      0.859958     -0.976776
  H      -0.657981      1.643134     -0.514247
  H       1.027205      1.887279     -1.088899
  H       0.123212      3.252144     -0.339816
  H      -1.203015      1.719917      1.956994
  H      -0.290114      3.229690      2.280392
  H       0.116715      1.736220      3.183242
  H       2.951109      2.213927      0.660954
  H       2.532841      2.278650      2.402769
  H       2.009752      3.602316      1.301097
  Si      4.562584     -2.353167      1.243740
  C       4.972492     -0.515929      1.415528
  C       3.907200     -3.123213      2.828926
  C       5.977733     -3.388792      0.522519
  H       4.650684     -0.060086      0.457640
  H       6.029127     -0.250853      1.612405
  H       4.322015     -0.077490      2.197026
  H       3.611771     -4.174712      2.633467
  H       3.026931     -2.532885      3.156062
  H       4.658917     -3.132363      3.645102
  H       5.707624     -4.463798      0.487133
  H       6.875564     -3.286913      1.168559
  H       6.266027     -3.070000     -0.499802
  H       3.423700     -2.423634      0.216340
51
Coordinates from ORCA-job my_molecule E -1977.842125539548
  Pt     -1.908063     -0.782243      0.331154
  O      -0.164645     -0.964631      1.123011
  O      -4.002781     -0.526607      0.210341
  P       1.197273     -0.060410      1.214704
  P      -4.035936     -0.753140     -1.344945
  O      -5.021589     -1.970120     -1.791698
  O      -2.504170     -1.103358     -1.615333
  O       1.959739     -0.372926     -0.196987
  O       1.965275     -0.439302      2.459376
  C       0.827097      1.760851      1.074316
  C      -4.677195      0.646170     -2.346018
  C      -4.434834      0.332264     -3.836875
  C      -3.894095      1.903860     -1.913792
  C      -6.181016      0.808917     -2.037885
  C       0.325586      2.131227     -0.332254
  C      -0.224553      2.109783      2.146889
  C       2.152105      2.490359      1.382064
  H      -4.765927     -2.805994     -1.347566
  H       2.582107     -1.140268     -0.102000
  H      -3.353271      0.293583     -4.073946
  H      -4.894653      1.134867     -4.450553
  H      -4.899598     -0.627709     -4.135965
  H      -2.798831      1.737929     -1.937456
  H      -4.172975      2.220613     -0.889722
  H      -4.136449      2.734325     -2.608200
  H      -6.781057     -0.018559     -2.462781
  H      -6.537715      1.761990     -2.481189
  H      -6.370240      0.861229     -0.946464
  H      -0.628457      1.612056     -0.570760
  H       1.066516      1.865185     -1.110235
  H       0.138487      3.224864     -0.381483
  H      -1.222265      1.697219      1.891141
  H      -0.322227      3.213387      2.223393
  H       0.071155      1.727886      3.144988
  H       2.953279      2.203861      0.672007
  H       2.504299      2.261019      2.406324
  H       1.995733      3.586725      1.299193
  Si      4.577424     -2.349143      1.261843
  C       4.971667     -0.509924      1.424753
  C       3.928762     -3.118297      2.849956
  C       6.001262     -3.376027      0.544956
  H       4.659162     -0.060125      0.461069
  H       6.023142     -0.234242      1.634163
  H       4.307398     -0.073897      2.196201
  H       3.635165     -4.170684      2.655964
  H       3.044311     -2.534394      3.177018
  H       4.681157     -3.123161      3.665446
  H       5.746587     -4.455198      0.527301
  H       6.902160     -3.251712      1.182804
  H       6.278459     -3.068118     -0.483715
  H       3.437235     -2.429980      0.237447
51
Coordinates from ORCA-job my_molecule E -1977.842044033660
  Pt     -1.907811     -0.794933      0.318808
  O      -0.163291     -0.982494      1.106987
  O      -4.003233     -0.542042      0.198436
  P       1.195669     -0.075486      1.204663
  P      -4.033984     -0.751063     -1.359526
  O      -5.015851     -1.965861     -1.821837
  O      -2.501324     -1.092865     -1.632036
  O       1.966578     -0.388740     -0.202190
  O       1.956634     -0.453212      2.453976
  C       0.823597      1.745805      1.056957
  C      -4.683338      0.658965     -2.340157
  C      -4.456903      0.362716     -3.836772
  C      -3.895683      1.911821     -1.901562
  C      -6.184250      0.817005     -2.014703
  C       0.318739      2.109159     -0.350007
  C      -0.225597      2.101673      2.129688
  C       2.148784      2.478060      1.357995
  H      -4.756722     -2.806147     -1.388143
  H       2.596379     -1.149932     -0.103142
  H      -3.378075      0.328231     -4.086907
  H      -4.924041      1.172232     -4.435688
  H      -4.923753     -0.594160     -4.142418
  H      -2.801097      1.741459     -1.925216
  H      -4.174040      2.225234     -0.876327
  H      -4.134010      2.746890     -2.591806
  H      -6.788228     -0.003661     -2.447223
  H      -6.545719      1.777095     -2.438573
  H      -6.362226      0.850589     -0.920672
  H      -0.636577      1.591077     -0.585160
  H       1.057091      1.839423     -1.129030
  H       0.131717      3.202740     -0.403868
  H      -1.221623      1.679866      1.881447
  H      -0.329320      3.205517      2.193333
  H       0.074337      1.732658      3.131346
  H       2.946536      2.196326      0.642208
  H       2.507442      2.245792      2.379455
  H       1.989152      3.574236      1.279292
  Si      4.588209     -2.346547      1.280159
  C       4.969951     -0.507962      1.438736
  C       3.944049     -3.115000      2.869768
  C       6.018621     -3.367398      0.567065
  H       4.668798     -0.060686      0.470115
  H       6.015761     -0.221644      1.661797
  H       4.290891     -0.076927      2.200315
  H       3.650499     -4.167682      2.676496
  H       3.055827     -2.537410      3.197529
  H       4.697354     -3.117298      3.684289
  H       5.776407     -4.449536      0.563702
  H       6.921779     -3.225249      1.198023
  H       6.287303     -3.068481     -0.466490
  H       3.448594     -2.432151      0.256869
51
Coordinates from ORCA-job my_molecule E -1977.841850609221
  Pt     -1.902011     -0.801431      0.283214
  O      -0.157495     -0.992541      1.070171
  O      -3.997758     -0.551011      0.179054
  P       1.202027     -0.089767      1.187098
  P      -4.040052     -0.746479     -1.380651
  O      -5.019338     -1.962817     -1.845457
  O      -2.508378     -1.076528     -1.668384
  O       1.988076     -0.402377     -0.209377
  O       1.946050     -0.474978      2.443971
  C       0.837827      1.733662      1.039871
  C      -4.710804      0.669403     -2.338402
  C      -4.506798      0.390918     -3.841485
  C      -3.923715      1.922478     -1.899210
  C      -6.207687      0.813889     -1.987760
  C       0.350716      2.102135     -0.371943
  C      -0.222168      2.091923      2.101107
  C       2.162070      2.460252      1.358206
  H      -4.747860     -2.806216     -1.425532
  H       2.623168     -1.158634     -0.103334
  H      -3.432144      0.367472     -4.110360
  H      -4.989535      1.203629     -4.423526
  H      -4.971810     -0.565837     -4.150186
  H      -2.828845      1.756086     -1.934388
  H      -4.193182      2.228490     -0.869383
  H      -4.171488      2.761598     -2.581151
  H      -6.813741     -0.001747     -2.426846
  H      -6.580470      1.779806     -2.387952
  H      -6.369346      0.825892     -0.890753
  H      -0.607288      1.594438     -0.617937
  H       1.094020      1.826074     -1.144008
  H       0.174443      3.197526     -0.426820
  H      -1.214751      1.667326      1.843446
  H      -0.328157      3.195791      2.159602
  H       0.067145      1.726341      3.107122
  H       2.966930      2.180050      0.649851
  H       2.508466      2.221636      2.382486
  H       2.006504      3.557234      1.283080
  Si      4.603359     -2.344688      1.304102
  C       4.971343     -0.505513      1.461894
  C       3.961299     -3.113581      2.893750
  C       6.039162     -3.360860      0.595050
  H       4.686076     -0.058780      0.488379
  H       6.010862     -0.210236      1.702624
  H       4.277057     -0.079594      2.212734
  H       3.678430     -4.169656      2.702674
  H       3.063884     -2.544101      3.209719
  H       4.707648     -3.104695      3.714308
  H       5.806759     -4.445069      0.605594
  H       6.943805     -3.203220      1.220270
  H       6.301418     -3.071890     -0.442971
  H       3.466278     -2.431802      0.278439
51
Coordinates from ORCA-job my_molecule E -1977.841770449233
  Pt     -1.907783     -0.814500      0.271351
  O      -0.163921     -1.007064      1.058564
  O      -4.003483     -0.566794      0.166709
  P       1.195767     -0.106133      1.178931
  P      -4.042573     -0.747018     -1.395124
  O      -5.024579     -1.955764     -1.874635
  O      -2.511554     -1.078670     -1.681903
  O       1.986025     -0.421733     -0.213710
  O       1.935603     -0.491135      2.438223
  C       0.830502      1.716933      1.027446
  C      -4.710474      0.681425     -2.335926
  C      -4.517216      0.419092     -3.843200
  C      -3.914633      1.925857     -1.887923
  C      -6.204762      0.828020     -1.974055
  C       0.327591      2.078104     -0.380503
  C      -0.217478      2.080623      2.098651
  C       2.158199      2.445292      1.327191
  H      -4.752201     -2.805183     -1.467544
  H       2.628407     -1.170959     -0.101522
  H      -3.444463      0.394483     -4.119669
  H      -4.999860      1.240603     -4.412882
  H      -4.987956     -0.532212     -4.159883
  H      -2.820844      1.753533     -1.929776
  H      -4.177284      2.223397     -0.853845
  H      -4.160716      2.773420     -2.559942
  H      -6.817692      0.023982     -2.424854
  H      -6.574651      1.803216     -2.353863
  H      -6.359778      0.820064     -0.876054
  H      -0.636093      1.574106     -0.611785
  H       1.059532      1.793694     -1.160365
  H       0.155199      3.173857     -0.440554
  H      -1.210116      1.645768      1.858780
  H      -0.330529      3.184302      2.145586
  H       0.087214      1.727585      3.104534
  H       2.954058      2.165294      0.608709
  H       2.517926      2.208490      2.347347
  H       2.000533      3.542030      1.252860
  Si      4.612213     -2.338931      1.321252
  C       4.968021     -0.498095      1.470042
  C       3.983967     -3.104821      2.917974
  C       6.050242     -3.350498      0.609668
  H       4.690320     -0.053692      0.493156
  H       6.002945     -0.193350      1.718984
  H       4.264456     -0.075101      2.214006
  H       3.710143     -4.164560      2.733811
  H       3.080706     -2.543954      3.232089
  H       4.731952     -3.083560      3.736651
  H       5.830769     -4.437006      0.640031
  H       6.960697     -3.172686      1.220948
  H       6.296962     -3.074920     -0.435775
  H       3.470690     -2.434831      0.301797
51
Coordinates from ORCA-job my_molecule E -1977.841683268246
  Pt     -1.904449     -0.824133      0.241269
  O      -0.160454     -1.015623      1.028085
  O      -4.001581     -0.588905      0.146683
  P       1.199494     -0.117388      1.163048
  P      -4.045196     -0.746714     -1.417711
  O      -5.020085     -1.955847     -1.911336
  O      -2.513348     -1.062352     -1.714762
  O       2.002110     -0.435289     -0.220649
  O       1.923548     -0.505187      2.430496
  C       0.842016      1.707129      1.007585
  C      -4.731834      0.690971     -2.330761
  C      -4.554425      0.454136     -3.844027
  C      -3.939520      1.933833     -1.872393
  C      -6.222966      0.820700     -1.949074
  C       0.348676      2.068870     -0.403497
  C      -0.210449      2.076065      2.072417
  C       2.170567      2.431007      1.314338
  H      -4.735556     -2.809816     -1.522440
  H       2.648291     -1.180036     -0.100799
  H      -3.484769      0.440380     -4.133150
  H      -5.047770      1.282085     -4.394933
  H      -5.023081     -0.494728     -4.170869
  H      -2.845241      1.771201     -1.934414
  H      -4.188209      2.210194     -0.829016
  H      -4.202825      2.791663     -2.524551
  H      -6.835702      0.021536     -2.408731
  H      -6.603667      1.800641     -2.305247
  H      -6.365244      0.790320     -0.849742
  H      -0.618352      1.573015     -0.638090
  H       1.081496      1.775878     -1.179424
  H       0.186472      3.165998     -0.467264
  H      -1.201321      1.637720      1.831558
  H      -0.325873      3.179805      2.111262
  H       0.090586      1.729549      3.081615
  H       2.968021      2.151974      0.597305
  H       2.526131      2.189703      2.334897
  H       2.015741      3.528389      1.243403
  Si      4.622060     -2.338088      1.344872
  C       4.967648     -0.496453      1.491160
  C       3.997016     -3.101867      2.943660
  C       6.063887     -3.346437      0.636256
  H       4.705238     -0.052184      0.510242
  H       5.996654     -0.185558      1.756942
  H       4.250496     -0.076127      2.223781
  H       3.731795     -4.164591      2.764012
  H       3.087266     -2.548050      3.251137
  H       4.741812     -3.070109      3.764767
  H       5.855624     -4.434460      0.684917
  H       6.977465     -3.150199      1.237211
  H       6.300041     -3.084463     -0.415095
  H       3.481766     -2.438157      0.325058
51
Coordinates from ORCA-job my_molecule E -1977.841624694602
  Pt     -1.909155     -0.841367      0.222397
  O      -0.164441     -1.032918      1.006291
  O      -4.006497     -0.608628      0.133847
  P       1.195549     -0.136674      1.147964
  P      -4.051533     -0.747679     -1.432495
  O      -5.031844     -1.946603     -1.940635
  O      -2.521560     -1.066275     -1.733835
  O       2.005388     -0.457877     -0.229805
  O       1.911958     -0.523606      2.419817
  C       0.838257      1.687423      0.986784
  C      -4.736242      0.704992     -2.323029
  C      -4.567987      0.490709     -3.840484
  C      -3.937049      1.938000     -1.850635
  C      -6.225038      0.833668     -1.930888
  C       0.339468      2.042925     -0.423837
  C      -0.210217      2.060537      2.054084
  C       2.167759      2.413085      1.285253
  H      -4.745943     -2.807391     -1.568042
  H       2.659612     -1.194237     -0.102073
  H      -3.499865      0.473819     -4.135242
  H      -5.057229      1.331014     -4.376145
  H      -5.044736     -0.449661     -4.179878
  H      -2.843937      1.776113     -1.932848
  H      -4.169163      2.192673     -0.797961
  H      -4.209670      2.809442     -2.480555
  H      -6.842709      0.043312     -2.399096
  H      -6.604867      1.819875     -2.270180
  H      -6.360867      0.786861     -0.831317
  H      -0.631578      1.551170     -0.650560
  H       1.066301      1.741268     -1.202083
  H       0.182333      3.140409     -0.493769
  H      -1.199309      1.612843      1.823266
  H      -0.332993      3.163770      2.082217
  H       0.098784      1.724861      3.064474
  H       2.960380      2.137152      0.561751
  H       2.530953      2.170721      2.302921
  H       2.010443      3.510339      1.217840
  Si      4.633683     -2.330820      1.365434
  C       4.964166     -0.487001      1.505047
  C       4.016767     -3.091549      2.969277
  C       6.081010     -3.333672      0.659758
  H       4.712872     -0.044116      0.520475
  H       5.986835     -0.165394      1.782688
  H       4.234439     -0.071298      2.228000
  H       3.764422     -4.158365      2.795309
  H       3.099996     -2.547705      3.273185
  H       4.760329     -3.046818      3.790811
  H       5.885902     -4.423158      0.726201
  H       6.997051     -3.118030      1.250288
  H       6.306445     -3.084704     -0.397083
  H       3.493324     -2.441434      0.347095
51
Coordinates from ORCA-job my_molecule E -1977.841536958367
  Pt     -1.907220     -0.855602      0.190360
  O      -0.161226     -1.041529      0.972745
  O      -4.006328     -0.641054      0.112191
  P       1.199039     -0.148402      1.127722
  P      -4.055087     -0.751678     -1.456553
  O      -5.030601     -1.946073     -1.984862
  O      -2.524952     -1.057178     -1.767670
  O       2.020302     -0.472289     -0.241189
  O       1.900703     -0.537590      2.406685
  C       0.848028      1.676748      0.962255
  C      -4.754200      0.714697     -2.313252
  C      -4.598069      0.532630     -3.835912
  C      -3.957878      1.942178     -1.822632
  C      -6.240351      0.826867     -1.905635
  C       0.349958      2.030299     -0.449052
  C      -0.198646      2.055779      2.029200
  C       2.179575      2.399518      1.258336
  H      -4.732313     -2.813302     -1.637727
  H       2.679922     -1.202329     -0.105365
  H      -3.532212      0.521559     -4.139218
  H      -5.090321      1.384401     -4.350278
  H      -5.077434     -0.400421     -4.191397
  H      -2.865239      1.791974     -1.929241
  H      -4.172641      2.166859     -0.759498
  H      -4.249184      2.827337     -2.424465
  H      -6.856998      0.040744     -2.382241
  H      -6.629498      1.816270     -2.224393
  H      -6.365898      0.759985     -0.805898
  H      -0.625691      1.546174     -0.671939
  H       1.072621      1.718628     -1.227319
  H       0.202556      3.128834     -0.523867
  H      -1.186299      1.600970      1.806170
  H      -0.326934      3.158601      2.046315
  H       0.115026      1.730633      3.041535
  H       2.968633      2.125883      0.530149
  H       2.546566      2.153110      2.273688
  H       2.023172      3.497219      1.195906
  Si      4.642808     -2.327549      1.390312
  C       4.964059     -0.483008      1.528081
  C       4.023209     -3.085191      2.994936
  C       6.094626     -3.329878      0.692865
  H       4.728758     -0.037433      0.540704
  H       5.980250     -0.154666      1.821740
  H       4.220832     -0.071690      2.239898
  H       3.781077     -4.154836      2.823549
  H       3.100101     -2.548938      3.292623
  H       4.762004     -3.031950      3.820222
  H       5.906826     -4.419685      0.773146
  H       7.010771     -3.101043      1.278316
  H       6.316600     -3.092481     -0.367345
  H       3.507199     -2.442104      0.367302
