26
image1
O    -1.2753677514    1.5799030882   -1.8687634359
Si    2.4231874436   -0.9464767192    3.1743289563
Si   -5.3374033495   -0.3665944289    2.8265416346
C    -1.0726780238    1.6127470711    0.2349705872
C     3.2222498141    0.3633509119    0.3724088673
H    -0.6717998173    2.5080217055   -0.6912219707
H     2.4460457688    1.9317473852   -1.1311192339
H     2.5204265227   -1.1431933881    1.9976979640
Si    0.3801584284   -5.1585864641    1.6807961090
O    -0.0995088207    2.4482717405   -3.6709172857
O     0.7239867089    1.5133424419   -3.4170020091
Si    6.0136770431    0.5464956236   -0.8018866184
Si   -4.7880269835    0.3768505050    0.4832880630
H     0.6375446120   -1.0927729459    0.4720007886
H    -2.4116446471    2.0777745298    2.8217705619
H     0.2757254985    0.7269945539    3.4582974398
H    -2.1558111736   -1.6753210015    2.6441051605
H     0.2943511079   -2.0633724829    1.2898854430
H    -2.5439245413   -0.6966010354   -2.4675092533
H    -1.5256167670   -1.7276591932    0.9552035720
H    -1.5151961653    2.0248865724   -0.0311831003
H     2.3748789463    2.2280165298   -1.3487206990
H     2.9725177438   -0.7316763115    0.8847683325
H     3.0831096477   -1.1708119521   -2.8138146812
H     0.4928243116   -2.9360081355   -1.9839213012
H    -3.3164210920    0.2794831764   -0.3357676119
