26
image3
O    -0.1708694017    0.9201978566   -2.2643689579
Si    2.0558120787    0.0583716515    3.6680791785
Si   -5.7976840888   -1.3397810276    2.4333622966
C    -0.4946102142    1.6107290460    0.5994623435
C     3.1646108466    0.9309065278    0.0967577811
H     0.0594604389    3.2779950308    0.6908338635
H     1.9075559584    1.6701597946   -1.5923732161
H     2.4401142349   -1.3653283794    1.5930748145
Si   -1.4341249598   -5.1361118747    1.2053242874
O     0.9787712653    2.7469249020   -2.5525175353
O     1.3286724371   -1.3667959784   -3.6407443266
Si    5.9599356006    1.2948831694   -1.0166989706
Si   -5.1951992482    1.3712557472   -0.2507941048
H     0.2096981041   -0.0270810477    0.1362399384
H    -2.7119236711    1.7376006013    2.3920236890
H    -0.4298943161    1.2852579041    3.5342089396
H    -1.8362077846   -2.0369234871    2.4938957482
H     0.8183679078   -1.7087513780    1.8407074923
H    -1.7840921973    0.1441200268   -3.1782220356
H    -2.2061473034   -1.7609286061   -0.0504313969
H    -1.5300361709    2.1808160583    0.1137844874
H     1.7764612732    2.0556592620   -1.4869640185
H     2.9864363158   -0.7764993338    0.7346686188
H     2.8585061502   -1.2269561454   -3.0311675034
H     0.4827444583   -2.7989626505    0.2898717304
H    -2.9352782644   -0.2755519852   -0.7365907956
