26
efinal
O    -0.6604768189    0.0009404114    0.9582377762
Si   -0.0991604749    0.4651863242    1.4618577755
Si   -1.4672150438   -0.3556745662    0.9867769064
C     0.4634160941    1.0707127360    0.8961206691
C     0.9620790894    0.6979263197    0.4159264824
H     0.7495396031    1.3946639751    1.2948783514
H     1.0275510424    0.8668122105   -0.1316366518
H     1.3154441570    0.2881754148    0.6140652153
Si    0.0368082967   -0.8866128310   -0.6965345043
O    -0.3253949775   -0.0815021436   -0.7927372648
O     0.8047451848   -0.9314417768   -1.1337732548
Si    1.5465652354   -0.4589171036   -1.2730761234
Si   -1.0464630051    0.2998205731   -1.1404906568
H     0.1220638414    1.4413821047    0.6029547375
H    -1.9877125417    0.1679786006    1.2669301534
H    -0.5104660019    0.8863523912    1.9960103844
H    -1.4694082347   -1.0040697191    1.4371496025
H     0.3761667209   -0.0400132109    1.8443380197
H    -0.8796406726    0.5608366820   -1.8651956135
H    -1.6443438963   -0.2134543914   -1.1768097451
H    -1.2315623828    0.9032861307   -0.6694743820
H     1.3774034792    0.3075734056   -1.3484044517
H     2.0456601980   -0.5524137736   -0.6668397410
H     1.8831856225   -0.7223377566   -1.9350136513
H     0.2085376948   -0.9662804866    0.0819734341
H    -1.6533406338   -0.5512432389    0.2461725081
