26
image5
O     0.2906258263   -0.4005704521   -2.1959780624
Si    1.4685432977    1.1850159338    4.0879695789
Si   -5.3520660443   -1.3755203600    1.8954677230
C    -0.4714209208    2.4435554949    1.0246286215
C     2.5162545373    0.0658447642   -0.7967758173
H     0.9969361758    3.0129553419    1.8629472968
H     1.7347715010    1.5387249094   -1.7300770354
H     2.7168525648   -1.2418432091    1.5657707250
Si   -2.3322751759   -5.4770519778    0.0651859649
O     1.6463674765    2.7885085169    0.2945801568
O     1.5382281690   -3.0639891107   -3.1468715746
Si    5.0477760537    1.4935206022   -1.5002120301
Si   -4.4879772993    1.5742789219   -1.9359035055
H    -0.2969712212    0.7527685097   -0.2689041338
H    -2.9410150034    1.5473187035    2.1645393987
H    -0.8755014432    1.4578957195    3.2594916423
H    -1.7586199964   -2.0560691576    2.4828106572
H     1.0750844535   -1.4547125877    2.2498229962
H    -1.1796830450    0.5966858595   -3.2619032422
H    -2.6355310424   -1.5478542878   -0.6948483938
H    -1.6939802055    2.0958380149    0.1880131073
H     1.5334759770    1.9767301345   -1.5105369851
H     3.0829579703   -0.6818371322    0.6108971440
H     2.8001171648   -1.1432824843   -3.0957345783
H     0.5930519341   -1.7836932774    1.0763855094
H    -2.6045519516   -0.5761468092   -0.8546615598
