26
image4
O     0.3283528815    0.1203358911   -2.2067912917
Si    1.8379749056    0.7668530065    3.7862874093
Si   -5.8869260423   -1.3126265515    2.1877741661
C    -0.5730840118    1.9850300615    0.7755461312
C     2.9377162771    0.6266384573   -0.4222253646
H     0.4715087232    3.1940046578    1.2154250499
H     1.8082497490    1.5683662539   -1.5740712024
H     2.5359783287   -1.3909354699    1.5947922995
Si   -1.8280493559   -5.8755995945    0.1533358711
O     1.2380338729    3.1140201695   -0.7460953494
O     1.5121719379   -2.1786432977   -3.2983920041
Si    5.6147778115    1.4888352698   -1.2539927407
Si   -4.9630160547    1.6080063718   -1.1214180768
H     0.0457958632    0.2954713071   -0.0172773619
H    -2.8206868837    1.6860823639    2.2941639467
H    -0.6443075172    1.3666428337    3.4131176787
H    -1.8027152486   -2.0507139188    2.4988481853
H     0.9521655250   -1.6420190201    2.0263115439
H    -1.5003108993    0.3638166349   -3.2611349540
H    -2.4447158820   -1.7069631394   -0.3456836759
H    -1.6181103255    2.1216647221    0.1463815540
H     1.6691137651    2.0337889279   -1.4992124641
H     3.0415367517   -0.7302428309    0.6855739254
H     2.8390047605   -1.1834142954   -3.0622962165
H     0.5512065060   -2.2595989065    0.8219423624
H    -2.8004615866   -0.4087372359   -0.8048479838
