26
image2
O    -0.7590661766    1.1693150595   -2.3118617038
Si    2.3895679285   -0.3953279194    3.5124159453
Si   -5.4412093129   -1.0524547600    2.5791017702
C    -0.6462283677    1.7145257943    0.6305964536
C     3.2071551871    0.7620218793    0.3014801353
H    -0.2377916951    3.1273655259    0.2607581808
H     2.1119477298    1.7837452058   -1.5453372989
H     2.5188058714   -1.2114424116    1.7247235197
Si   -0.6998588766   -5.0260212557    1.9421850956
O     0.4355117278    2.7379040821   -3.3308442025
O     1.0311657753   -0.1776710033   -3.8592723273
Si    6.0503259739    0.8505747297   -0.8444782403
Si   -5.0951106691    1.0068618967    0.1151035438
H     0.2244852971   -0.1003015476    0.2987076934
H    -2.5844190607    1.7441954249    2.4586080618
H    -0.2030086469    1.1871469001    3.5683627830
H    -1.8782285618   -2.0187920055    2.4707110986
H     0.6849290892   -1.7410112668    1.7561691528
H    -2.0323180882   -0.0441194596   -3.0518972694
H    -2.0242550415   -1.7062556505    0.1910720704
H    -1.5382127378    2.2322601688    0.0095897453
H     1.8845514184    2.0562720314   -1.4662146297
H     2.9186062471   -0.8244176290    0.7575547790
H     2.8572021664   -1.2727356518   -2.9966295018
H     0.4160632105   -3.1096560360   -0.4793534418
H    -2.9956053256   -0.2001823084   -0.6698670736
