26
Coordinates from ORCA-job my_molecule E -1757.381910501887
  O          -1.49350069932503      0.02750262008664      1.54385780310269
  Si         -0.65578699527798      1.05782596355836      2.59099102577260
  Si         -2.65765674291630     -1.18346840001468      1.66368575179588
  C           0.80415280066762      1.78171162507573      1.64652684381746
  C           1.76343393342507      0.76555804083365      0.99314182681762
  H           1.34848113722053      2.42786703469550      2.37307391493281
  H           2.65668136435674      1.28592625847683      0.58165120137488
  H           2.16186883434014      0.04564556145793      1.74280103682163
  Si          1.08131247298121     -0.22758613786649     -0.46116507264700
  O           0.04501920032010      0.72453010543282     -1.36697789840367
  O           2.40761700100734     -0.60385287024102     -1.41171546148452
  Si          2.77469619437766     -1.25847814834160     -2.91026280485895
  Si         -1.55118594941973      1.08685327037420     -1.71227918143267
  H           0.39448780135803      2.47565700388793      0.88033304230767
  H          -4.03391470338668     -0.59027838157238      1.53491131736469
  H          -1.56677110819005      2.15822666211700      3.06994560483407
  H          -2.54550706958888     -1.87895171199923      2.99559504001890
  H          -0.19312763913848      0.25842105289868      3.78457490976257
  H          -1.62729215828902      1.51621054408402     -3.15041743880694
  H          -2.44392899566995     -0.11005223187904     -1.51588704719080
  H          -2.03368593911319      2.21648638124273     -0.84400068315114
  H           2.53697936049865     -0.25429265603591     -4.00501631602678
  H           4.22562979817384     -1.64506350702625     -2.90094952692395
  H           1.93753818966025     -2.48215276470004     -3.18267371105439
  H           0.39638214002801     -1.51355055397921     -0.09748181129780
  H          -2.42735192929988     -2.17018581206615      0.55778809915512
