26
Coordinates from ORCA-job my_molecule_reactant E -1757.328557402100
  O          -1.76035117939214      0.56818406167621      1.77861133991816
  Si         -0.25515188911801      0.42875448895109      2.52316288219619
  Si         -3.38521120671342      0.59020015627454      2.19660038337636
  C           0.99500699779593      1.51526552944092      1.65159473183755
  C           2.22989354284388      1.09302572819850      1.31012379604678
  H           0.72667816626969      2.57054574334267      1.45334115220711
  H           2.97562997363937      1.76329748949257      0.84781198007705
  H           2.55769747390864      0.05200965489678      1.48199343739888
  Si          0.99385918775779     -1.95913387912436     -1.15882567083243
  O          -0.34752153338902     -1.09246644080758     -0.68042360513411
  O           1.94579872957629     -1.07465758114658     -2.20229397689150
  Si          3.08200444663890      0.14346458176498     -2.36859483077408
  Si         -1.76362914399360     -0.46702139110594     -1.34139307562551
  H           1.76276989154217     -2.28915945812207      0.08534467398874
  H          -3.57163651614660      1.27468190823417      3.52622676287690
  H          -0.42039594009043      0.88619169613405      3.95324710290970
  H          -3.93256017180260     -0.80853219209025      2.28861617435091
  H           0.22279264521471     -0.99659427206130      2.51638550900380
  H          -1.89296555403761     -0.92483962551883     -2.77236166329145
  H          -2.94704341734440     -0.97979288028901     -0.57254889071950
  H          -1.72984668234069      1.03205734476067     -1.30919485079821
  H           2.42600371035003      1.49438318390220     -2.28707533452204
  H           4.13267896579042      0.04161841414679     -1.29355385520200
  H           3.73486145383323     -0.01156119421294     -3.71148024755689
  H           0.56993677290675     -3.18760650621776     -1.90586844228940
  H          -4.13008517819930      1.34678932958046      1.13496930814898
