26
Coordinates from ORCA-job my_molecule E -1757.266013249384
  O      -1.886901      0.299307      1.867328
  Si     -0.453173      0.752882      2.606249
  Si     -3.238190     -0.684798      2.073955
  C       0.985156      1.067078      1.393064
  C       2.113148      0.271978      1.402201
  H       1.037758      2.082560      0.952360
  H       3.044804      0.606712      0.931358
  H       2.134410     -0.655974      1.987938
  Si      0.905770     -0.358394     -0.598554
  O       0.036514     -0.327575     -2.063206
  O       2.446788     -0.244612     -1.299939
  Si      2.756120     -0.419306     -2.974492
  Si     -1.542227      0.195846     -2.269864
  H      -0.051405      0.672954      0.039128
  H      -4.419484      0.147964      2.490430
  H      -0.653372      2.044985      3.351513
  H      -2.971510     -1.720247      3.135888
  H       0.008120     -0.342370      3.524215
  H      -1.694610      0.450356     -3.735479
  H      -2.504810     -0.861368     -1.804283
  H      -1.837975      1.461665     -1.500728
  H       2.318329      0.788257     -3.756395
  H       4.249445     -0.553896     -3.119792
  H       2.117835     -1.660423     -3.535360
  H       0.642313     -1.643157      0.128365
  H      -3.542853     -1.370424      0.774099
26
Coordinates from ORCA-job my_molecule E -1757.264820629810
  O      -1.888845      0.308736      1.867765
  Si     -0.451497      0.749727      2.606844
  Si     -3.245529     -0.668465      2.070107
  C       0.980565      1.062260      1.386226
  C       2.112339      0.265687      1.395398
  H       1.039450      2.080194      0.954163
  H       3.046066      0.606871      0.934593
  H       2.136672     -0.656371      1.989691
  Si      0.917660     -0.364269     -0.593492
  O       0.039910     -0.330341     -2.055756
  O       2.452183     -0.240095     -1.303565
  Si      2.757658     -0.408961     -2.978275
  Si     -1.543388      0.179128     -2.264954
  H      -0.049719      0.666244      0.049815
  H      -4.420468      0.168968      2.494830
  H      -0.642587      2.038175      3.360519
  H      -2.982765     -1.712942      3.124073
  H       0.005955     -0.353721      3.517205
  H      -1.699532      0.432927     -3.730799
  H      -2.498999     -0.885041     -1.800244
  H      -1.848002      1.442808     -1.496012
  H       2.311491      0.798378     -3.755582
  H       4.251302     -0.534690     -3.125493
  H       2.124513     -1.652176     -3.539898
  H       0.652326     -1.650570      0.127047
  H      -3.556759     -1.342460      0.765793
26
Coordinates from ORCA-job my_molecule E -1757.264661423064
  O      -1.891247      0.329218      1.865806
  Si     -0.446490      0.742069      2.606169
  Si     -3.261786     -0.629611      2.060960
  C       0.983727      1.050691      1.382658
  C       2.116470      0.254757      1.396257
  H       1.048906      2.070840      0.955868
  H       3.053381      0.599153      0.943121
  H       2.141497     -0.663748      1.996952
  Si      0.930713     -0.372357     -0.590555
  O       0.044954     -0.342484     -2.049991
  O       2.459042     -0.225276     -1.307917
  Si      2.759690     -0.380793     -2.984382
  Si     -1.548443      0.138382     -2.254548
  H      -0.048988      0.644225      0.058769
  H      -4.422231      0.220705      2.499546
  H      -0.618470      2.023957      3.375325
  H      -3.011235     -1.690367      3.101510
  H      -0.000976     -0.377892      3.502325
  H      -1.714515      0.391811     -3.719701
  H      -2.484948     -0.942873     -1.789806
  H      -1.872226      1.395480     -1.482885
  H       2.296946      0.826424     -3.752043
  H       4.254112     -0.488035     -3.136775
  H       2.138702     -1.627729     -3.550927
  H       0.680490     -1.663899      0.124759
  H      -3.587074     -1.282648      0.749507
26
Coordinates from ORCA-job my_molecule E -1757.264799883176
  O      -1.895382      0.350763      1.868559
  Si     -0.441016      0.730456      2.607251
  Si     -3.282505     -0.584474      2.059446
  C       0.985782      1.037013      1.379419
  C       2.120355      0.243250      1.397090
  H       1.053546      2.058318      0.955465
  H       3.059402      0.591671      0.950956
  H       2.147043     -0.672420      2.002550
  Si      0.943596     -0.379709     -0.590714
  O       0.051868     -0.355986     -2.048484
  O       2.466628     -0.207926     -1.312380
  Si      2.764547     -0.348485     -2.990343
  Si     -1.552009      0.092049     -2.249853
  H      -0.048393      0.621655      0.062931
  H      -4.424120      0.282233      2.514927
  H      -0.589701      2.003261      3.395999
  H      -3.045970     -1.662406      3.085468
  H      -0.007617     -0.409055      3.484662
  H      -1.726937      0.345685     -3.714253
  H      -2.466425     -1.009153     -1.787419
  H      -1.899635      1.340463     -1.474705
  H       2.284723      0.858359     -3.748007
  H       4.259854     -0.434969     -3.146028
  H       2.158331     -1.599376     -3.563713
  H       0.710683     -1.676778      0.119542
  H      -3.626649     -1.214438      0.741634
26
Coordinates from ORCA-job my_molecule E -1757.265250632236
  O      -1.898925      0.373737      1.872989
  Si     -0.434956      0.717918      2.609493
  Si     -3.303284     -0.536049      2.059244
  C       0.988825      1.022907      1.378209
  C       2.124451      0.230952      1.399139
  H       1.057640      2.044448      0.954753
  H       3.065149      0.582639      0.958498
  H       2.152485     -0.682709      2.008052
  Si      0.954883     -0.386331     -0.592255
  O       0.058520     -0.370477     -2.048919
  O       2.473161     -0.189127     -1.316252
  Si      2.769304     -0.314128     -2.995576
  Si     -1.555619      0.042256     -2.247397
  H      -0.047978      0.599239      0.065151
  H      -4.424396      0.347040      2.533716
  H      -0.558927      1.980425      3.418762
  H      -3.082056     -1.632690      3.068662
  H      -0.014815     -0.441885      3.466661
  H      -1.739120      0.296765     -3.710866
  H      -2.445652     -1.080529     -1.788699
  H      -1.929706      1.280123     -1.467850
  H       2.271792      0.891741     -3.743336
  H       4.265402     -0.378208     -3.153609
  H       2.179708     -1.569230     -3.576610
  H       0.741338     -1.688958      0.113432
  H      -3.667225     -1.139871      0.734608
26
Coordinates from ORCA-job my_molecule E -1757.265738970001
  O      -1.901481      0.397005      1.879166
  Si     -0.428541      0.705611      2.612874
  Si     -3.322389     -0.487416      2.060131
  C       0.991557      1.008817      1.377699
  C       2.127736      0.217511      1.400748
  H       1.061528      2.030230      0.954127
  H       3.069935      0.572500      0.965596
  H       2.157161     -0.693934      2.013253
  Si      0.965034     -0.392128     -0.593887
  O       0.064431     -0.384475     -2.049833
  O       2.478373     -0.170250     -1.319492
  Si      2.773454     -0.279808     -2.999813
  Si     -1.559068     -0.008119     -2.247471
  H      -0.047564      0.579329      0.066897
  H      -4.422820      0.410474      2.554741
  H      -0.527498      1.957377      3.442021
  H      -3.116770     -1.603480      3.051340
  H      -0.021966     -0.473710      3.449852
  H      -1.750047      0.247612     -3.710060
  H      -2.424007     -1.152767     -1.794076
  H      -1.961149      1.217958     -1.463408
  H       2.258677      0.924677     -3.738075
  H       4.270145     -0.321189     -3.158853
  H       2.201195     -1.538995     -3.588845
  H       0.769398     -1.699820      0.107012
  H      -3.705322     -1.063013      0.728358
26
Coordinates from ORCA-job my_molecule E -1757.264573843668
  O      -1.901836      0.388035      1.884922
  Si     -0.428735      0.706514      2.613372
  Si     -3.320682     -0.497372      2.074764
  C       0.982130      1.003773      1.366596
  C       2.120915      0.209659      1.391809
  H       1.060749      2.028189      0.952728
  H       3.066014      0.571422      0.969158
  H       2.152403     -0.695404      2.013552
  Si      0.968518     -0.391622     -0.591498
  O       0.065306     -0.376801     -2.049174
  O       2.479312     -0.174501     -1.319740
  Si      2.776383     -0.282113     -2.998667
  Si     -1.556541      0.000911     -2.260580
  H      -0.048939      0.588402      0.066731
  H      -4.422502      0.403593      2.560381
  H      -0.529295      1.965270      3.431448
  H      -3.112197     -1.602860      3.077068
  H      -0.016280     -0.463497      3.460772
  H      -1.740429      0.254633     -3.724971
  H      -2.427863     -1.140932     -1.811584
  H      -1.960418      1.229453     -1.481603
  H       2.268711      0.926594     -3.734765
  H       4.273201     -0.329406     -3.152330
  H       2.199564     -1.537592     -3.590677
  H       0.754463     -1.697760      0.103720
  H      -3.701953     -1.086586      0.748569
26
Coordinates from ORCA-job my_molecule E -1757.263767085977
  O      -1.898750      0.386449      1.885711
  Si     -0.426134      0.709343      2.612387
  Si     -3.317734     -0.497661      2.077987
  C       0.979357      0.995059      1.357703
  C       2.117225      0.194900      1.386947
  H       1.070534      2.021925      0.952628
  H       3.066866      0.559285      0.976233
  H       2.146984     -0.704236      2.017855
  Si      0.971825     -0.392516     -0.586027
  O       0.064236     -0.373227     -2.044392
  O       2.478384     -0.173508     -1.318815
  Si      2.774677     -0.274392     -2.997343
  Si     -1.558042     -0.002066     -2.266674
  H      -0.050514      0.590232      0.071471
  H      -4.420518      0.406953      2.554292
  H      -0.525048      1.975800      3.418563
  H      -3.111226     -1.595932      3.088523
  H      -0.014002     -0.452325      3.471499
  H      -1.738502      0.248499     -3.732543
  H      -2.429799     -1.145202     -1.820835
  H      -1.968382      1.227152     -1.492373
  H       2.267820      0.938036     -3.727745
  H       4.271560     -0.320917     -3.148522
  H       2.197620     -1.527271     -3.594068
  H       0.746317     -1.698706      0.102989
  H      -3.694754     -1.095674      0.754548
26
Coordinates from ORCA-job my_molecule E -1757.263109838269
  O      -1.895444      0.389366      1.887007
  Si     -0.422422      0.712290      2.612011
  Si     -3.315857     -0.491943      2.079210
  C       0.978368      0.984627      1.349829
  C       2.114552      0.177317      1.382813
  H       1.082073      2.013275      0.952434
  H       3.068706      0.542833      0.983324
  H       2.141657     -0.716215      2.022136
  Si      0.975509     -0.394235     -0.579632
  O       0.063352     -0.372099     -2.038602
  O       2.477110     -0.169782     -1.317663
  Si      2.771992     -0.261713     -2.996063
  Si     -1.560004     -0.011525     -2.271971
  H      -0.052256      0.589023      0.077473
  H      -4.418447      0.416687      2.547988
  H      -0.516438      1.985357      3.408213
  H      -3.113155     -1.585590      3.095445
  H      -0.013383     -0.443126      3.481087
  H      -1.737442      0.235754     -3.739242
  H      -2.429449     -1.158262     -1.829897
  H      -1.980174      1.217085     -1.502143
  H       2.261880      0.953317     -3.719777
  H       4.269033     -0.302725     -3.145536
  H       2.198362     -1.513332     -3.598191
  H       0.740935     -1.701244      0.102681
  H      -3.689059     -1.095140      0.757066
26
Coordinates from ORCA-job my_molecule E -1757.262541995683
  O      -1.892431      0.396049      1.889805
  Si     -0.417980      0.715196      2.612735
  Si     -3.314991     -0.481799      2.079811
  C       0.978082      0.973193      1.342748
  C       2.112353      0.158298      1.378809
  H       1.093555      2.003034      0.951805
  H       3.070747      0.524241      0.989694
  H       2.136610     -0.729824      2.026073
  Si      0.979550     -0.396731     -0.572619
  O       0.062869     -0.372891     -2.032224
  O       2.475665     -0.164387     -1.316461
  Si      2.768784     -0.245963     -2.994830
  Si     -1.561700     -0.025461     -2.277487
  H      -0.054144      0.585955      0.084268
  H      -4.416540      0.430554      2.543478
  H      -0.504183      1.993623      3.401118
  H      -3.116913     -1.573532      3.098947
  H      -0.013862     -0.436052      3.489707
  H      -1.735740      0.218848     -3.746111
  H      -2.427153     -1.177411     -1.840188
  H      -1.994270      1.201411     -1.511862
  H       2.252015      0.970383     -3.711538
  H       4.266034     -0.277492     -3.143037
  H       2.201778     -1.497629     -3.602645
  H       0.736887     -1.705055      0.102492
  H      -3.685025     -1.086558      0.757512
26
Coordinates from ORCA-job my_molecule E -1757.262050582374
  O      -1.889902      0.406608      1.894380
  Si     -0.412904      0.717798      2.614735
  Si     -3.315241     -0.467280      2.079792
  C       0.978170      0.961055      1.336433
  C       2.110553      0.138665      1.374799
  H       1.104219      1.991536      0.950525
  H       3.072725      0.504763      0.995014
  H       2.132230     -0.744137      2.029693
  Si      0.984047     -0.400144     -0.565085
  O       0.062863     -0.375705     -2.025285
  O       2.474160     -0.157627     -1.315264
  Si      2.765112     -0.227742     -2.993657
  Si     -1.562915     -0.043591     -2.283136
  H      -0.056136      0.581031      0.091872
  H      -4.414834      0.448165      2.541693
  H      -0.488233      2.000041      3.397930
  H      -3.122338     -1.560547      3.098214
  H      -0.015315     -0.431761      3.496991
  H      -1.733112      0.198429     -3.753011
  H      -2.422805     -1.202288     -1.851769
  H      -2.010199      1.180255     -1.521184
  H       2.238326      0.988474     -3.703244
  H       4.262540     -0.245925     -3.141074
  H       2.207863     -1.480769     -3.607278
  H       0.734180     -1.710239      0.102380
  H      -3.683056     -1.069064      0.755535
26
Coordinates from ORCA-job my_molecule E -1757.261636115079
  O      -1.887903      0.421361      1.900834
  Si     -0.407212      0.719771      2.618167
  Si     -3.316753     -0.447954      2.078762
  C       0.978430      0.948594      1.331161
  C       2.109213      0.119138      1.370744
  H       1.113511      1.979284      0.948906
  H       3.074518      0.485517      0.999061
  H       2.128951     -0.758475      2.032918
  Si      0.989147     -0.404708     -0.557143
  O       0.063401     -0.380890     -2.017787
  O       2.472691     -0.149623     -1.314174
  Si      2.760916     -0.207315     -2.992647
  Si     -1.563562     -0.066176     -2.288561
  H      -0.058105      0.573872      0.100463
  H      -4.413292      0.469736      2.543141
  H      -0.468426      2.003834      3.399502
  H      -3.129628     -1.547048      3.091915
  H      -0.017734     -0.431144      3.502365
  H      -1.729657      0.174503     -3.759518
  H      -2.416161     -1.233199     -1.864271
  H      -2.027710      1.153162     -1.529491
  H       2.220671      1.007167     -3.695045
  H       4.258375     -0.208276     -3.139886
  H       2.216554     -1.462994     -3.612087
  H       0.733308     -1.717059      0.102338
  H      -3.683543     -1.041079      0.750332
26
Coordinates from ORCA-job my_molecule E -1757.261303035177
  O      -1.886417      0.440220      1.909106
  Si     -0.400971      0.720685      2.623002
  Si     -3.319659     -0.423604      2.076420
  C       0.978727      0.936095      1.327085
  C       2.108450      0.100428      1.366644
  H       1.120937      1.966679      0.947129
  H       3.076095      0.467592      1.001701
  H       2.127216     -0.772205      2.035666
  Si      0.994959     -0.410506     -0.548959
  O       0.064535     -0.388653     -2.009793
  O       2.471355     -0.140483     -1.313247
  Si      2.756174     -0.184980     -2.991862
  Si     -1.563595     -0.093272     -2.293359
  H      -0.059897      0.564290      0.110056
  H      -4.411848      0.495437      2.548012
  H      -0.444861      2.004181      3.406296
  H      -3.139116     -1.533230      3.079175
  H      -0.021137     -0.434995      3.505273
  H      -1.725616      0.147084     -3.765185
  H      -2.407060     -1.270117     -1.877080
  H      -2.046425      1.120017     -1.536255
  H       2.199219      1.026129     -3.687000
  H       4.253372     -0.165116     -3.139639
  H       2.227585     -1.444424     -3.617073
  H       0.734776     -1.725582      0.102418
  H      -3.686799     -1.001672      0.741471
26
Coordinates from ORCA-job my_molecule E -1757.261053783929
  O      -1.885277      0.462472      1.918859
  Si     -0.394335      0.720296      2.628992
  Si     -3.323800     -0.394754      2.072523
  C       0.979046      0.923773      1.324232
  C       2.108471      0.083073      1.362739
  H       1.126326      1.954021      0.945251
  H       3.077635      0.451748      1.003221
  H       2.127367     -0.784824      2.038156
  Si      1.001438     -0.417477     -0.540691
  O       0.066198     -0.398876     -2.001380
  O       2.470147     -0.130489     -1.312534
  Si      2.750765     -0.161242     -2.991360
  Si     -1.563039     -0.124269     -2.297186
  H      -0.061340      0.552460      0.120593
  H      -4.410418      0.524753      2.555644
  H      -0.418227      2.000791      3.417886
  H      -3.150865     -1.519191      3.059946
  H      -0.025510     -0.443316      3.505578
  H      -1.721264      0.116627     -3.769666
  H      -2.395744     -1.312038     -1.889442
  H      -2.065704      1.081652     -1.541217
  H       2.174361      1.044969     -3.679118
  H       4.247270     -0.117604     -3.140470
  H       2.240274     -1.425238     -3.622252
  H       0.738643     -1.735673      0.102686
  H      -3.692418     -0.951644      0.729010
26
Coordinates from ORCA-job my_molecule E -1757.260875594241
  O      -1.884256      0.486893      1.929660
  Si     -0.387528      0.718728      2.635750
  Si     -3.328688     -0.362799      2.067144
  C       0.979356      0.911779      1.322416
  C       2.109275      0.067267      1.359167
  H       1.129816      1.941525      0.943241
  H       3.079237      0.438176      1.003952
  H       2.129278     -0.796131      2.040564
  Si      1.008409     -0.425449     -0.532413
  O       0.068244     -0.411081     -1.992612
  O       2.468985     -0.120125     -1.311992
  Si      2.744576     -0.136826     -2.991087
  Si     -1.561903     -0.157782     -2.299970
  H      -0.062300      0.538934      0.131938
  H      -4.408974      0.556284      2.564782
  H      -0.389708      1.994160      3.432973
  H      -3.164394     -1.505029      3.035378
  H      -0.030696     -0.455106      3.503716
  H      -1.716630      0.084080     -3.772963
  H      -2.382938     -1.356811     -1.900726
  H      -2.084577      1.040058     -1.544728
  H       2.146755      1.063220     -3.671288
  H       4.239854     -0.067393     -3.142298
  H       2.253725     -1.405750     -3.627562
  H       0.744321     -1.746993      0.103226
  H      -3.699241     -0.893830      0.713732
26
Coordinates from ORCA-job my_molecule E -1757.260757954815
  O      -1.883212      0.512493      1.941188
  Si     -0.380728      0.716052      2.642942
  Si     -3.334034     -0.328702      2.060571
  C       0.979634      0.900098      1.321421
  C       2.110814      0.052957      1.356000
  H       1.131585      1.929218      0.941028
  H       3.080972      0.426763      1.004192
  H       2.132728     -0.806163      2.042997
  Si      1.015773     -0.434281     -0.524222
  O       0.070626     -0.424883     -1.983608
  O       2.467843     -0.109662     -1.311585
  Si      2.737597     -0.112078     -2.990992
  Si     -1.560175     -0.192887     -2.301815
  H      -0.062680      0.524127      0.143891
  H      -4.407484      0.589260      2.574555
  H      -0.360170      1.984670      3.450502
  H      -3.179453     -1.490506      3.006808
  H      -0.036604     -0.469592      3.500000
  H      -1.711677      0.049930     -3.775260
  H      -2.369153     -1.402970     -1.910567
  H      -2.102420      0.996677     -1.547301
  H       2.116962      1.080770     -3.663340
  H       4.231051     -0.015489     -3.145005
  H       2.267371     -1.385977     -3.633030
  H       0.751396     -1.759284      0.104024
  H      -3.706564     -0.830539      0.696603
26
Coordinates from ORCA-job my_molecule E -1757.260697627421
  O      -1.882150      0.538730      1.953306
  Si     -0.374063      0.712061      2.650336
  Si     -3.339963     -0.292537      2.053337
  C       0.979816      0.888594      1.321062
  C       2.113049      0.040055      1.353253
  H       1.131655      1.917006      0.938584
  H       3.082863      0.417450      1.004155
  H       2.137606     -0.815025      2.045456
  Si      1.023570     -0.443885     -0.516335
  O       0.073467     -0.440132     -1.974627
  O       2.466799     -0.099053     -1.311332
  Si      2.729987     -0.086895     -2.991072
  Si     -1.557776     -0.229509     -2.302971
  H      -0.062434      0.508153      0.156144
  H      -4.405845      0.624015      2.585063
  H      -0.329964      1.972111      3.470053
  H      -3.196317     -1.475008      2.975324
  H      -0.043301     -0.486756      3.494310
  H      -1.706347      0.014116     -3.776831
  H      -2.354303     -1.450413     -1.919106
  H      -2.119170      0.951651     -1.549282
  H       2.085474      1.097882     -3.655126
  H       4.220974      0.037897     -3.148461
  H       2.281106     -1.365593     -3.638800
  H       0.759957     -1.772431      0.104905
  H      -3.714690     -0.762485      0.678655
26
Coordinates from ORCA-job my_molecule E -1757.260689548394
  O      -1.881204      0.565175      1.966042
  Si     -0.367682      0.706418      2.657707
  Si     -3.346823     -0.254101      2.046440
  C       0.979724      0.877053      1.321082
  C       2.115843      0.028430      1.350826
  H       1.129918      1.904739      0.935870
  H       3.084820      0.410187      1.003966
  H       2.143730     -0.822872      2.047813
  Si      1.031875     -0.454184     -0.509064
  O       0.077005     -0.456730     -1.966082
  O       2.465981     -0.088143     -1.311275
  Si      2.722057     -0.061009     -2.991327
  Si     -1.554492     -0.267790     -2.303986
  H      -0.061600      0.491017      0.168244
  H      -4.403983      0.661365      2.596923
  H      -0.299262      1.956042      3.491363
  H      -3.215493     -1.457580      2.942650
  H      -0.050903     -0.506835      3.486354
  H      -1.700347     -0.023522     -3.778240
  H      -2.338036     -1.499408     -1.926989
  H      -2.134858      0.904750     -1.551247
  H       2.052889      1.114951     -3.646550
  H       4.209912      0.092834     -3.152427
  H       2.295132     -1.344153     -3.645066
  H       0.770175     -1.786368      0.105531
  H      -3.724380     -0.690268      0.661442
26
Coordinates from ORCA-job my_molecule E -1757.260726234593
  O      -1.880625      0.591370      1.979512
  Si     -0.361789      0.698712      2.664794
  Si     -3.355055     -0.213281      2.041275
  C       0.979068      0.865257      1.321142
  C       2.118960      0.017971      1.348531
  H       1.126126      1.892274      0.932800
  H       3.086643      0.404961      1.003675
  H       2.150822     -0.829844      2.049847
  Si      1.040750     -0.465092     -0.502784
  O       0.081531     -0.474580     -1.958499
  O       2.465542     -0.076796     -1.311460
  Si      2.714239     -0.034181     -2.991747
  Si     -1.549988     -0.307718     -2.305652
  H      -0.060298      0.472729      0.179627
  H      -4.401933      0.702251      2.610796
  H      -0.268215      1.935902      3.514171
  H      -3.237569     -1.437046      2.911471
  H      -0.059531     -0.530162      3.475730
  H      -1.693144     -0.063249     -3.780346
  H      -2.320086     -1.549866     -1.934895
  H      -2.149236      0.856143     -1.554295
  H       2.019949      1.132329     -3.637608
  H       4.198293      0.149397     -3.156555
  H       2.309838     -1.321269     -3.652006
  H       0.782151     -1.801015      0.105469
  H      -3.736445     -0.615196      0.647008
26
Coordinates from ORCA-job my_molecule E -1757.260802475806
  O      -1.880651      0.616861      1.993755
  Si     -0.356605      0.688494      2.671315
  Si     -3.365045     -0.170097      2.039152
  C       0.977582      0.853089      1.320956
  C       2.122180      0.008690      1.346186
  H       1.120011      1.879583      0.929342
  H       3.088120      0.401877      1.003282
  H       2.158645     -0.835992      2.051299
  Si      1.050207     -0.476461     -0.497870
  O       0.087299     -0.493544     -1.952391
  O       2.465620     -0.064900     -1.311934
  Si      2.706961     -0.006299     -2.992328
  Si     -1.543966     -0.349110     -2.308652
  H      -0.058678      0.453337      0.189736
  H      -4.399782      0.747618      2.626909
  H      -0.237034      1.911024      3.538257
  H      -3.263143     -1.412255      2.884808
  H      -0.069337     -0.557159      3.461909
  H      -1.684284     -0.105338     -3.783919
  H      -2.300341     -1.601385     -1.943150
  H      -2.161921      0.806337     -1.559540
  H       1.987478      1.150259     -3.628421
  H       4.186575      0.207427     -3.160515
  H       2.325539     -1.296700     -3.659732
  H       0.796001     -1.816221      0.104332
  H      -3.751430     -0.539136      0.637214
26
Coordinates from ORCA-job my_molecule E -1757.260995238992
  O      -1.881792      0.654031      2.016313
  Si     -0.350403      0.667615      2.679730
  Si     -3.383649     -0.099618      2.041963
  C       0.973732      0.834324      1.320321
  C       2.127183     -0.002438      1.342601
  H       1.106418      1.860415      0.924097
  H       3.089487      0.402098      1.002457
  H       2.172060     -0.843288      2.052125
  Si      1.065382     -0.493685     -0.493482
  O       0.098444     -0.524002     -1.946534
  O       2.466634     -0.045220     -1.313217
  Si      2.697498      0.037487     -2.993497
  Si     -1.532176     -0.415030     -2.315503
  H      -0.056160      0.421994      0.201832
  H      -4.395184      0.824979      2.658432
  H      -0.190111      1.862967      3.577192
  H      -3.308583     -1.367421      2.851456
  H      -0.087071     -0.605755      3.433750
  H      -1.668688     -0.173493     -3.791723
  H      -2.266063     -1.682647     -1.956292
  H      -2.178775      0.727268     -1.570578
  H       1.940510      1.177925     -3.615043
  H       4.169272      0.297066     -3.165651
  H       2.351622     -1.256951     -3.672299
  H       0.821775     -1.839501      0.100460
  H      -3.781362     -0.419119      0.631089
26
Coordinates from ORCA-job my_molecule E -1757.261387298953
  O      -1.884429      0.706976      2.051480
  Si     -0.344695      0.627490      2.689020
  Si     -3.415269      0.014088      2.056430
  C       0.965122      0.805918      1.318728
  C       2.134181     -0.014232      1.337259
  H       1.079504      1.832168      0.916963
  H       3.089393      0.410303      1.001246
  H       2.193728     -0.850961      2.050975
  Si      1.088916     -0.518527     -0.491831
  O       0.119056     -0.571525     -1.943492
  O       2.468631     -0.012744     -1.315684
  Si      2.685124      0.104781     -2.995214
  Si     -1.509665     -0.518725     -2.329614
  H      -0.052994      0.372368      0.214257
  H      -4.383752      0.953048      2.718427
  H      -0.122179      1.772608      3.637004
  H      -3.386295     -1.287995      2.812548
  H      -0.120326     -0.689185      3.378606
  H      -1.641426     -0.281078     -3.807140
  H      -2.205781     -1.809953     -1.978402
  H      -2.200513      0.601391     -1.591040
  H       1.874266      1.218889     -3.596453
  H       4.142826      0.432352     -3.170766
  H       2.393362     -1.193611     -3.691568
  H       0.868115     -1.873574      0.091290
  H      -3.834898     -0.230271      0.636971
26
Coordinates from ORCA-job my_molecule E -1757.262004468041
  O      -1.885710      0.781457      2.103801
  Si     -0.342744      0.558910      2.696077
  Si     -3.458971      0.192069      2.087912
  C       0.949171      0.763699      1.315864
  C       2.142521     -0.026765      1.330904
  H       1.033759      1.790414      0.907631
  H       3.085586      0.429314      1.001555
  H       2.224462     -0.859488      2.047666
  Si      1.123232     -0.553452     -0.493907
  O       0.153887     -0.643200     -1.944587
  O       2.468630      0.038785     -1.318325
  Si      2.663885      0.205652     -2.995792
  Si     -1.468775     -0.678027     -2.353878
  H      -0.049579      0.296201      0.226956
  H      -4.353846      1.149987      2.822186
  H      -0.029794      1.614248      3.719467
  H      -3.507820     -1.154085      2.761229
  H      -0.183568     -0.817627      3.278656
  H      -1.594683     -0.443794     -3.832668
  H      -2.101281     -2.005223     -2.015529
  H      -2.227841      0.401841     -1.622643
  H       1.776923      1.275747     -3.569411
  H       4.095329      0.632820     -3.172850
  H       2.453779     -1.093976     -3.718743
  H       0.944670     -1.921457      0.075306
  H      -3.911222      0.065949      0.663123
26
Coordinates from ORCA-job my_molecule E -1757.262755351757
  O      -1.876427      0.888948      2.177488
  Si     -0.351342      0.459449      2.694519
  Si     -3.501491      0.465974      2.137717
  C       0.924569      0.700606      1.311862
  C       2.148994     -0.047582      1.329011
  H       0.968903      1.725113      0.891238
  H       3.075528      0.448895      1.010706
  H       2.256714     -0.876827      2.047364
  Si      1.169499     -0.604871     -0.498954
  O       0.209410     -0.750894     -1.950011
  O       2.456001      0.117025     -1.316866
  Si      2.614336      0.357201     -2.989178
  Si     -1.394644     -0.923784     -2.391799
  H      -0.046111      0.178804      0.241772
  H      -4.278173      1.415328      3.005417
  H       0.083896      1.363088      3.813709
  H      -3.677582     -0.939344      2.649820
  H      -0.304642     -0.982490      3.117239
  H      -1.514774     -0.681034     -3.869781
  H      -1.914147     -2.306442     -2.083833
  H      -2.260919      0.073109     -1.661451
  H       1.618340      1.350047     -3.521931
  H       3.993129      0.932800     -3.163582
  H       2.529264     -0.931983     -3.755390
  H       1.063133     -1.989269      0.052090
  H      -3.991464      0.558136      0.722826
26
Coordinates from ORCA-job my_molecule E -1757.263032160062
  O      -1.854695      0.985221      2.244190
  Si     -0.368166      0.376635      2.685626
  Si     -3.510568      0.715151      2.174051
  C       0.904073      0.648666      1.310764
  C       2.149725     -0.064144      1.334495
  H       0.916087      1.667729      0.874923
  H       3.063552      0.460461      1.024577
  H       2.273764     -0.892281      2.052083
  Si      1.202471     -0.645949     -0.503140
  O       0.257548     -0.843778     -1.954692
  O       2.431425      0.184055     -1.309970
  Si      2.548406      0.487745     -2.975588
  Si     -1.317771     -1.152678     -2.421236
  H      -0.043674      0.085743      0.247094
  H      -4.193049      1.585967      3.190754
  H       0.159637      1.124009      3.877852
  H      -3.808304     -0.730986      2.470808
  H      -0.436796     -1.099658      2.962848
  H      -1.442011     -0.886955     -3.894779
  H      -1.709537     -2.584531     -2.152793
  H      -2.283643     -0.259840     -1.679679
  H       1.465358      1.407831     -3.467546
  H       3.870924      1.184004     -3.146587
  H       2.563829     -0.778805     -3.783248
  H       1.163506     -2.038782      0.038900
  H      -4.002091      1.065171      0.800291
26
Coordinates from ORCA-job my_molecule E -1757.263172439476
  O      -1.841431      0.987099      2.235826
  Si     -0.355167      0.391195      2.694984
  Si     -3.491614      0.697424      2.124768
  C       0.919990      0.651900      1.318160
  C       2.158600     -0.072385      1.337422
  H       0.939408      1.670766      0.882082
  H       3.076924      0.442700      1.024844
  H       2.276614     -0.900435      2.056075
  Si      1.197765     -0.643748     -0.490089
  O       0.242319     -0.834730     -1.935613
  O       2.428062      0.175158     -1.306426
  Si      2.530327      0.486556     -2.971477
  Si     -1.333787     -1.145818     -2.397358
  H      -0.038464      0.105398      0.260103
  H      -4.206596      1.527827      3.152955
  H       0.162292      1.153145      3.882406
  H      -3.775745     -0.760790      2.371006
  H      -0.420841     -1.081830      2.990724
  H      -1.466122     -0.867794     -3.867921
  H      -1.718792     -2.581199     -2.139131
  H      -2.299514     -0.262660     -1.643656
  H       1.449742      1.417674     -3.447893
  H       3.856824      1.172737     -3.152391
  H       2.527043     -0.775955     -3.785525
  H       1.141971     -2.035112      0.053836
  H      -3.959808      1.082875      0.752288
26
Coordinates from ORCA-job my_molecule E -1757.263573037392
  O      -1.780527      1.020737      2.221688
  Si     -0.308692      0.433858      2.735184
  Si     -3.398341      0.695179      1.914477
  C       0.977974      0.650903      1.353265
  C       2.192248     -0.118257      1.349555
  H       1.026533      1.671498      0.923191
  H       3.124686      0.367029      1.031697
  H       2.290345     -0.945661      2.071508
  Si      1.187213     -0.653131     -0.436652
  O       0.189110     -0.823941     -1.854544
  O       2.402256      0.152268     -1.290542
  Si      2.425925      0.518872     -2.947204
  Si     -1.380488     -1.181626     -2.301355
  H      -0.010854      0.153410      0.321883
  H      -4.242091      1.314309      2.993280
  H       0.185084      1.216922      3.918141
  H      -3.630630     -0.792094      1.886888
  H      -0.392581     -1.030163      3.070762
  H      -1.557428     -0.829515     -3.751117
  H      -1.693966     -2.644426     -2.114060
  H      -2.369147     -0.385346     -1.481188
  H       1.328793      1.469130     -3.341605
  H       3.746573      1.204668     -3.169000
  H       2.376020     -0.715715     -3.801463
  H       1.074507     -2.040291      0.110615
  H      -3.762522      1.291382      0.586595
26
Coordinates from ORCA-job my_molecule E -1757.263599927384
  O      -1.749217      1.074333      2.255310
  Si     -0.298106      0.428670      2.757800
  Si     -3.345848      0.798438      1.817349
  C       0.995025      0.645932      1.379452
  C       2.204659     -0.130956      1.361010
  H       1.042936      1.666885      0.950834
  H       3.137449      0.351537      1.039225
  H       2.302690     -0.961564      2.079201
  Si      1.183684     -0.668876     -0.423348
  O       0.170693     -0.847947     -1.825670
  O       2.384222      0.150023     -1.285819
  Si      2.355575      0.562290     -2.932546
  Si     -1.378179     -1.300187     -2.258420
  H       0.006507      0.163512      0.336498
  H      -4.247317      1.166368      2.962868
  H       0.208665      1.160065      3.967507
  H      -3.546707     -0.652108      1.468373
  H      -0.427462     -1.041246      3.051120
  H      -1.616886     -0.875713     -3.679445
  H      -1.569588     -2.791463     -2.152170
  H      -2.406262     -0.635688     -1.371514
  H       1.238335      1.512168     -3.267631
  H       3.661795      1.268669     -3.174545
  H       2.293034     -0.647688     -3.820491
  H       1.068161     -2.053201      0.134579
  H      -3.667860      1.657748      0.630477
26
Coordinates from ORCA-job my_molecule E -1757.263701312032
  O      -1.768416      1.046325      2.232686
  Si     -0.302541      0.443988      2.746796
  Si     -3.374123      0.726260      1.862143
  C       0.993805      0.658727      1.372402
  C       2.198048     -0.123749      1.359250
  H       1.050545      1.681071      0.947949
  H       3.134523      0.352079      1.037719
  H       2.289994     -0.957841      2.074376
  Si      1.176508     -0.654386     -0.438027
  O       0.170335     -0.818197     -1.848187
  O       2.400382      0.138137     -1.290636
  Si      2.404179      0.530175     -2.942627
  Si     -1.391259     -1.231493     -2.275402
  H       0.002014      0.179493      0.318967
  H      -4.250152      1.214291      2.982145
  H       0.186136      1.217251      3.937894
  H      -3.579519     -0.753241      1.675163
  H      -0.398224     -1.021182      3.073715
  H      -1.618949     -0.817756     -3.701495
  H      -1.625333     -2.715476     -2.150660
  H      -2.398565     -0.526379     -1.397056
  H       1.314895      1.502631     -3.303383
  H       3.730089      1.202289     -3.174438
  H       2.324829     -0.689086     -3.816352
  H       1.054970     -2.037939      0.119332
  H      -3.724171      1.454010      0.597725
26
Coordinates from ORCA-job my_molecule E -1757.263732417540
  O      -1.770909      1.042041      2.225140
  Si     -0.303897      0.443914      2.740836
  Si     -3.380128      0.720499      1.871191
  C       0.994771      0.658841      1.369817
  C       2.197194     -0.125803      1.357221
  H       1.056195      1.682750      0.949943
  H       3.134786      0.349295      1.037900
  H       2.287938     -0.960982      2.071295
  Si      1.175427     -0.651563     -0.440781
  O       0.169550     -0.811668     -1.852512
  O       2.402938      0.136849     -1.290320
  Si      2.411830      0.529118     -2.942151
  Si     -1.391627     -1.227857     -2.279215
  H       0.001728      0.185518      0.315749
  H      -4.247276      1.243327      2.982357
  H       0.180561      1.224706      3.928692
  H      -3.594691     -0.762422      1.726284
  H      -0.394583     -1.020442      3.072510
  H      -1.625841     -0.804235     -3.701474
  H      -1.619642     -2.713684     -2.164752
  H      -2.398892     -0.533075     -1.392860
  H       1.327160      1.506293     -3.303735
  H       3.740813      1.196221     -3.170252
  H       2.329683     -0.689292     -3.816665
  H       1.050080     -2.034465      0.116085
  H      -3.733169      1.416118      0.589698
26
Coordinates from ORCA-job my_molecule E -1757.263789192697
  O      -1.769628      1.047821      2.217954
  Si     -0.305759      0.441937      2.733340
  Si     -3.385789      0.741800      1.881895
  C       0.997873      0.655343      1.368595
  C       2.194368     -0.139036      1.352987
  H       1.072344      1.684004      0.962723
  H       3.135716      0.333882      1.041771
  H       2.280255     -0.977356      2.063936
  Si      1.172386     -0.649297     -0.447085
  O       0.164648     -0.798989     -1.860126
  O       2.405194      0.133798     -1.290184
  Si      2.415201      0.542628     -2.938055
  Si     -1.384796     -1.258723     -2.287286
  H       0.006594      0.206059      0.306383
  H      -4.237445      1.320959      2.977074
  H       0.175108      1.225460      3.920957
  H      -3.628869     -0.741217      1.795133
  H      -0.398699     -1.022485      3.063262
  H      -1.660185     -0.777770     -3.683882
  H      -1.549333     -2.756514     -2.240482
  H      -2.405985     -0.648838     -1.355580
  H       1.334744      1.529294     -3.285651
  H       3.747181      1.206002     -3.158608
  H       2.327144     -0.665396     -3.826004
  H       1.030335     -2.030254      0.109238
  H      -3.732602      1.396887      0.577696
26
Coordinates from ORCA-job my_molecule E -1757.263797802861
  O      -1.767697      1.053483      2.215466
  Si     -0.305406      0.444708      2.732278
  Si     -3.383524      0.749478      1.876055
  C       1.002739      0.657639      1.372388
  C       2.194173     -0.143330      1.356273
  H       1.082562      1.686749      0.968717
  H       3.138594      0.323886      1.045094
  H       2.274438     -0.985401      2.063561
  Si      1.167376     -0.647482     -0.450941
  O       0.159250     -0.791687     -1.863371
  O       2.404517      0.131883     -1.290724
  Si      2.414647      0.547777     -2.937279
  Si     -1.386162     -1.271874     -2.282958
  H       0.009969      0.215334      0.303088
  H      -4.236513      1.327258      2.970927
  H       0.173257      1.225730      3.922628
  H      -3.627738     -0.733191      1.786457
  H      -0.401266     -1.020379      3.058216
  H      -1.685169     -0.768894     -3.666776
  H      -1.521614     -2.773014     -2.263696
  H      -2.408684     -0.698947     -1.329276
  H       1.337196      1.539851     -3.278562
  H       3.748829      1.207178     -3.156560
  H       2.321501     -0.655988     -3.830475
  H       1.022567     -2.027919      0.107032
  H      -3.727844      1.407152      0.572441
26
Coordinates from ORCA-job my_molecule E -1757.263806799041
  O      -1.763492      1.060013      2.212273
  Si     -0.304224      0.444713      2.729695
  Si     -3.380656      0.764039      1.872687
  C       1.006395      0.654948      1.372110
  C       2.192847     -0.152769      1.356083
  H       1.093120      1.684639      0.971567
  H       3.140592      0.309303      1.047428
  H       2.267066     -0.996617      2.061879
  Si      1.164058     -0.646688     -0.451562
  O       0.155170     -0.786483     -1.863994
  O       2.401512      0.133443     -1.289392
  Si      2.409885      0.559946     -2.933342
  Si     -1.382744     -1.291573     -2.282134
  H       0.012039      0.223584      0.302441
  H      -4.231222      1.361311      2.958874
  H       0.175993      1.221209      3.922453
  H      -3.635333     -0.717822      1.800530
  H      -0.406543     -1.020884      3.051527
  H      -1.705269     -0.765470     -3.652012
  H      -1.485063     -2.795278     -2.295176
  H      -2.409304     -0.761396     -1.308000
  H       1.330812      1.552959     -3.266254
  H       3.743546      1.221359     -3.149527
  H       2.316862     -0.638088     -3.834234
  H       1.011849     -2.026555      0.105679
  H      -3.717897      1.408155      0.560400
26
Coordinates from ORCA-job my_molecule E -1757.263811572214
  O      -1.761526      1.062672      2.212496
  Si     -0.302467      0.447692      2.730928
  Si     -3.377210      0.764829      1.867704
  C       1.008010      0.654859      1.372236
  C       2.191742     -0.157238      1.355894
  H       1.098315      1.684604      0.972590
  H       3.141320      0.301498      1.047983
  H       2.262375     -1.001549      2.061468
  Si      1.161915     -0.646070     -0.451013
  O       0.152466     -0.782988     -1.863265
  O       2.400008      0.133047     -1.289062
  Si      2.407814      0.563415     -2.932006
  Si     -1.383455     -1.295186     -2.279918
  H       0.012951      0.227627      0.303345
  H      -4.232095      1.365777      2.948401
  H       0.178729      1.224179      3.923278
  H      -3.630426     -0.717486      1.799773
  H      -0.406457     -1.017510      3.054089
  H      -1.714225     -0.761619     -3.644920
  H      -1.476277     -2.799331     -2.303655
  H      -2.409893     -0.778194     -1.298501
  H       1.328495      1.557021     -3.262232
  H       3.741634      1.224786     -3.147362
  H       2.314147     -0.632697     -3.835456
  H       1.004099     -2.025672      0.105618
  H      -3.709988      1.403535      0.551588
26
Coordinates from ORCA-job my_molecule E -1757.263817712702
  O      -1.761377      1.071838      2.216211
  Si     -0.303488      0.448742      2.728395
  Si     -3.379504      0.779028      1.878634
  C       1.006901      0.653961      1.369259
  C       2.185215     -0.165965      1.354472
  H       1.104704      1.683912      0.972160
  H       3.138815      0.286437      1.049653
  H       2.247479     -1.012856      2.057719
  Si      1.156525     -0.643156     -0.457334
  O       0.150651     -0.774250     -1.872415
  O       2.398470      0.136171     -1.289487
  Si      2.412427      0.574502     -2.930302
  Si     -1.377068     -1.314132     -2.284650
  H       0.012321      0.234824      0.297286
  H      -4.228305      1.414904      2.943839
  H       0.185162      1.216730      3.923212
  H      -3.643994     -0.702632      1.848428
  H      -0.414744     -1.017420      3.044775
  H      -1.735553     -0.759797     -3.634270
  H      -1.434625     -2.819107     -2.340950
  H      -2.404464     -0.842416     -1.281591
  H       1.333536      1.568869     -3.259235
  H       3.747153      1.236475     -3.137885
  H       2.322188     -0.617501     -3.839664
  H       0.990180     -2.022868      0.097324
  H      -3.708607      1.385707      0.546417
26
Coordinates from ORCA-job my_molecule E -1757.263821099616
  O      -1.760108      1.071250      2.215286
  Si     -0.300887      0.453656      2.730574
  Si     -3.374329      0.768831      1.867415
  C       1.009848      0.656503      1.370918
  C       2.185580     -0.167075      1.355223
  H       1.110299      1.686270      0.974006
  H       3.140444      0.282007      1.049399
  H       2.245441     -1.014598      2.057912
  Si      1.153378     -0.640742     -0.456037
  O       0.146058     -0.768269     -1.870213
  O       2.397890      0.133643     -1.289219
  Si      2.412340      0.571738     -2.930083
  Si     -1.383437     -1.307041     -2.277526
  H       0.012864      0.240406      0.299574
  H      -4.233541      1.395336      2.929802
  H       0.185477      1.226428      3.923176
  H      -3.628456     -0.714483      1.830331
  H      -0.409523     -1.011550      3.052310
  H      -1.746419     -0.750408     -3.624972
  H      -1.441739     -2.811900     -2.335868
  H      -2.406892     -0.836531     -1.269890
  H       1.337266      1.570407     -3.258513
  H       3.749599      1.228187     -3.138946
  H       2.316465     -0.620097     -3.839111
  H       0.982258     -2.019784      0.099091
  H      -3.699875      1.377818      0.535363
26
Coordinates from ORCA-job my_molecule E -1757.263825644226
  O      -1.759213      1.077996      2.222025
  Si     -0.299753      0.456050      2.731632
  Si     -3.371068      0.771850      1.865867
  C       1.009236      0.656794      1.369620
  C       2.180938     -0.172570      1.353380
  H       1.115383      1.686763      0.974852
  H       3.138191      0.272171      1.048831
  H       2.235855     -1.021454      2.054796
  Si      1.147849     -0.636769     -0.458678
  O       0.142147     -0.758837     -1.874395
  O       2.395590      0.135827     -1.288962
  Si      2.414986      0.576652     -2.928878
  Si     -1.383469     -1.314332     -2.274945
  H       0.010330      0.246520      0.298628
  H      -4.236876      1.410425      2.915505
  H       0.192628      1.225489      3.923796
  H      -3.624607     -0.711882      1.843087
  H      -0.411698     -1.009215      3.052047
  H      -1.767348     -0.744892     -3.611166
  H      -1.420750     -2.818938     -2.353416
  H      -2.403715     -0.872680     -1.251165
  H       1.343236      1.578593     -3.258144
  H       3.754544      1.229612     -3.133858
  H       2.317697     -0.613432     -3.840097
  H       0.968154     -2.015638      0.094612
  H      -3.688264      1.365895      0.525026
26
Coordinates from ORCA-job my_molecule E -1757.263828691255
  O      -1.759099      1.080143      2.226365
  Si     -0.299297      0.456511      2.733070
  Si     -3.368960      0.771344      1.863100
  C       1.008730      0.657229      1.370130
  C       2.179859     -0.173032      1.353034
  H       1.115430      1.687231      0.975621
  H       3.137288      0.271184      1.048251
  H       2.234418     -1.022417      2.053894
  Si      1.146021     -0.635229     -0.459359
  O       0.140700     -0.755719     -1.875417
  O       2.394679      0.136779     -1.289012
  Si      2.415688      0.576829     -2.929088
  Si     -1.384738     -1.314709     -2.272446
  H       0.008963      0.247611      0.299122
  H      -4.240043      1.408173      2.909396
  H       0.195149      1.224867      3.925056
  H      -3.619983     -0.712786      1.838709
  H      -0.411794     -1.008874      3.052687
  H      -1.774379     -0.742782     -3.605895
  H      -1.417767     -2.819212     -2.354542
  H      -2.403018     -0.878969     -1.244189
  H       1.345684      1.580234     -3.259644
  H       3.756257      1.227865     -3.133661
  H       2.317221     -0.613523     -3.839819
  H       0.964700     -2.014187      0.093423
  H      -3.681711      1.365438      0.521213
26
Coordinates from ORCA-job my_molecule E -1757.263835794727
  O      -1.759019      1.087971      2.243958
  Si     -0.298511      0.455282      2.737609
  Si     -3.362507      0.773649      1.856440
  C       1.005690      0.657033      1.371449
  C       2.175805     -0.174672      1.351200
  H       1.113162      1.687334      0.977954
  H       3.133218      0.269214      1.045873
  H       2.230385     -1.025738      2.050054
  Si      1.140384     -0.630227     -0.462182
  O       0.137002     -0.746085     -1.880043
  O       2.390748      0.142647     -1.288987
  Si      2.417595      0.579528     -2.929746
  Si     -1.387033     -1.318710     -2.265433
  H       0.003006      0.248393      0.301013
  H      -4.249911      1.412976      2.887231
  H       0.204921      1.217289      3.929828
  H      -3.610145     -0.711074      1.834411
  H      -0.414355     -1.011057      3.051426
  H      -1.796774     -0.739039     -3.589358
  H      -1.404138     -2.822726     -2.359846
  H      -2.398926     -0.903911     -1.222332
  H       1.352161      1.586037     -3.265708
  H       3.760660      1.226188     -3.132116
  H       2.317848     -0.612219     -3.838455
  H       0.955679     -2.010033      0.087987
  H      -3.656947      1.361949      0.507774
26
Coordinates from ORCA-job my_molecule E -1757.263837790546
  O      -1.758721      1.089589      2.249746
  Si     -0.298239      0.453741      2.739413
  Si     -3.360169      0.775056      1.853745
  C       1.004628      0.656040      1.372072
  C       2.175406     -0.174699      1.350623
  H       1.110951      1.686436      0.978480
  H       3.132212      0.270256      1.045003
  H       2.231242     -1.025844      2.049280
  Si      1.139892     -0.629680     -0.462054
  O       0.136733     -0.745352     -1.880255
  O       2.389226      0.145061     -1.288810
  Si      2.416334      0.580718     -2.929901
  Si     -1.387388     -1.319500     -2.263526
  H       0.001336      0.246471      0.302604
  H      -4.252541      1.415379      2.879555
  H       0.207822      1.213224      3.932095
  H      -3.607948     -0.709639      1.831726
  H      -0.415522     -1.013013      3.050758
  H      -1.799323     -0.740137     -3.586887
  H      -1.403266     -2.823529     -2.357759
  H      -2.398217     -0.905519     -1.219060
  H       1.350637      1.586487     -3.267222
  H       3.759135      1.227957     -3.132287
  H       2.317633     -0.611855     -3.837627
  H       0.955839     -2.009957      0.087191
  H      -3.647692      1.362311      0.503095
26
Coordinates from ORCA-job my_molecule E -1757.263840593939
  O      -1.758393      1.091749      2.261490
  Si     -0.297823      0.450101      2.743271
  Si     -3.355646      0.777253      1.848356
  C       1.002521      0.654013      1.373719
  C       2.175247     -0.173888      1.349842
  H       1.105566      1.684611      0.979674
  H       3.130474      0.273854      1.043383
  H       2.234308     -1.025173      2.048079
  Si      1.139602     -0.629137     -0.461649
  O       0.136771     -0.745167     -1.880395
  O       2.386376      0.149842     -1.288576
  Si      2.413305      0.582622     -2.930517
  Si     -1.388324     -1.319705     -2.259923
  H      -0.001654      0.241292      0.305927
  H      -4.257757      1.419617      2.864192
  H       0.212986      1.204519      3.937062
  H      -3.603983     -0.707346      1.826108
  H      -0.417678     -1.017552      3.049433
  H      -1.801396     -0.743591     -3.584323
  H      -1.405281     -2.823967     -2.349890
  H      -2.397407     -0.901976     -1.215265
  H       1.346322      1.586078     -3.270572
  H       3.755116      1.231838     -3.133374
  H       2.317378     -0.611975     -3.835864
  H       0.958492     -2.010522      0.085914
  H      -3.629123      1.362610      0.493897
26
Coordinates from ORCA-job my_molecule E -1757.263841690653
  O      -1.758390      1.091790      2.265770
  Si     -0.297756      0.448177      2.744695
  Si     -3.354248      0.777952      1.846694
  C       1.001689      0.653158      1.374375
  C       2.175669     -0.172900      1.349722
  H       1.102786      1.683824      0.979969
  H       3.130018      0.276435      1.042863
  H       2.236491     -1.024091      2.047929
  Si      1.140157     -0.629434     -0.461245
  O       0.137344     -0.746421     -1.880078
  O       2.385553      0.151471     -1.288508
  Si      2.411735      0.583048     -2.930833
  Si     -1.388611     -1.319083     -2.259039
  H      -0.002461      0.238585      0.307142
  H      -4.259371      1.420736      2.859527
  H       0.214578      1.200531      3.939095
  H      -3.603062     -0.706560      1.823573
  H      -0.418486     -1.019868      3.048702
  H      -1.799199     -0.746562     -3.585773
  H      -1.408741     -2.823598     -2.344087
  H      -2.397652     -0.895589     -1.216692
  H       1.343572      1.584958     -3.271691
  H       3.752763      1.233755     -3.134174
  H       2.317378     -0.612452     -3.835150
  H       0.961194     -2.011254      0.085921
  H      -3.622950      1.363393      0.491294
26
Coordinates from ORCA-job my_molecule E -1757.263843113925
  O      -1.758380      1.091050      2.272212
  Si     -0.297547      0.444843      2.746924
  Si     -3.352099      0.778606      1.843982
  C       1.000425      0.651787      1.375360
  C       2.176749     -0.170898      1.349661
  H       1.098083      1.682577      0.980334
  H       3.129532      0.281307      1.042157
  H       2.240698     -1.021726      2.048048
  Si      1.141617     -0.630426     -0.460175
  O       0.138657     -0.749699     -1.878973
  O       2.384450      0.153680     -1.288359
  Si      2.408689      0.583456     -2.931266
  Si     -1.389156     -1.317281     -2.257964
  H      -0.003443      0.233762      0.309197
  H      -4.261667      1.420963      2.853022
  H       0.216943      1.194208      3.942212
  H      -3.601494     -0.705769      1.817920
  H      -0.419320     -1.023776      3.047859
  H      -1.792787     -0.753046     -3.590388
  H      -1.417241     -2.822292     -2.331665
  H      -2.398740     -0.880182     -1.221836
  H       1.337986      1.582346     -3.272959
  H       3.748063      1.237249     -3.135710
  H       2.317158     -0.613438     -3.834024
  H       0.966625     -2.012887      0.086574
  H      -3.613802      1.365588      0.487857
26
Coordinates from ORCA-job my_molecule E -1757.263843951352
  O      -1.758441      1.090203      2.275089
  Si     -0.297425      0.443048      2.747853
  Si     -3.351373      0.778801      1.843219
  C       0.999756      0.651214      1.375683
  C       2.177418     -0.169578      1.349745
  H       1.095568      1.682041      0.980289
  H       3.129369      0.284174      1.041952
  H       2.242998     -1.020073      2.048390
  Si      1.142697     -0.631298     -0.459524
  O       0.139675     -0.752340     -1.878229
  O       2.384194      0.154323     -1.288305
  Si      2.407062      0.583474     -2.931428
  Si     -1.389300     -1.316109     -2.258016
  H      -0.003695      0.231243      0.309931
  H      -4.262469      1.419835      2.851694
  H       0.218055      1.191074      3.943529
  H      -3.600930     -0.705496      1.814245
  H      -0.419426     -1.025837      3.047449
  H      -1.787166     -0.758209     -3.594846
  H      -1.423294     -2.821415     -2.323204
  H      -2.399768     -0.868973     -1.227083
  H       1.334711      1.580586     -3.273137
  H       3.745367      1.239257     -3.136521
  H       2.317108     -0.613942     -3.833648
  H       0.969987     -2.013991      0.087294
  H      -3.610679      1.367989      0.487580
26
Coordinates from ORCA-job my_molecule E -1757.263845120029
  O      -1.758603      1.088493      2.278987
  Si     -0.297140      0.440464      2.749007
  Si     -3.350557      0.778599      1.842537
  C       0.998815      0.650554      1.375980
  C       2.178439     -0.167498      1.349991
  H       1.092009      1.681407      0.979999
  H       3.129223      0.288429      1.041797
  H       2.246302     -1.017404      2.049149
  Si      1.144446     -0.632838     -0.458510
  O       0.141373     -0.756950     -1.877029
  O       2.384055      0.154776     -1.288243
  Si      2.404695      0.583355     -2.931582
  Si     -1.389563     -1.313943     -2.258521
  H      -0.003896      0.227656      0.310733
  H      -4.263488      1.416557      2.851276
  H       0.219687      1.186908      3.945069
  H      -3.599984     -0.705604      1.808075
  H      -0.419001     -1.028770      3.046976
  H      -1.776763     -0.767959     -3.603390
  H      -1.434237     -2.819619     -2.307945
  H      -2.401766     -0.848574     -1.237470
  H       1.329723      1.577771     -3.272931
  H       3.741286      1.242325     -3.137634
  H       2.317086     -0.614582     -3.833325
  H       0.975175     -2.015756      0.088674
  H      -3.607317      1.372200      0.488332
26
Coordinates from ORCA-job my_molecule E -1757.263846022525
  O      -1.758710      1.087124      2.281145
  Si     -0.296829      0.438956      2.749531
  Si     -3.350268      0.778243      1.842640
  C       0.998252      0.650224      1.375914
  C       2.179024     -0.166273      1.350187
  H       1.090007      1.681034      0.979506
  H       3.129181      0.290846      1.041816
  H       2.248109     -1.015685      2.049836
  Si      1.145670     -0.634093     -0.457825
  O       0.142640     -0.760576     -1.876201
  O       2.384141      0.154606     -1.288214
  Si      2.403162      0.583391     -2.931521
  Si     -1.389639     -1.312489     -2.259343
  H      -0.003856      0.225571      0.310942
  H      -4.263897      1.413181      2.852644
  H       0.220831      1.184724      3.945648
  H      -3.599365     -0.705900      1.803575
  H      -0.418237     -1.030463      3.046776
  H      -1.767989     -0.776715     -3.610826
  H      -1.442726     -2.818307     -2.295549
  H      -2.403503     -0.832346     -1.246852
  H       1.326297      1.576016     -3.272151
  H       3.738503      1.244719     -3.138093
  H       2.317120     -0.614523     -3.833434
  H       0.978444     -2.017041      0.089816
  H      -3.606362      1.375775      0.490034
26
Coordinates from ORCA-job my_molecule E -1757.263847169699
  O      -1.758835      1.085258      2.283663
  Si     -0.296289      0.437252      2.749998
  Si     -3.350059      0.777603      1.843241
  C       0.997614      0.649854      1.375579
  C       2.179625     -0.165031      1.350426
  H       1.087918      1.680559      0.978598
  H       3.129165      0.293303      1.041943
  H       2.249922     -1.013756      2.050801
  Si      1.147199     -0.635882     -0.457019
  O       0.144324     -0.765618     -1.875226
  O       2.384331      0.154023     -1.288204
  Si      2.401239      0.583752     -2.931267
  Si     -1.389673     -1.310725     -2.260757
  H      -0.003655      0.223218      0.310925
  H      -4.264247      1.407744      2.855738
  H       0.222431      1.182457      3.946005
  H      -3.598465     -0.706464      1.797453
  H      -0.416826     -1.032378      3.046545
  H      -1.755027     -0.790871     -3.622000
  H      -1.454781     -2.816478     -2.276813
  H      -2.406060     -0.808790     -1.261498
  H       1.321832      1.574117     -3.270501
  H       3.734887      1.248329     -3.138282
  H       2.317256     -0.613722     -3.833945
  H       0.982253     -2.018771      0.091363
  H      -3.606080      1.381016      0.493235
26
Coordinates from ORCA-job my_molecule E -1757.263848198775
  O      -1.758888      1.083909      2.285342
  Si     -0.295762      0.436232      2.750171
  Si     -3.349969      0.777024      1.843992
  C       0.997288      0.649595      1.375150
  C       2.179897     -0.164579      1.350571
  H       1.086984      1.680174      0.977742
  H       3.129200      0.294276      1.042111
  H       2.250673     -1.012835      2.051477
  Si      1.148147     -0.637269     -0.456615
  O       0.145504     -0.769425     -1.874730
  O       2.384467      0.153370     -1.288243
  Si      2.399908      0.584505     -2.930917
  Si     -1.389699     -1.309682     -2.261940
  H      -0.003386      0.221867      0.310648
  H      -4.264383      1.402823      2.858976
  H       0.223722      1.181223      3.945976
  H      -3.597596     -0.706993      1.792596
  H      -0.415490     -1.033546      3.046301
  H      -1.744272     -0.804412     -3.631498
  H      -1.464449     -2.815117     -2.260015
  H      -2.408246     -0.789204     -1.274470
  H       1.318628      1.573347     -3.268690
  H       3.732302      1.251566     -3.137957
  H       2.317441     -0.612226     -3.834712
  H       0.984482     -2.020046      0.092407
  H      -3.606503      1.385423      0.496326
26
Coordinates from ORCA-job my_molecule E -1757.263849485604
  O      -1.758824      1.082336      2.287390
  Si     -0.294964      0.435031      2.750258
  Si     -3.349760      0.776407      1.845009
  C       0.997037      0.649117      1.374451
  C       2.180079     -0.164645      1.350612
  H       1.086450      1.679524      0.976593
  H       3.129288      0.294549      1.042341
  H       2.251077     -1.012385      2.052129
  Si      1.149118     -0.639017     -0.456314
  O       0.146845     -0.774100     -1.874358
  O       2.384504      0.152549     -1.288327
  Si      2.398209      0.586233     -2.930279
  Si     -1.389737     -1.308861     -2.263350
  H      -0.002954      0.220550      0.310158
  H      -4.264408      1.396158      2.863490
  H       0.225522      1.179764      3.945778
  H      -3.596274     -0.707521      1.786032
  H      -0.413719     -1.034947      3.045786
  H      -1.729826     -0.825303     -3.644365
  H      -1.477144     -2.813421     -2.235366
  H      -2.411175     -0.762683     -1.292951
  H       1.314563      1.573292     -3.265756
  H       3.729020      1.256525     -3.136973
  H       2.317693     -0.609117     -3.836070
  H       0.986534     -2.021611      0.093491
  H      -3.607153      1.391575      0.500590
26
Coordinates from ORCA-job my_molecule E -1757.263850654644
  O      -1.758584      1.081455      2.288825
  Si     -0.294288      0.434168      2.750254
  Si     -3.349377      0.776245      1.845516
  C       0.997065      0.648558      1.373921
  C       2.180077     -0.165413      1.350486
  H       1.086753      1.678862      0.975903
  H       3.129414      0.293723      1.042500
  H       2.250867     -1.012950      2.052275
  Si      1.149508     -0.640172     -0.456389
  O       0.147553     -0.777028     -1.874423
  O       2.384313      0.152154     -1.288442
  Si      2.396942      0.588409     -2.929660
  Si     -1.389831     -1.308941     -2.263994
  H      -0.002573      0.219969      0.309744
  H      -4.264309      1.391227      2.866632
  H       0.226946      1.178563      3.945645
  H      -3.595011     -0.707593      1.780642
  H      -0.412580     -1.035979      3.045141
  H      -1.719207     -0.844037     -3.653969
  H      -1.486221     -2.812444     -2.214269
  H      -2.413452     -0.742660     -1.307575
  H       1.311664      1.574388     -3.263085
  H       3.726672      1.261019     -3.135719
  H       2.317809     -0.605534     -3.837427
  H       0.987159     -2.022644      0.093851
  H      -3.607309      1.396653      0.503617
26
Coordinates from ORCA-job my_molecule E -1757.263852177060
  O      -1.757993      1.080668      2.290789
  Si     -0.293357      0.432776      2.750236
  Si     -3.348514      0.776681      1.845746
  C       0.997300      0.647464      1.373319
  C       2.179965     -0.167203      1.350105
  H       1.087736      1.677701      0.975364
  H       3.129619      0.291646      1.042639
  H       2.250196     -1.014738      2.051961
  Si      1.149664     -0.641468     -0.456874
  O       0.148153     -0.780125     -1.874953
  O       2.383745      0.152128     -1.288655
  Si      2.395180      0.592445     -2.928711
  Si     -1.389989     -1.310026     -2.264228
  H      -0.002065      0.219517      0.309198
  H      -4.264024      1.385391      2.870100
  H       0.228962      1.176254      3.945700
  H      -3.593179     -0.706963      1.772898
  H      -0.411569     -1.037641      3.043824
  H      -1.705687     -0.872689     -3.666245
  H      -1.497400     -2.811501     -2.183254
  H      -2.416440     -0.716580     -1.327613
  H       1.307873      1.577226     -3.259103
  H       3.723578      1.268031     -3.133524
  H       2.317827     -0.599265     -3.839563
  H       0.987102     -2.023851      0.093668
  H      -3.606683      1.404122      0.507175
26
Coordinates from ORCA-job my_molecule E -1757.263853619692
  O      -1.757236      1.080585      2.291993
  Si     -0.292722      0.431549      2.750244
  Si     -3.347488      0.777764      1.845190
  C       0.997700      0.646304      1.373109
  C       2.179836     -0.169245      1.349605
  H       1.089005      1.676609      0.975555
  H       3.129831      0.289239      1.042634
  H       2.249447     -1.017073      2.051171
  Si      1.149411     -0.642035     -0.457533
  O       0.148132     -0.781152     -1.875674
  O       2.383009      0.152738     -1.288836
  Si      2.393823      0.596342     -2.927950
  Si     -1.390121     -1.311841     -2.263588
  H      -0.001729      0.219521      0.308974
  H      -4.263624      1.382808      2.871152
  H       0.230362      1.173911      3.946047
  H      -3.591874     -0.705679      1.767279
  H      -0.411561     -1.039070      3.042580
  H      -1.697798     -0.894694     -3.673491
  H      -1.503236     -2.811598     -2.160456
  H      -2.418500     -0.700910     -1.340511
  H       1.305326      1.580588     -3.256032
  H       3.721460      1.273758     -3.131603
  H       2.317535     -0.593557     -3.841258
  H       0.986108     -2.024470      0.092813
  H      -3.605094      1.409609      0.508587
26
Coordinates from ORCA-job my_molecule E -1757.263855908338
  O      -1.755551      1.080979      2.294081
  Si     -0.291735      0.428883      2.750314
  Si     -3.345283      0.780877      1.843581
  C       0.998544      0.643796      1.373047
  C       2.179579     -0.173519      1.348493
  H       1.091529      1.674363      0.976614
  H       3.130227      0.284303      1.042492
  H       2.248005     -1.022217      2.049142
  Si      1.148641     -0.642643     -0.459092
  O       0.147697     -0.781690     -1.877392
  O       2.381385      0.154616     -1.289203
  Si      2.391271      0.604321     -2.926571
  Si     -1.390198     -1.316371     -2.261693
  H      -0.001206      0.219725      0.308712
  H      -4.262651      1.380583      2.871568
  H       0.232819      1.168453      3.947171
  H      -3.589932     -0.702086      1.757443
  H      -0.412585     -1.042133      3.039845
  H      -1.685814     -0.935308     -3.684272
  H      -1.510755     -2.812510     -2.119966
  H      -2.421955     -0.677297     -1.361893
  H       1.300908      1.587884     -3.250474
  H       3.717725      1.284702     -3.127954
  H       2.316686     -0.582210     -3.844397
  H       0.983607     -2.025343      0.090410
  H      -3.600957      1.419844      0.509994
26
Coordinates from ORCA-job my_molecule E -1757.263857837853
  O      -1.754042      1.081709      2.295441
  Si     -0.291166      0.426562      2.750443
  Si     -3.343308      0.783979      1.841663
  C       0.999349      0.641687      1.373428
  C       2.179391     -0.177062      1.347542
  H       1.093641      1.672601      0.978219
  H       3.130523      0.280207      1.042226
  H       2.246906     -1.026763      2.047052
  Si      1.147685     -0.642524     -0.460577
  O       0.146863     -0.780512     -1.879028
  O       2.379938      0.156720     -1.289487
  Si      2.389417      0.610781     -2.925613
  Si     -1.390241     -1.320613     -2.259459
  H      -0.000965      0.220174      0.308663
  H      -4.261798      1.381142      2.870118
  H       0.234418      1.163459      3.948481
  H      -3.588753     -0.698570      1.750647
  H      -0.414235     -1.044757      3.037511
  H      -1.679673     -0.964610     -3.689726
  H      -1.513078     -2.813960     -2.091724
  H      -2.424452     -0.664865     -1.374726
  H       1.298172      1.594313     -3.246612
  H       3.715330      1.292706     -3.125291
  H       2.315620     -0.573322     -3.846639
  H       0.981084     -2.025588      0.087829
  H      -3.596629      1.427103      0.509617
26
Coordinates from ORCA-job my_molecule E -1757.263860325899
  O      -1.751633      1.083027      2.297083
  Si     -0.290471      0.422960      2.750659
  Si     -3.340305      0.789233      1.838569
  C       1.000563      0.638402      1.374157
  C       2.179148     -0.182431      1.345981
  H       1.096740      1.669941      0.981031
  H       3.130961      0.274111      1.041692
  H       2.245413     -1.033710      2.043685
  Si      1.146237     -0.642058     -0.462703
  O       0.145399     -0.777893     -1.881363
  O       2.377713      0.160188     -1.289847
  Si      2.386557      0.620374     -2.924208
  Si     -1.390007     -1.327460     -2.255973
  H      -0.000693      0.220984      0.308813
  H      -4.260260      1.384040      2.867065
  H       0.236558      1.155607      3.950648
  H      -3.587624     -0.692637      1.741625
  H      -0.417283     -1.048763      3.034026
  H      -1.672328     -1.005519     -3.695622
  H      -1.513662     -2.816561     -2.053592
  H      -2.428050     -0.651503     -1.391336
  H       1.294217      1.604013     -3.241090
  H       3.711808      1.304259     -3.121546
  H       2.313654     -0.560293     -3.849712
  H       0.977032     -2.025748      0.083731
  H      -3.589682      1.437435      0.508227
26
Coordinates from ORCA-job my_molecule E -1757.263862634411
  O      -1.749085      1.084505      2.298624
  Si     -0.289924      0.419011      2.750900
  Si     -3.337191      0.795114      1.835252
  C       1.001816      0.635007      1.375142
  C       2.178932     -0.187873      1.344324
  H       1.099809      1.667278      0.984423
  H       3.131399      0.268005      1.041040
  H       2.244031     -1.040942      2.039960
  Si      1.144630     -0.641227     -0.464976
  O       0.143633     -0.774310     -1.883843
  O       2.375409      0.164021     -1.290241
  Si      2.383654      0.630147     -2.922884
  Si     -1.389573     -1.334886     -2.252162
  H      -0.000476      0.222042      0.309046
  H      -4.258542      1.388277      2.863427
  H       0.238495      1.146863      3.953181
  H      -3.586890     -0.685997      1.732842
  H      -0.420924     -1.053138      3.030153
  H      -1.666050     -1.046134     -3.699880
  H      -1.512005     -2.819311     -2.016563
  H      -2.431853     -0.641419     -1.406880
  H       1.290509      1.614163     -3.235730
  H       3.708429      1.315587     -3.117996
  H       2.311301     -0.547157     -3.852713
  H       0.972638     -2.025646      0.079174
  H      -3.582169      1.448023      0.506379
26
Coordinates from ORCA-job my_molecule E -1757.263865717028
  O      -1.745205      1.086645      2.300784
  Si     -0.289273      0.412719      2.751253
  Si     -3.332461      0.804213      1.830078
  C       1.003756      0.629994      1.376914
  C       2.178662     -0.195860      1.341753
  H       1.104367      1.663515      0.990187
  H       3.132043      0.259073      1.039887
  H       2.242145     -1.051816      2.033986
  Si      1.142022     -0.639486     -0.468504
  O       0.140572     -0.767812     -1.887652
  O       2.371953      0.169992     -1.290890
  Si      2.379371      0.644580     -2.921066
  Si     -1.388770     -1.346205     -2.246092
  H      -0.000207      0.224047      0.309462
  H      -4.255857      1.395225      2.857633
  H       0.241001      1.132879      3.957332
  H      -3.586024     -0.675672      1.719603
  H      -0.426785     -1.060092      3.023858
  H      -1.657467     -1.106479     -3.704072
  H      -1.507521     -2.822574     -1.961957
  H      -2.437965     -0.629306     -1.429658
  H       1.285479      1.629572     -3.228050
  H       3.703734      1.331691     -3.113093
  H       2.307281     -0.527868     -3.857035
  H       0.965720     -2.025064      0.071958
  H      -3.570569      1.464089      0.503378
26
Coordinates from ORCA-job my_molecule E -1757.263868558432
  O      -1.741378      1.088381      2.302710
  Si     -0.288798      0.406007      2.751522
  Si     -3.327827      0.813182      1.824885
  C       1.005740      0.625268      1.378939
  C       2.178508     -0.203320      1.339128
  H       1.108754      1.660183      0.996594
  H       3.132700      0.250774      1.038535
  H       2.240592     -1.062302      2.027728
  Si      1.139296     -0.637212     -0.472045
  O       0.137150     -0.760383     -1.891390
  O       2.368631      0.175978     -1.291634
  Si      2.375284      0.658324     -2.919529
  Si     -1.387883     -1.357176     -2.239717
  H       0.000056      0.226633      0.309885
  H      -4.253121      1.401662      2.852163
  H       0.242922      1.118024      3.961789
  H      -3.585289     -0.665374      1.705827
  H      -0.432768     -1.067518      3.016894
  H      -1.648982     -1.166236     -3.706159
  H      -1.501904     -2.824027     -1.907630
  H      -2.444660     -0.618900     -1.452893
  H       1.281147      1.644718     -3.220941
  H       3.699570      1.346337     -3.108874
  H       2.302797     -0.509597     -3.861110
  H       0.958652     -2.023941      0.064618
  H      -3.559189      1.480517      0.500707
26
Coordinates from ORCA-job my_molecule E -1757.263870901277
  O      -1.737741      1.089357      2.304171
  Si     -0.288475      0.398953      2.751598
  Si     -3.323541      0.821452      1.819977
  C       1.007791      0.621031      1.381130
  C       2.178544     -0.209986      1.336528
  H       1.112950      1.657463      1.003501
  H       3.133445      0.243370      1.037042
  H       2.239457     -1.072034      2.021386
  Si      1.136615     -0.634470     -0.475465
  O       0.133564     -0.752439     -1.894884
  O       2.365605      0.181741     -1.292513
  Si      2.371544      0.670939     -2.918381
  Si     -1.387030     -1.367085     -2.233212
  H       0.000427      0.229849      0.310248
  H      -4.250378      1.406517      2.847803
  H       0.244060      1.102621      3.966384
  H      -3.584676     -0.655685      1.691524
  H      -0.438455     -1.075353      3.009233
  H      -1.639641     -1.225494     -3.706643
  H      -1.496603     -2.822629     -1.852791
  H      -2.451988     -0.608146     -1.477944
  H       1.277593      1.659056     -3.214617
  H       3.696047      1.359138     -3.105561
  H       2.298042     -0.492914     -3.864901
  H       0.951723     -2.022285      0.057453
  H      -3.548881      1.497032      0.498935
26
Coordinates from ORCA-job my_molecule E -1757.263872140925
  O      -1.735534      1.089190      2.304615
  Si     -0.288382      0.393931      2.751421
  Si     -3.321199      0.826186      1.817294
  C       1.009238      0.618685      1.382697
  C       2.178776     -0.213686      1.334869
  H       1.115572      1.656229      1.008458
  H       3.134072      0.239257      1.035998
  H       2.239079     -1.077785      2.017187
  Si      1.134998     -0.632263     -0.477593
  O       0.131253     -0.746964     -1.896962
  O       2.363924      0.185398     -1.293243
  Si      2.369425      0.678303     -2.918021
  Si     -1.386533     -1.372482     -2.228938
  H       0.000854      0.232534      0.310374
  H      -4.248475      1.408136      2.846495
  H       0.244075      1.091898      3.969534
  H      -3.584621     -0.649934      1.681888
  H      -0.441835     -1.080993      3.003420
  H      -1.631864     -1.265362     -3.706476
  H      -1.494205     -2.819038     -1.814836
  H      -2.457474     -0.599039     -1.497377
  H       1.275861      1.667718     -3.211229
  H       3.694259      1.366141     -3.104229
  H       2.294849     -0.483307     -3.867200
  H       0.947432     -2.020756      0.052901
  H      -3.543546      1.508003      0.498952
26
Coordinates from ORCA-job my_molecule E -1757.263872999854
  O      -1.734481      1.088329      2.304342
  Si     -0.288423      0.390787      2.751094
  Si     -3.320473      0.828169      1.816615
  C       1.010107      0.617705      1.383604
  C       2.179070     -0.215259      1.333937
  H       1.116914      1.655972      1.011504
  H       3.134543      0.237538      1.035396
  H       2.239145     -1.080510      2.014808
  Si      1.134331     -0.630688     -0.478646
  O       0.130165     -0.743782     -1.897941
  O       2.363282      0.187424     -1.293776
  Si      2.368581      0.681687     -2.918167
  Si     -1.386257     -1.374438     -2.226798
  H       0.001288      0.234504      0.310344
  H      -4.247197      1.408050      2.847486
  H       0.243471      1.085459      3.971341
  H      -3.585258     -0.647339      1.677168
  H      -0.443351     -1.084582      2.999540
  H      -1.625484     -1.289126     -3.706762
  H      -1.494257     -2.814771     -1.791429
  H      -2.461091     -0.591172     -1.511697
  H       1.275379      1.671867     -3.210085
  H       3.693708      1.369022     -3.104180
  H       2.293199     -0.479079     -3.868308
  H       0.945294     -2.019562      0.050457
  H      -3.542206      1.513794      0.500152
26
Coordinates from ORCA-job my_molecule E -1757.263873770446
  O      -1.733830      1.086873      2.303773
  Si     -0.288552      0.387838      2.750645
  Si     -3.320516      0.829130      1.817112
  C       1.010825      0.617166      1.384356
  C       2.179395     -0.216193      1.333089
  H       1.117871      1.656139      1.014281
  H       3.134982      0.236591      1.034879
  H       2.239366     -1.082441      2.012692
  Si      1.133996     -0.628990     -0.479483
  O       0.129496     -0.740888     -1.898741
  O       2.363029      0.189235     -1.294357
  Si      2.368313      0.683896     -2.918653
  Si     -1.385980     -1.375041     -2.225432
  H       0.001818      0.236582      0.310189
  H      -4.245926      1.407096      2.850245
  H       0.242473      1.079674      3.972891
  H      -3.586523     -0.645845      1.674311
  H      -0.444249     -1.087997      2.995776
  H      -1.617819     -1.311388     -3.707680
  H      -1.496005     -2.808751     -1.769009
  H      -2.464523     -0.581240     -1.527889
  H       1.275602      1.674771     -3.210014
  H       3.693814      1.370495     -3.104761
  H       2.292117     -0.476592     -3.869062
  H       0.943682     -2.018226      0.048334
  H      -3.542854      1.518107      0.502510
26
Coordinates from ORCA-job my_molecule E -1757.263874316219
  O      -1.733843      1.085538      2.303269
  Si     -0.288672      0.386459      2.750355
  Si     -3.321144      0.828554      1.818301
  C       1.011135      0.617305      1.384716
  C       2.179591     -0.216152      1.332761
  H       1.118137      1.656629      1.015623
  H       3.135202      0.236685      1.034693
  H       2.239562     -1.082877      2.011749
  Si      1.133983     -0.627850     -0.479838
  O       0.129391     -0.739333     -1.899116
  O       2.363201      0.190105     -1.294721
  Si      2.368737      0.684061     -2.919259
  Si     -1.385960     -1.374070     -2.225269
  H       0.002153      0.237848      0.310008
  H      -4.245352      1.405228      2.853235
  H       0.241594      1.077212      3.973551
  H      -3.587414     -0.646226      1.673920
  H      -0.444120     -1.089652      2.993945
  H      -1.612593     -1.322702     -3.708813
  H      -1.498737     -2.803742     -1.756893
  H      -2.466263     -0.573376     -1.538517
  H       1.276576      1.675414     -3.211039
  H       3.694619      1.369850     -3.105684
  H       2.291944     -0.476813     -3.869146
  H       0.943194     -2.017299      0.047346
  H      -3.544918      1.519203      0.504824
26
Coordinates from ORCA-job my_molecule E -1757.263874907260
  O      -1.734155      1.083410      2.302408
  Si     -0.288817      0.385050      2.749981
  Si     -3.322413      0.826746      1.820548
  C       1.011457      0.617799      1.385081
  C       2.179825     -0.215709      1.332456
  H       1.118330      1.657513      1.017074
  H       3.135450      0.237224      1.034550
  H       2.239807     -1.082958      2.010768
  Si      1.134075     -0.626234     -0.480184
  O       0.129432     -0.737322     -1.899527
  O       2.363642      0.191143     -1.295162
  Si      2.369757      0.683397     -2.920257
  Si     -1.386074     -1.371688     -2.225649
  H       0.002563      0.239519      0.309767
  H      -4.244734      1.401542      2.858213
  H       0.240280      1.075054      3.974118
  H      -3.588542     -0.647901      1.674437
  H      -0.443343     -1.091390      2.992135
  H      -1.605196     -1.336230     -3.710808
  H      -1.503933     -2.795849     -1.741838
  H      -2.468182     -0.561255     -1.553473
  H       1.278619      1.675519     -3.213225
  H       3.696321      1.367714     -3.107300
  H       2.291997     -0.478426     -3.868900
  H       0.942841     -2.015965      0.046225
  H      -3.549006      1.519296      0.508563
26
Coordinates from ORCA-job my_molecule E -1757.263875268985
  O      -1.734540      1.081985      2.301702
  Si     -0.288853      0.384745      2.749833
  Si     -3.323444      0.824841      1.822326
  C       1.011562      0.618299      1.385174
  C       2.179917     -0.215225      1.332383
  H       1.118363      1.658163      1.017557
  H       3.135546      0.237759      1.034571
  H       2.239876     -1.082636      2.010475
  Si      1.134220     -0.625308     -0.480242
  O       0.129587     -0.736252     -1.899633
  O       2.364034      0.191613     -1.295344
  Si      2.370651      0.682297     -2.920935
  Si     -1.386234     -1.369463     -2.226439
  H       0.002755      0.240391      0.309687
  H      -4.244497      1.398295      2.861866
  H       0.239470      1.075066      3.974134
  H      -3.588972     -0.649844      1.675437
  H      -0.442375     -1.091808      2.991914
  H      -1.600658     -1.342370     -3.712470
  H      -1.508156     -2.790540     -1.734557
  H      -2.468894     -0.553124     -1.562428
  H       1.280315      1.674951     -3.215091
  H       3.697733      1.365487     -3.108485
  H       2.292216     -0.480409     -3.868433
  H       0.942834     -2.015189      0.045765
  H      -3.552455      1.518276      0.511235
