26
Coordinates from ORCA-job my_molecule_NEB-HEI_converged E -1757.266013253677
  O          -1.88690071954770      0.29930709889875      1.86732831569820
  Si         -0.45317297548744      0.75288181623468      2.60624863605135
  Si         -3.23818985819588     -0.68479780260294      2.07395496201324
  C           0.98515607453412      1.06707796234273      1.39306411134770
  C           2.11314794382478      0.27197815613552      1.40220114485332
  H           1.03775818209243      2.08255958383886      0.95236024834130
  H           3.04480419357884      0.60671229856890      0.93135807531808
  H           2.13441028129713     -0.65597379207814      1.98793835814859
  Si          0.90576972253234     -0.35839411914230     -0.59855438695522
  O           0.03651425658167     -0.32757509138954     -2.06320603138058
  O           2.44678766067308     -0.24461151066564     -1.29993873955300
  Si          2.75612006127499     -0.41930642298269     -2.97449249789539
  Si         -1.54222662986501      0.19584635990362     -2.26986392318497
  H          -0.05140534990954      0.67295403623606      0.03912762979950
  H          -4.41948368874033      0.14796391775207      2.49043040942239
  H          -0.65337236345869      2.04498533974306      3.35151284704334
  H          -2.97151049823852     -1.72024742686345      3.13588833290332
  H           0.00812007634889     -0.34236961564681      3.52421466520963
  H          -1.69460960259687      0.45035625148979     -3.73547905201193
  H          -2.50481034671230     -0.86136827700987     -1.80428294949999
  H          -1.83797511686169      1.46166471152202     -1.50072754206276
  H           2.31832919244657      0.78825678253782     -3.75639473557452
  H           4.24944452171437     -0.55389635479628     -3.11979237081832
  H           2.11783518729806     -1.66042293227167     -3.53536004613489
  H           0.64231268645828     -1.64315691196384      0.12836532756253
  H          -3.54285289104159     -1.37042405779072      0.77409921135906
