26
Coordinates from ORCA-job my_molecule_im9 E -1757.381892156518
  O          -1.53070726803142     -0.19135386852864      1.45797149185180
  Si         -0.67684994428798      0.77706935330042      2.55018878055981
  Si         -2.70169277379118     -1.39985298701631      1.52443904797960
  C           0.77885591437802      1.54150421469610      1.63148440258373
  C           1.72534343825000      0.55579050059867      0.91575587375941
  H           1.33419797801238      2.14473855217578      2.38607216244122
  H           2.61817768600732      1.09194095065100      0.52407525799678
  H           2.12595780016066     -0.20550306479321      1.62213705625072
  Si          1.02329199353058     -0.35416927380896     -0.58282092707773
  O          -0.01465230604521      0.65139323923610     -1.42689424825665
  O           2.33829239532783     -0.68762872578306     -1.56457026023552
  Si          2.68713828053910     -1.26341103267329     -3.09938832509504
  Si         -1.61148693968895      1.04175055320389     -1.73698838240670
  H           0.36660308924627      2.27771939135860      0.90726923975405
  H          -4.07517410999763     -0.79235915731451      1.44001406332719
  H          -1.57640889596086      1.85580008945298      3.09550705950850
  H          -2.58201998499071     -2.16556421833721      2.81659950430358
  H          -0.20808115923031     -0.08723046227728      3.69518036242791
  H          -1.69817578620267      1.54721589507684     -3.14956848100130
  H          -2.51059194281796     -0.15816670602179     -1.59538877672915
  H          -2.07800385851235      2.12682044590349     -0.80540314291684
  H           2.44757444111902     -0.20005634011359     -4.13639423096893
  H           4.13510169285831     -1.66040359472340     -3.12421786983559
  H           1.83816893897407     -2.46461190789643     -3.42930622386214
  H           0.33298552866817     -1.65336975830151     -0.28158365643127
  H          -2.48784420751451     -2.32806208806470      0.36583022207255
