26
Coordinates from ORCA-job my_molecule_im4 E -1757.311406666109
  O          -1.64475287330575      0.09041053506261      1.60777126075052
  Si         -0.43780862813122      0.59507197662785      2.69739350070240
  Si         -3.13612552040046     -0.65326189093727      1.90802034564773
  C           1.04555995372490      1.47357315164872      1.93949534136905
  C           2.21830455121174      0.87331717003693      1.61584526702339
  H           0.96905112810856      2.55968810680021      1.76201277686065
  H           3.05706848322540      1.42403142401445      1.16330825475494
  H           2.36740612905791     -0.21625038230754      1.71089998393016
  Si          0.65011259376278     -0.91391536501989     -1.02600158478011
  O          -0.47804967617147     -0.34373240288254     -2.11637837000394
  O           2.16583752272886     -0.97003529100114     -1.71723995060901
  Si          3.06745172930277     -0.70126441948475     -3.09871151002885
  Si         -1.94102059346541      0.47662124791797     -2.10664140050948
  H           0.68321564748048      0.04626546432612      0.08409792569692
  H          -4.13416663633293      0.33595312490478      2.45076283406437
  H          -1.07537246240109      1.56992946452173      3.64968016470676
  H          -2.98035856525972     -1.76806949614482      2.91087458579675
  H           0.04301674340560     -0.63749528745126      3.41458249690614
  H          -2.17572152021341      0.92018868548063     -3.51756027964491
  H          -3.04143789459265     -0.44804923275171     -1.66525719118522
  H          -1.94307067058603      1.68063048233946     -1.19799084234931
  H           2.78583544526432      0.66455262658641     -3.66295169624632
  H           4.51988432228798     -0.79353062653364     -2.72553600020844
  H           2.76128999626236     -1.74062196743262     -4.14129975947427
  H           0.32028263335439     -2.30022272654105     -0.56492620077973
  H          -3.66643183831789     -1.22378437177966      0.62575004760983
