26
Coordinates from ORCA-job my_molecule_MEP_ALL E -1757.328557421627
  O      -1.845706      0.529372      1.580749
  Si     -0.340506      0.389943      2.325301
  Si     -3.470566      0.551388      1.998738
  C       0.909653      1.476454      1.453733
  C       2.144539      1.054214      1.112262
  H       0.641324      2.531734      1.255479
  H       2.890276      1.724486      0.649950
  H       2.472343      0.013198      1.284131
  Si      0.908505     -1.997946     -1.356688
  O      -0.432876     -1.131278     -0.878286
  O       1.860444     -1.113469     -2.400156
  Si      2.996650      0.104653     -2.566457
  Si     -1.848984     -0.505833     -1.539255
  H       1.677416     -2.327971     -0.112517
  H      -3.656991      1.235870      3.328365
  H      -0.505750      0.847380      3.755385
  H      -4.017915     -0.847344      2.090754
  H       0.137438     -1.035406      2.318523
  H      -1.978320     -0.963651     -2.970224
  H      -3.032398     -1.018605     -0.770411
  H      -1.815201      0.993246     -1.507057
  H       2.340649      1.455571     -2.484937
  H       4.047325      0.002807     -1.491416
  H       3.649507     -0.050373     -3.909342
  H       0.484582     -3.226418     -2.103731
  H      -4.215440      1.307978      0.937107
26
Coordinates from ORCA-job my_molecule_MEP_ALL E -1757.312507103034
  O      -1.850888      0.462099      1.589800
  Si     -0.366472      0.484866      2.395542
  Si     -3.467473      0.232453      1.989918
  C       0.919977      1.484787      1.471281
  C       2.127377      1.029986      1.065617
  H       0.746114      2.576539      1.410862
  H       2.881361      1.672367      0.566998
  H       2.522278      0.063389      1.426851
  Si      0.846355     -1.864175     -1.234255
  O      -0.403735     -0.809458     -0.965151
  O       1.890559     -1.156086     -2.307447
  Si      3.059497     -0.045788     -2.716226
  Si     -1.809474     -0.201291     -1.643323
  H       1.520621     -2.190492      0.213549
  H      -3.811148      0.996995      3.240710
  H      -0.620532      1.081910      3.760183
  H      -3.799420     -1.220489      2.201737
  H       0.148095     -0.907337      2.610486
  H      -1.899569     -0.481673     -3.122022
  H      -2.961823     -0.906088     -0.988925
  H      -1.824427      1.281123     -1.427667
  H       2.475941      1.338105     -2.752299
  H       4.188254     -0.155731     -1.729730
  H       3.503443     -0.457414     -4.088911
  H       0.340641     -3.116320     -1.893604
  H      -4.355554      0.807721      0.926027
26
Coordinates from ORCA-job my_molecule_MEP_ALL E -1757.275728669060
  O      -1.859556      0.382832      1.592488
  Si     -0.408909      0.568975      2.452612
  Si     -3.440962     -0.058481      1.974912
  C       0.930537      1.480261      1.502118
  C       2.132016      0.999039      1.080465
  H       0.861301      2.585068      1.563081
  H       2.873214      1.604294      0.511549
  H       2.589932      0.134781      1.596291
  Si      0.771592     -1.707552     -1.171433
  O      -0.359816     -0.506968     -1.079565
  O       1.955526     -1.168016     -2.173767
  Si      3.109125     -0.209542     -2.870754
  Si     -1.779513      0.087561     -1.723113
  H       1.365485     -1.989780      0.468243
  H      -3.949802      0.798998      3.102970
  H      -0.771439      1.294087      3.730291
  H      -3.586626     -1.506633      2.360634
  H       0.143094     -0.748095      2.907618
  H      -1.842063     -0.012056     -3.225186
  H      -2.892783     -0.774720     -1.208317
  H      -1.860825      1.524680     -1.314800
  H       2.586849      1.189659     -3.026268
  H       4.321640     -0.339414     -1.995363
  H       3.316053     -0.849538     -4.213154
  H       0.234723     -2.995027     -1.730755
  H      -4.438792      0.215586      0.889201
26
Coordinates from ORCA-job my_molecule_MEP_ALL E -1757.234012755546
  O      -1.878703      0.325193      1.606963
  Si     -0.461471      0.638738      2.508266
  Si     -3.403418     -0.320263      1.954498
  C       0.961786      1.466173      1.582359
  C       2.194271      0.998986      1.197781
  H       0.959956      2.567274      1.716137
  H       2.892500      1.538472      0.511274
  H       2.692844      0.183602      1.753219
  Si      0.701647     -1.548620     -1.216646
  O      -0.324831     -0.265972     -1.235585
  O       2.058534     -1.144241     -2.025652
  Si      3.135741     -0.386553     -3.021035
  Si     -1.769587      0.343172     -1.784492
  H       1.166632     -1.621935      0.604232
  H      -4.106848      0.632344      2.883707
  H      -0.930842      1.463738      3.689879
  H      -3.394426     -1.694186      2.578216
  H       0.101176     -0.591402      3.160035
  H      -1.819270      0.418810     -3.286495
  H      -2.860250     -0.608304     -1.407709
  H      -1.893073      1.704892     -1.185596
  H       2.667450      1.012475     -3.296116
  H       4.435052     -0.533972     -2.286147
  H       3.096650     -1.221306     -4.269881
  H       0.170215     -2.906925     -1.562358
  H      -4.391736     -0.450193      0.831146
26
Coordinates from ORCA-job my_molecule_MEP_ALL E -1757.191371041660
  O      -1.929513      0.303290      1.674900
  Si     -0.504953      0.685044      2.573037
  Si     -3.386320     -0.522050      1.940269
  C       1.064897      1.467182      1.762738
  C       2.359570      1.061922      1.458299
  H       1.041869      2.568658      1.866226
  H       2.975573      1.492259      0.618401
  H       2.784474      0.111754      1.835089
  Si      0.679522     -1.453969     -1.327949
  O      -0.359867     -0.222037     -1.557099
  O       2.172190     -1.166824     -1.931035
  Si      3.138053     -0.548803     -3.127455
  Si     -1.811243      0.502555     -1.851297
  H       0.880554     -0.825240      0.469217
  H      -4.258087      0.470582      2.657928
  H      -1.035818      1.559624      3.684583
  H      -3.260518     -1.790740      2.752156
  H       0.050495     -0.529499      3.273545
  H      -1.864395      0.718392     -3.335764
  H      -2.897889     -0.468753     -1.527826
  H      -1.904999      1.787841     -1.098281
  H       2.715502      0.839616     -3.508670
  H       4.499014     -0.705240     -2.519655
  H       2.922194     -1.501087     -4.270513
  H       0.163017     -2.859333     -1.291657
  H      -4.233322     -0.975144      0.780812
26
Coordinates from ORCA-job my_molecule_MEP_ALL E -1757.161058969567
  O      -1.920012      0.217709      1.722857
  Si     -0.495080      0.658784      2.595116
  Si     -3.370724     -0.621895      1.929824
  C       1.185362      1.465426      1.965442
  C       2.458794      0.996855      1.612275
  H       1.135892      2.572574      1.980209
  H       3.117585      1.435182      0.798191
  H       2.665529     -0.085988      1.732953
  Si      0.718271     -1.336690     -1.140578
  O      -0.463101     -0.413836     -1.830260
  O       2.214611     -1.213894     -1.829792
  Si      3.106919     -0.642014     -3.125235
  Si     -1.844026      0.519596     -1.914130
  H       0.671527      0.352069      0.085180
  H      -4.302200      0.383450      2.547535
  H      -1.050228      1.561073      3.668884
  H      -3.187151     -1.834444      2.806387
  H       0.061287     -0.593996      3.204571
  H      -1.914265      0.821402     -3.381965
  H      -2.947129     -0.429637     -1.572622
  H      -1.988375      1.802190     -1.130430
  H       2.741745      0.734579     -3.611784
  H       4.506337     -0.790778     -2.606972
  H       2.828077     -1.627192     -4.225240
  H       0.192660     -2.748246     -1.035692
  H      -4.122307     -1.182279      0.755275
26
Coordinates from ORCA-job my_molecule_MEP_ALL E -1757.105294522844
  O      -1.801009      0.067002      1.599545
  Si     -0.482687      0.622247      2.533054
  Si     -3.271860     -0.721821      1.874136
  C       1.157499      1.396229      1.891815
  C       2.349783      0.792782      1.483375
  H       1.286364      2.464827      2.175412
  H       3.147551      1.201812      0.795168
  H       2.425586     -0.311532      1.559382
  Si      0.782788     -1.047893     -0.809705
  O      -0.410418     -0.256205     -1.642703
  O       2.190692     -1.059187     -1.689091
  Si      3.041318     -0.727381     -3.091646
  Si     -1.841913      0.543435     -1.915453
  H       0.598255      1.370653     -0.053799
  H      -4.266745      0.287000      2.380548
  H      -1.089604      1.566486      3.547465
  H      -3.108595     -1.854447      2.855560
  H       0.036940     -0.576876      3.276310
  H      -1.876070      0.833875     -3.388752
  H      -2.915141     -0.443109     -1.596673
  H      -2.170757      1.821775     -1.177826
  H       2.740951      0.609723     -3.710749
  H       4.469584     -0.914397     -2.673237
  H       2.662835     -1.776926     -4.098396
  H       0.270983     -2.479467     -0.836470
  H      -3.926329     -1.408605      0.712729
26
Coordinates from ORCA-job my_molecule_MEP_ALL E -1757.218182011039
  O      -1.702418     -0.029174      1.525245
  Si     -0.510405      0.649228      2.524547
  Si     -3.141529     -0.876857      1.788624
  C       1.015454      1.398348      1.705845
  C       2.060510      0.535496      1.092919
  H       1.424882      2.248445      2.305375
  H       2.988582      1.039411      0.710401
  H       2.329074     -0.369519      1.629257
  Si      0.892885     -0.806507     -0.642684
  O      -0.266844      0.061807     -1.468081
  O       2.219077     -0.923396     -1.616624
  Si      2.957536     -0.857331     -3.099276
  Si     -1.769968      0.660533     -1.867763
  H       0.511017      1.988214      0.177730
  H      -4.250459      0.082393      2.123280
  H      -1.183487      1.662729      3.413959
  H      -3.003856     -1.889720      2.895776
  H      -0.010736     -0.462356      3.419233
  H      -1.803582      0.957755     -3.340293
  H      -2.806022     -0.381530     -1.596303
  H      -2.192961      1.892322     -1.121104
  H       2.689746      0.436381     -3.816850
  H       4.406989     -1.105270     -2.800807
  H       2.423111     -1.979441     -3.942191
  H       0.292922     -2.209673     -0.630711
  H      -3.569515     -1.722286      0.630495
26
Coordinates from ORCA-job my_molecule_MEP_ALL E -1757.326032437975
  O      -1.611864     -0.106196      1.488170
  Si     -0.571777      0.713343      2.542523
  Si     -2.963050     -1.099660      1.661176
  C       0.906665      1.459650      1.637124
  C       1.867078      0.481244      0.963048
  H       1.445971      2.117963      2.374786
  H       2.797850      0.995935      0.602207
  H       2.213447     -0.327644      1.636011
  Si      0.958063     -0.586812     -0.600211
  O      -0.122697      0.385355     -1.417712
  O       2.274738     -0.823658     -1.581127
  Si      2.826250     -1.072122     -3.127842
  Si     -1.674196      0.858608     -1.799125
  H       0.451569      2.214967      0.564459
  H      -4.208597     -0.267241      1.788111
  H      -1.344037      1.786507      3.261146
  H      -2.846966     -1.983026      2.875513
  H      -0.091499     -0.284913      3.570655
  H      -1.729831      1.235473     -3.252287
  H      -2.664328     -0.247163     -1.583147
  H      -2.114766      2.030979     -0.971720
  H       2.593942      0.141622     -3.983025
  H       4.283083     -1.396889     -2.979858
  H       2.103119     -2.246976     -3.723322
  H       0.289922     -1.939716     -0.446556
  H      -3.068089     -2.039630      0.501002
26
Coordinates from ORCA-job my_molecule_MEP_ALL E -1757.381892156518
  O      -1.534267     -0.161608      1.457812
  Si     -0.655963      0.778756      2.555119
  Si     -2.735021     -1.340837      1.517968
  C       0.817907      1.511959      1.639963
  C       1.739113      0.507145      0.917874
  H       1.388506      2.096694      2.397704
  H       2.644853      1.023110      0.528760
  H       2.120931     -0.268029      1.619532
  Si      1.013825     -0.376185     -0.585541
  O       0.000918      0.659897     -1.423049
  O       2.319583     -0.736613     -1.570069
  Si      2.653177     -1.311913     -3.108449
  Si     -1.585799      1.091814     -1.729824
  H       0.423819      2.262460      0.920332
  H      -4.092923     -0.698759      1.437983
  H      -1.528017      1.876382      3.107315
  H      -2.633874     -2.116845      2.805550
  H      -0.208369     -0.103662      3.694733
  H      -1.660531      1.607548     -3.139365
  H      -2.514509     -0.086066     -1.594662
  H      -2.024603      2.182698     -0.791612
  H       2.439738     -0.236865     -4.139063
  H       4.090740     -1.744781     -3.136534
  H       1.774321     -2.489564     -3.444836
  H       0.291443     -1.659463     -0.291460
  H      -2.544997     -2.267275      0.353817
26
Coordinates from ORCA-job my_molecule_MEP_ALL E -1757.328557421627
  O      -1.845706      0.529372      1.580749
  Si     -0.340506      0.389943      2.325301
  Si     -3.470566      0.551388      1.998738
  C       0.909653      1.476454      1.453733
  C       2.144539      1.054214      1.112262
  H       0.641324      2.531734      1.255479
  H       2.890276      1.724486      0.649950
  H       2.472343      0.013198      1.284131
  Si      0.908505     -1.997946     -1.356688
  O      -0.432876     -1.131278     -0.878286
  O       1.860444     -1.113469     -2.400156
  Si      2.996650      0.104653     -2.566457
  Si     -1.848984     -0.505833     -1.539255
  H       1.677416     -2.327971     -0.112517
  H      -3.656991      1.235870      3.328365
  H      -0.505750      0.847380      3.755385
  H      -4.017915     -0.847344      2.090754
  H       0.137438     -1.035406      2.318523
  H      -1.978320     -0.963651     -2.970224
  H      -3.032398     -1.018605     -0.770411
  H      -1.815201      0.993246     -1.507057
  H       2.340649      1.455571     -2.484937
  H       4.047325      0.002807     -1.491416
  H       3.649507     -0.050373     -3.909342
  H       0.484582     -3.226418     -2.103731
  H      -4.215440      1.307978      0.937107
26
Coordinates from ORCA-job my_molecule_MEP_ALL E -1757.315348958262
  O      -1.851238      0.461008      1.589332
  Si     -0.366930      0.484926      2.398396
  Si     -3.468335      0.230122      1.991013
  C       0.922188      1.487051      1.473999
  C       2.129617      1.031356      1.072414
  H       0.745303      2.576373      1.407878
  H       2.879736      1.671845      0.567047
  H       2.520937      0.061280      1.424240
  Si      0.849962     -1.865374     -1.221638
  O      -0.403310     -0.805361     -0.966038
  O       1.891236     -1.158722     -2.304016
  Si      3.060035     -0.050188     -2.719659
  Si     -1.809541     -0.197553     -1.643363
  H       1.512674     -2.184082      0.202846
  H      -3.812385      0.993550      3.239710
  H      -0.622552      1.085804      3.759285
  H      -3.795624     -1.224736      2.203534
  H       0.148101     -0.906035      2.614016
  H      -1.897719     -0.474990     -3.123637
  H      -2.961990     -0.903064     -0.992154
  H      -1.825945      1.284729     -1.425994
  H       2.478403      1.336602     -2.755913
  H       4.191106     -0.156833     -1.733797
  H       3.502366     -0.461576     -4.090919
  H       0.339611     -3.114492     -1.890526
  H      -4.355705      0.798360      0.923944
26
Coordinates from ORCA-job my_molecule_MEP_ALL E -1757.283868959177
  O      -1.859922      0.380849      1.591260
  Si     -0.408990      0.568292      2.458175
  Si     -3.443135     -0.060433      1.977687
  C       0.935637      1.483449      1.508089
  C       2.135112      1.003014      1.092319
  H       0.857567      2.585734      1.555373
  H       2.871239      1.604911      0.514248
  H       2.587727      0.128328      1.590808
  Si      0.778677     -1.709303     -1.149997
  O      -0.359332     -0.504005     -1.081962
  O       1.955908     -1.171012     -2.169548
  Si      3.108950     -0.216157     -2.874296
  Si     -1.780912      0.091214     -1.723327
  H       1.354610     -1.979980      0.447984
  H      -3.951169      0.795679      3.100833
  H      -0.773752      1.298508      3.728177
  H      -3.581615     -1.509911      2.363785
  H       0.141845     -0.747736      2.910257
  H      -1.840070     -0.004876     -3.226618
  H      -2.894010     -0.770808     -1.211222
  H      -1.862931      1.527735     -1.312853
  H       2.589945      1.187866     -3.030283
  H       4.325360     -0.339641     -2.001188
  H       3.315216     -0.853366     -4.214970
  H       0.233376     -2.992782     -1.727809
  H      -4.435331      0.204433      0.885079
26
Coordinates from ORCA-job my_molecule_MEP_ALL E -1757.249012048156
  O      -1.877833      0.321875      1.605404
  Si     -0.460047      0.636315      2.515591
  Si     -3.406422     -0.320500      1.958966
  C       0.969708      1.470572      1.590591
  C       2.194354      1.001823      1.208725
  H       0.953781      2.570529      1.704367
  H       2.891280      1.542185      0.518580
  H       2.689421      0.173974      1.746295
  Si      0.711880     -1.548771     -1.180237
  O      -0.325777     -0.266534     -1.242965
  O       2.057289     -1.148091     -2.023492
  Si      3.135553     -0.392920     -3.023341
  Si     -1.773222      0.345479     -1.786353
  H       1.156922     -1.612845      0.576769
  H      -4.108094      0.629898      2.882177
  H      -0.931578      1.467223      3.687254
  H      -3.389675     -1.694936      2.580426
  H       0.098780     -0.593579      3.159771
  H      -1.818387      0.422978     -3.287891
  H      -2.862534     -0.606405     -1.408143
  H      -1.895060      1.706276     -1.184981
  H       2.670390      1.011506     -3.298779
  H       4.438046     -0.532603     -2.291062
  H       3.097707     -1.222604     -4.271671
  H       0.169273     -2.904831     -1.562218
  H      -4.385754     -0.456012      0.826216
26
Coordinates from ORCA-job my_molecule_MEP_ALL E -1757.215709157468
  O      -1.923128      0.299687      1.672079
  Si     -0.500357      0.678469      2.578761
  Si     -3.387617     -0.520147      1.945459
  C       1.075162      1.473996      1.770887
  C       2.346320      1.054345      1.458443
  H       1.036095      2.573502      1.854223
  H       2.976380      1.499714      0.631364
  H       2.779234      0.106557      1.829558
  Si      0.686787     -1.437992     -1.274950
  O      -0.362293     -0.224602     -1.570507
  O       2.168350     -1.171557     -1.930183
  Si      3.139395     -0.554964     -3.129170
  Si     -1.814879      0.501502     -1.857214
  H       0.878091     -0.828186      0.443052
  H      -4.259662      0.468592      2.657397
  H      -1.035425      1.562867      3.681742
  H      -3.256901     -1.789763      2.753410
  H       0.047419     -0.531706      3.271808
  H      -1.866182      0.720663     -3.337572
  H      -2.900556     -0.469069     -1.526936
  H      -1.906852      1.787812     -1.099056
  H       2.717731      0.838923     -3.509647
  H       4.501338     -0.702817     -2.522816
  H       2.924597     -1.501098     -4.272098
  H       0.164401     -2.858422     -1.294422
  H      -4.227447     -0.976307      0.776387
26
Coordinates from ORCA-job my_molecule_MEP_ALL E -1757.182170503517
  O      -1.907604      0.214629      1.714234
  Si     -0.490478      0.651965      2.598334
  Si     -3.368486     -0.622225      1.933705
  C       1.196524      1.469096      1.959765
  C       2.434117      0.987306      1.605420
  H       1.136050      2.572470      1.977879
  H       3.116367      1.435022      0.811091
  H       2.657480     -0.090952      1.727327
  Si      0.715203     -1.295524     -1.111111
  O      -0.464820     -0.412056     -1.835420
  O       2.210068     -1.212252     -1.823587
  Si      3.106689     -0.651041     -3.124577
  Si     -1.843938      0.512432     -1.921102
  H       0.673005      0.355294      0.074270
  H      -4.302609      0.379613      2.543087
  H      -1.050990      1.563959      3.663157
  H      -3.183533     -1.833510      2.809447
  H       0.058032     -0.594241      3.207818
  H      -1.914835      0.822211     -3.383094
  H      -2.948826     -0.430518     -1.572250
  H      -1.990716      1.799982     -1.131986
  H       2.742618      0.730252     -3.612724
  H       4.507187     -0.791647     -2.610353
  H       2.826255     -1.631669     -4.222414
  H       0.199585     -2.740925     -1.027094
  H      -4.112344     -1.187670      0.750176
26
Coordinates from ORCA-job my_molecule_MEP_ALL E -1757.118374532781
  O      -1.795871      0.067543      1.594477
  Si     -0.481829      0.617635      2.540464
  Si     -3.272096     -0.722816      1.877328
  C       1.174383      1.398186      1.889674
  C       2.338439      0.794944      1.489031
  H       1.281441      2.468264      2.166611
  H       3.144195      1.206034      0.806344
  H       2.421851     -0.311123      1.554548
  Si      0.773412     -1.031162     -0.814749
  O      -0.414728     -0.255878     -1.649540
  O       2.190623     -1.058205     -1.682932
  Si      3.042349     -0.732709     -3.091109
  Si     -1.843016      0.537385     -1.919294
  H       0.598942      1.362583     -0.054552
  H      -4.266644      0.285989      2.378922
  H      -1.089937      1.569683      3.543152
  H      -3.106498     -1.852429      2.858079
  H       0.034953     -0.576321      3.278054
  H      -1.875813      0.832526     -3.389705
  H      -2.917267     -0.445406     -1.596672
  H      -2.168008      1.819773     -1.178379
  H       2.741980      0.608006     -3.709626
  H       4.471107     -0.913510     -2.674511
  H       2.663538     -1.779906     -4.096585
  H       0.275437     -2.479675     -0.828092
  H      -3.920943     -1.409411      0.709062
26
Coordinates from ORCA-job my_molecule_MEP_ALL E -1757.226307713815
  O      -1.706316     -0.024361      1.526546
  Si     -0.511055      0.647968      2.528846
  Si     -3.149779     -0.870116      1.795844
  C       1.013568      1.411274      1.681744
  C       2.064976      0.533498      1.102043
  H       1.413381      2.263562      2.294220
  H       2.990855      1.047472      0.712088
  H       2.338046     -0.368085      1.633748
  Si      0.897604     -0.809452     -0.646070
  O      -0.272647      0.047682     -1.475157
  O       2.220027     -0.931471     -1.620547
  Si      2.963117     -0.854016     -3.098308
  Si     -1.777641      0.651709     -1.871799
  H       0.519744      1.949833      0.197170
  H      -4.251198      0.093917      2.136983
  H      -1.178691      1.659687      3.419208
  H      -3.008211     -1.885651      2.895592
  H      -0.008324     -0.467206      3.411389
  H      -1.806253      0.948626     -3.343874
  H      -2.812899     -0.388402     -1.596330
  H      -2.190063      1.887517     -1.125136
  H       2.694216      0.445611     -3.810292
  H       4.412323     -1.092992     -2.794609
  H       2.438370     -1.969708     -3.951194
  H       0.294144     -2.223078     -0.634720
  H      -3.587293     -1.703817      0.632613
26
Coordinates from ORCA-job my_molecule_MEP_ALL E -1757.335997409466
  O      -1.615580     -0.103123      1.488557
  Si     -0.569841      0.711977      2.542773
  Si     -2.971866     -1.090877      1.668513
  C       0.901784      1.474080      1.612308
  C       1.867321      0.472470      0.958811
  H       1.441157      2.126061      2.367093
  H       2.802428      0.996262      0.604905
  H       2.219733     -0.328746      1.639009
  Si      0.964962     -0.586584     -0.593468
  O      -0.129132      0.370702     -1.419573
  O       2.273373     -0.828594     -1.581705
  Si      2.833497     -1.063664     -3.125566
  Si     -1.681255      0.848030     -1.803211
  H       0.463765      2.188201      0.576668
  H      -4.210632     -0.250697      1.803500
  H      -1.337247      1.781579      3.267610
  H      -2.853742     -1.977375      2.877822
  H      -0.087556     -0.292192      3.563228
  H      -1.732564      1.220629     -3.257291
  H      -2.671108     -0.256245     -1.583776
  H      -2.118295      2.023896     -0.979771
  H       2.599906      0.155569     -3.975111
  H       4.290547     -1.381856     -2.971987
  H       2.120033     -2.234994     -3.734453
  H       0.291998     -1.950590     -0.450904
  H      -3.091685     -2.023918      0.506021
26
Coordinates from ORCA-job my_molecule_MEP_ALL E -1757.381892156518
  O      -1.534387     -0.161669      1.457679
  Si     -0.656511      0.779296      2.554814
  Si     -2.734773     -1.341262      1.518039
  C       0.817233      1.512700      1.639617
  C       1.738844      0.507967      0.917930
  H       1.387558      2.097838      2.397254
  H       2.644466      1.024106      0.528771
  H       2.120826     -0.266881      1.619860
  Si      1.014013     -0.376034     -0.585311
  O       0.000875      0.659481     -1.423242
  O       2.320002     -0.736336     -1.569581
  Si      2.653959     -1.311979     -3.107753
  Si     -1.585943      1.090803     -1.730330
  H       0.422992      2.262864      0.919720
  H      -4.092870     -0.699640      1.437706
  H      -1.528979      1.876806      3.106586
  H      -2.633531     -2.116862      2.805860
  H      -0.208770     -0.102647      3.694739
  H      -1.660674      1.606102     -3.140031
  H      -2.514294     -0.087332     -1.594933
  H      -2.025204      2.181823     -0.792489
  H       2.440300     -0.237301     -4.138707
  H       4.091663     -1.744399     -3.135542
  H       1.775517     -2.490008     -3.443899
  H       0.292005     -1.659456     -0.290940
  H      -2.544317     -2.267980      0.354181
26
Coordinates from ORCA-job my_molecule_MEP_ALL E -1757.328557421627
  O      -1.845706      0.529372      1.580749
  Si     -0.340506      0.389943      2.325301
  Si     -3.470566      0.551388      1.998738
  C       0.909653      1.476454      1.453733
  C       2.144539      1.054214      1.112262
  H       0.641324      2.531734      1.255479
  H       2.890276      1.724486      0.649950
  H       2.472343      0.013198      1.284131
  Si      0.908505     -1.997946     -1.356688
  O      -0.432876     -1.131278     -0.878286
  O       1.860444     -1.113469     -2.400156
  Si      2.996650      0.104653     -2.566457
  Si     -1.848984     -0.505833     -1.539255
  H       1.677416     -2.327971     -0.112517
  H      -3.656991      1.235870      3.328365
  H      -0.505750      0.847380      3.755385
  H      -4.017915     -0.847344      2.090754
  H       0.137438     -1.035406      2.318523
  H      -1.978320     -0.963651     -2.970224
  H      -3.032398     -1.018605     -0.770411
  H      -1.815201      0.993246     -1.507057
  H       2.340649      1.455571     -2.484937
  H       4.047325      0.002807     -1.491416
  H       3.649507     -0.050373     -3.909342
  H       0.484582     -3.226418     -2.103731
  H      -4.215440      1.307978      0.937107
26
Coordinates from ORCA-job my_molecule_MEP_ALL E -1757.317267750986
  O      -1.851426      0.459949      1.589139
  Si     -0.367388      0.485427      2.400670
  Si     -3.468902      0.227543      1.991907
  C       0.923484      1.488858      1.477737
  C       2.132506      1.032984      1.079074
  H       0.744140      2.576631      1.404184
  H       2.878150      1.671424      0.567405
  H       2.519447      0.058555      1.421298
  Si      0.852094     -1.865558     -1.211634
  O      -0.402041     -0.802120     -0.966544
  O       1.891711     -1.161977     -2.299677
  Si      3.060250     -0.054487     -2.722538
  Si     -1.809297     -0.193988     -1.643522
  H       1.505120     -2.177718      0.192550
  H      -3.813596      0.990341      3.239172
  H      -0.624572      1.089763      3.758614
  H      -3.791788     -1.228722      2.205281
  H       0.148168     -0.905100      2.617405
  H      -1.895779     -0.468417     -3.125073
  H      -2.962504     -0.900018     -0.995222
  H      -1.827598      1.288259     -1.424326
  H       2.481056      1.334880     -2.759439
  H       4.193964     -0.157687     -1.737995
  H       3.501612     -0.465599     -4.093242
  H       0.338939     -3.112404     -1.886832
  H      -4.355752      0.789180      0.921607
26
Coordinates from ORCA-job my_molecule_MEP_ALL E -1757.290042048242
  O      -1.859864      0.378817      1.590729
  Si     -0.409240      0.568147      2.462397
  Si     -3.444485     -0.062517      1.979827
  C       0.938315      1.486463      1.515898
  C       2.140091      1.006805      1.103287
  H       0.853175      2.587140      1.546442
  H       2.869194      1.605731      0.517685
  H       2.585165      0.120907      1.584761
  Si      0.784309     -1.709888     -1.130639
  O      -0.357735     -0.502686     -1.083756
  O       1.955747     -1.174804     -2.164130
  Si      3.108280     -0.222280     -2.876907
  Si     -1.781513      0.094291     -1.723532
  H       1.343765     -1.970308      0.426646
  H      -3.952579      0.792987      3.099696
  H      -0.776012      1.303069      3.726513
  H      -3.576650     -1.512837      2.366775
  H       0.140729     -0.748198      2.912667
  H      -1.838016      0.001949     -3.227889
  H      -2.895730     -0.767042     -1.213798
  H      -1.865234      1.530664     -1.311045
  H       2.593347      1.185743     -3.033978
  H       4.329066     -0.339421     -2.007043
  H       3.314924     -0.856916     -4.217287
  H       0.232617     -2.989852     -1.724032
  H      -4.431664      0.194038      0.880713
26
Coordinates from ORCA-job my_molecule_MEP_ALL E -1757.260973544178
  O      -1.876085      0.318330      1.604664
  Si     -0.458998      0.634640      2.521064
  Si     -3.408373     -0.320628      1.962338
  C       0.973675      1.474843      1.600800
  C       2.197715      1.004235      1.217519
  H       0.946819      2.574699      1.691012
  H       2.889348      1.545893      0.527214
  H       2.685217      0.163593      1.738690
  Si      0.721067     -1.547789     -1.144948
  O      -0.325669     -0.268720     -1.249126
  O       2.055262     -1.152427     -2.020111
  Si      3.134308     -0.398745     -3.024271
  Si     -1.775589      0.346715     -1.788000
  H       1.147465     -1.605462      0.547423
  H      -4.109488      0.628421      2.881904
  H      -0.932191      1.470884      3.684998
  H      -3.384998     -1.695401      2.582497
  H       0.096677     -0.596925      3.159552
  H      -1.817511      0.426791     -3.289357
  H      -2.865190     -0.604691     -1.408255
  H      -1.897318      1.707674     -1.184572
  H       2.673706      1.010231     -3.300949
  H       4.441111     -0.530686     -2.295871
  H       3.099399     -1.223588     -4.274104
  H       0.169139     -2.901280     -1.561456
  H      -4.379497     -0.460610      0.821345
26
Coordinates from ORCA-job my_molecule_MEP_ALL E -1757.234591316049
  O      -1.916300      0.294761      1.669936
  Si     -0.496056      0.674134      2.583774
  Si     -3.387517     -0.519059      1.949159
  C       1.078939      1.480459      1.782448
  C       2.340757      1.046244      1.456447
  H       1.030743      2.579225      1.841840
  H       2.976975      1.506350      0.647949
  H       2.772059      0.099144      1.822951
  Si      0.694194     -1.421378     -1.221516
  O      -0.365273     -0.228567     -1.585445
  O       2.164364     -1.176318     -1.927783
  Si      3.138533     -0.561781     -3.128959
  Si     -1.818057      0.500266     -1.863021
  H       0.874543     -0.824696      0.412472
  H      -4.261964      0.466657      2.656655
  H      -1.034866      1.566090      3.678551
  H      -3.252565     -1.788854      2.755405
  H       0.044860     -0.535899      3.270329
  H      -1.868662      0.723918     -3.340434
  H      -2.903902     -0.469086     -1.526296
  H      -1.909434      1.787458     -1.100420
  H       2.720589      0.836655     -3.511186
  H       4.504058     -0.700948     -2.526818
  H       2.926582     -1.502516     -4.274037
  H       0.167248     -2.853843     -1.294154
  H      -4.219848     -0.978414      0.772153
26
Coordinates from ORCA-job my_molecule_MEP_ALL E -1757.194470657021
  O      -1.895790      0.209301      1.704756
  Si     -0.485298      0.647350      2.600762
  Si     -3.363547     -0.622933      1.935542
  C       1.195805      1.473680      1.957854
  C       2.420311      0.974808      1.593208
  H       1.137333      2.572740      1.975751
  H       3.114067      1.432902      0.826378
  H       2.646527     -0.098101      1.720198
  Si      0.714184     -1.255682     -1.079377
  O      -0.467516     -0.408319     -1.841148
  O       2.204835     -1.208554     -1.815836
  Si      3.104761     -0.660179     -3.122181
  Si     -1.845536      0.507412     -1.927360
  H       0.674672      0.361606      0.061068
  H      -4.303020      0.375731      2.537851
  H      -1.051672      1.566876      3.656326
  H      -3.179183     -1.832478      2.813343
  H       0.055079     -0.595744      3.212401
  H      -1.915371      0.823165     -3.385134
  H      -2.950695     -0.431777     -1.572089
  H      -1.993797      1.796656     -1.134556
  H       2.743834      0.724157     -3.614038
  H       4.508152     -0.793503     -2.614311
  H       2.823331     -1.638003     -4.219206
  H       0.208637     -2.727074     -1.015485
  H      -4.100103     -1.194036      0.745281
26
Coordinates from ORCA-job my_molecule_MEP_ALL E -1757.124139667652
  O      -1.791645      0.067388      1.589857
  Si     -0.479066      0.614878      2.545937
  Si     -3.270846     -0.723070      1.879427
  C       1.179745      1.402993      1.893597
  C       2.337918      0.792938      1.490290
  H       1.276593      2.472683      2.156422
  H       3.139733      1.210248      0.819761
  H       2.417347     -0.310033      1.549489
  Si      0.765768     -1.015085     -0.819290
  O      -0.420165     -0.255783     -1.658883
  O       2.190538     -1.056939     -1.677129
  Si      3.042767     -0.737594     -3.089372
  Si     -1.846282      0.533002     -1.923277
  H       0.599790      1.351414     -0.056215
  H      -4.266687      0.285301      2.377526
  H      -1.090294      1.573303      3.538987
  H      -3.104244     -1.850371      2.861162
  H       0.033215     -0.576935      3.280738
  H      -1.875715      0.831038     -3.391119
  H      -2.919807     -0.448073     -1.596675
  H      -2.164595      1.816874     -1.179312
  H       2.743212      0.605681     -3.708151
  H       4.472887     -0.912643     -2.675859
  H       2.664283     -1.783462     -4.094967
  H       0.280600     -2.478005     -0.818543
  H      -3.915052     -1.409749      0.705601
26
Coordinates from ORCA-job my_molecule_MEP_ALL E -1757.233102683807
  O      -1.711304     -0.019351      1.528398
  Si     -0.509692      0.646914      2.531114
  Si     -3.157922     -0.861490      1.803084
  C       1.009490      1.424091      1.658299
  C       2.071934      0.535731      1.110009
  H       1.400304      2.279268      2.280071
  H       2.992446      1.055248      0.715564
  H       2.347675     -0.367561      1.639311
  Si      0.899112     -0.814243     -0.650133
  O      -0.279480      0.031954     -1.483416
  O       2.221234     -0.940320     -1.624648
  Si      2.969754     -0.849382     -3.097867
  Si     -1.784561      0.641357     -1.876112
  H       0.530384      1.907118      0.219478
  H      -4.252215      0.106851      2.152420
  H      -1.173542      1.656628      3.425504
  H      -3.013062     -1.881552      2.895791
  H      -0.005433     -0.473056      3.403109
  H      -1.809495      0.938639     -3.347948
  H      -2.820964     -0.395935     -1.596361
  H      -2.186785      1.882083     -1.129565
  H       2.699204      0.455518     -3.802673
  H       4.418364     -1.079388     -2.787789
  H       2.455160     -1.959224     -3.961430
  H       0.296386     -2.236610     -0.639102
  H      -3.606992     -1.683287      0.634893
26
Coordinates from ORCA-job my_molecule_MEP_ALL E -1757.343933100644
  O      -1.619884     -0.099959      1.489318
  Si     -0.566872      0.711084      2.541398
  Si     -2.981085     -1.080901      1.676149
  C       0.897312      1.486398      1.589536
  C       1.868632      0.466406      0.954794
  H       1.434620      2.133986      2.356361
  H       2.805765      0.995497      0.607706
  H       2.225984     -0.329525      1.642545
  Si      0.970034     -0.588318     -0.588105
  O      -0.135631      0.355149     -1.421143
  O       2.272453     -0.833907     -1.582313
  Si      2.841322     -1.054347     -3.123622
  Si     -1.687789      0.836288     -1.807326
  H       0.476748      2.159720      0.590228
  H      -4.212895     -0.232964      1.820112
  H      -1.330249      1.776584      3.274913
  H      -2.860897     -1.971548      2.880485
  H      -0.083009     -0.299884      3.555127
  H      -1.735510      1.205063     -3.262638
  H      -2.678640     -0.265921     -1.584422
  H      -2.121741      2.016561     -0.988118
  H       2.606376      0.170302     -3.966481
  H       4.298651     -1.365741     -2.963720
  H       2.138045     -2.222414     -3.746635
  H       0.295171     -1.960728     -0.455093
  H      -3.116910     -2.006880      0.510944
26
Coordinates from ORCA-job my_molecule_MEP_ALL E -1757.381892156518
  O      -1.534519     -0.161747      1.457532
  Si     -0.657083      0.779810      2.554511
  Si     -2.734535     -1.341707      1.518075
  C       0.816542      1.513426      1.639291
  C       1.738565      0.508784      0.918005
  H       1.386583      2.098962      2.396834
  H       2.644071      1.025103      0.528814
  H       2.120707     -0.265743      1.620203
  Si      1.014207     -0.375875     -0.585077
  O       0.000844      0.659078     -1.423428
  O       2.320435     -0.736038     -1.569080
  Si      2.654771     -1.312010     -3.107047
  Si     -1.586074      1.089805     -1.730839
  H       0.422151      2.263260      0.919132
  H      -4.092827     -0.700543      1.437389
  H      -1.529971      1.877197      3.105861
  H      -2.633207     -2.116909      2.806128
  H      -0.209204     -0.101666      3.694742
  H      -1.660792      1.604680     -3.140696
  H      -2.514065     -0.088590     -1.595225
  H      -2.025803      2.180950     -0.793362
  H       2.440898     -0.237693     -4.138332
  H       4.092617     -1.743977     -3.134532
  H       1.776749     -2.490416     -3.442969
  H       0.292573     -1.659445     -0.290433
  H      -2.543636     -2.268695      0.354504
26
Coordinates from ORCA-job my_molecule_MEP_ALL E -1757.328557421627
  O      -1.845706      0.529372      1.580749
  Si     -0.340506      0.389943      2.325301
  Si     -3.470566      0.551388      1.998738
  C       0.909653      1.476454      1.453733
  C       2.144539      1.054214      1.112262
  H       0.641324      2.531734      1.255479
  H       2.890276      1.724486      0.649950
  H       2.472343      0.013198      1.284131
  Si      0.908505     -1.997946     -1.356688
  O      -0.432876     -1.131278     -0.878286
  O       1.860444     -1.113469     -2.400156
  Si      2.996650      0.104653     -2.566457
  Si     -1.848984     -0.505833     -1.539255
  H       1.677416     -2.327971     -0.112517
  H      -3.656991      1.235870      3.328365
  H      -0.505750      0.847380      3.755385
  H      -4.017915     -0.847344      2.090754
  H       0.137438     -1.035406      2.318523
  H      -1.978320     -0.963651     -2.970224
  H      -3.032398     -1.018605     -0.770411
  H      -1.815201      0.993246     -1.507057
  H       2.340649      1.455571     -2.484937
  H       4.047325      0.002807     -1.491416
  H       3.649507     -0.050373     -3.909342
  H       0.484582     -3.226418     -2.103731
  H      -4.215440      1.307978      0.937107
26
Coordinates from ORCA-job my_molecule_MEP_ALL E -1757.318770939036
  O      -1.851387      0.459030      1.589469
  Si     -0.367992      0.486276      2.402277
  Si     -3.468820      0.224785      1.992451
  C       0.925843      1.489652      1.482291
  C       2.133351      1.035190      1.086733
  H       0.742016      2.577429      1.398861
  H       2.877306      1.671865      0.568231
  H       2.517649      0.054556      1.417416
  Si      0.850935     -1.864640     -1.207897
  O      -0.400784     -0.799760     -0.966204
  O       1.893025     -1.165574     -2.294447
  Si      3.059526     -0.058941     -2.724155
  Si     -1.807994     -0.191220     -1.643443
  H       1.499012     -2.171784      0.183998
  H      -3.814612      0.987699      3.239685
  H      -0.626494      1.093702      3.758401
  H      -3.787967     -1.232048      2.206825
  H       0.148305     -0.904844      2.620213
  H      -1.893581     -0.462412     -3.126051
  H      -2.963712     -0.896924     -0.997843
  H      -1.829503      1.291377     -1.422713
  H       2.483997      1.332735     -2.762570
  H       4.196729     -0.157831     -1.742361
  H       3.501588     -0.469008     -4.095976
  H       0.338992     -3.110049     -1.881938
  H      -4.355426      0.780740      0.918749
26
Coordinates from ORCA-job my_molecule_MEP_ALL E -1757.295459359185
  O      -1.859103      0.376698      1.591477
  Si     -0.410084      0.568358      2.464996
  Si     -3.444263     -0.064420      1.980853
  C       0.942731      1.487621      1.524469
  C       2.141081      1.011354      1.115262
  H       0.846979      2.589955      1.534747
  H       2.868326      1.608151      0.521972
  H       2.582027      0.111216      1.577306
  Si      0.786269     -1.709501     -1.118538
  O      -0.356056     -0.503408     -1.084028
  O       1.956142     -1.179294     -2.157184
  Si      3.105969     -0.228069     -2.877144
  Si     -1.779807      0.095505     -1.723112
  H       1.333982     -1.961574      0.404953
  H      -3.953772      0.791633      3.100809
  H      -0.777961      1.307656      3.725721
  H      -3.571872     -1.514873      2.369232
  H       0.139823     -0.750225      2.914094
  H      -1.835734      0.007549     -3.228668
  H      -2.898367     -0.763610     -1.215499
  H      -1.867895      1.532899     -1.309660
  H       2.597213      1.183129     -3.036658
  H       4.332558     -0.337931     -2.012784
  H       3.315920     -0.859309     -4.220319
  H       0.233262     -2.985453     -1.718234
  H      -4.427371      0.185944      0.875939
26
Coordinates from ORCA-job my_molecule_MEP_ALL E -1757.271678722901
  O      -1.873000      0.314069      1.605390
  Si     -0.459131      0.633889      2.524337
  Si     -3.408079     -0.320438      1.963729
  C       0.978914      1.476661      1.611228
  C       2.196481      1.007547      1.226734
  H       0.937863      2.580374      1.674356
  H       2.888151      1.551237      0.536804
  H       2.679861      0.151143      1.729671
  Si      0.727260     -1.545876     -1.117613
  O      -0.324733     -0.273215     -1.252233
  O       2.052483     -1.157371     -2.013794
  Si      3.130495     -0.404144     -3.021957
  Si     -1.774796      0.345569     -1.788739
  H       1.139184     -1.601287      0.516505
  H      -4.110950      0.628697      2.884091
  H      -0.932501      1.474812      3.683398
  H      -3.380290     -1.695215      2.584333
  H       0.095054     -0.602385      3.159075
  H      -1.816588      0.429891     -3.290859
  H      -2.868523     -0.603187     -1.407719
  H      -1.900161      1.708682     -1.184730
  H       2.677735      1.008285     -3.302063
  H       4.444102     -0.527498     -2.300724
  H       3.102349     -1.223689     -4.277564
  H       0.171153     -2.893885     -1.558221
  H      -4.372332     -0.462665      0.816564
26
Coordinates from ORCA-job my_molecule_MEP_ALL E -1757.251127797648
  O      -1.907820      0.286710      1.669003
  Si     -0.493568      0.673201      2.588336
  Si     -3.384248     -0.520210      1.950008
  C       1.084157      1.482735      1.795966
  C       2.333069      1.040514      1.458054
  H       1.026702      2.586045      1.830046
  H       2.980645      1.512537      0.668789
  H       2.761238      0.084710      1.813902
  Si      0.700073     -1.401759     -1.176562
  O      -0.367607     -0.237648     -1.602969
  O       2.158776     -1.180890     -1.918926
  Si      3.133433     -0.570558     -3.124948
  Si     -1.820790      0.498539     -1.869200
  H       0.868865     -0.802076      0.375524
  H      -4.265561      0.464067      2.654620
  H      -1.034185      1.569376      3.674652
  H      -3.246263     -1.788137      2.759286
  H       0.043307     -0.544010      3.269095
  H      -1.872951      0.729669     -3.345565
  H      -2.908843     -0.468234     -1.526440
  H      -1.913974      1.786185     -1.103269
  H       2.724738      0.830392     -3.514203
  H       4.507113     -0.700633     -2.533200
  H       2.927107     -1.507420     -4.275985
  H       0.174238     -2.839567     -1.284037
  H      -4.207648     -0.983538      0.768024
26
Coordinates from ORCA-job my_molecule_MEP_ALL E -1757.204633779765
  O      -1.883005      0.200132      1.693820
  Si     -0.481382      0.646086      2.601874
  Si     -3.354252     -0.625319      1.933489
  C       1.191970      1.471249      1.956642
  C       2.404101      0.963408      1.582577
  H       1.140250      2.576003      1.974401
  H       3.114016      1.429175      0.840909
  H       2.630404     -0.112367      1.709230
  Si      0.714858     -1.215408     -1.047768
  O      -0.468648     -0.402913     -1.846055
  O       2.198406     -1.199979     -1.803768
  Si      3.099610     -0.669655     -3.116550
  Si     -1.851378      0.506316     -1.932928
  H       0.676914      0.374075      0.043350
  H      -4.302834      0.371329      2.530537
  H      -1.052504      1.570086      3.647280
  H      -3.173015     -1.830958      2.819066
  H       0.052714     -0.599271      3.219660
  H      -1.916187      0.824439     -3.389208
  H      -2.953252     -0.433968     -1.572436
  H      -1.998627      1.791714     -1.138849
  H       2.745689      0.714282     -3.616160
  H       4.508999     -0.797501     -2.619589
  H       2.817932     -1.648353     -4.214562
  H       0.221841     -2.699957     -0.995693
  H      -4.082618     -1.202644      0.740730
26
Coordinates from ORCA-job my_molecule_MEP_ALL E -1757.129187526577
  O      -1.786886      0.066502      1.586416
  Si     -0.476008      0.614868      2.548679
  Si     -3.267114     -0.722461      1.879648
  C       1.183358      1.402075      1.899491
  C       2.332805      0.794041      1.495081
  H       1.271936      2.481463      2.144600
  H       3.138710      1.216645      0.832847
  H       2.412119     -0.311658      1.543748
  Si      0.760501     -0.998720     -0.822298
  O      -0.427048     -0.256737     -1.673431
  O       2.190601     -1.054737     -1.671713
  Si      3.042148     -0.741962     -3.085817
  Si     -1.854086      0.531333     -1.928067
  H       0.601115      1.333308     -0.059717
  H      -4.266669      0.284916      2.376235
  H      -1.090688      1.577706      3.534652
  H      -3.101364     -1.847896      2.865504
  H       0.031918     -0.579500      3.285282
  H      -1.876372      0.829365     -3.393876
  H      -2.923547     -0.451615     -1.596675
  H      -2.160174      1.812623     -1.180766
  H       2.744762      0.601700     -3.706044
  H       4.474975     -0.912033     -2.677559
  H       2.664854     -1.788460     -4.093154
  H       0.287537     -2.471329     -0.805671
  H      -3.907384     -1.409439      0.702605
26
Coordinates from ORCA-job my_molecule_MEP_ALL E -1757.239745244859
  O      -1.717431     -0.013019      1.531626
  Si     -0.505216      0.646163      2.529789
  Si     -3.166606     -0.848903      1.810947
  C       1.002041      1.435573      1.636901
  C       2.083665      0.541451      1.120837
  H       1.383290      2.297503      2.258303
  H       2.996014      1.065044      0.722707
  H       2.357304     -0.364322      1.643849
  Si      0.895295     -0.823221     -0.657662
  O      -0.288801      0.011640     -1.495408
  O       2.221411     -0.951009     -1.628547
  Si      2.978275     -0.842294     -3.097715
  Si     -1.791940      0.628160     -1.881596
  H       0.545198      1.854236      0.247103
  H      -4.253652      0.123359      2.172427
  H      -1.166746      1.653128      3.433652
  H      -3.018997     -1.876838      2.896878
  H      -0.001231     -0.481090      3.393568
  H      -1.814420      0.926233     -3.353187
  H      -2.831907     -0.404990     -1.596309
  H      -2.182283      1.874357     -1.135259
  H       2.705255      0.467120     -3.792724
  H       4.426179     -1.062678     -2.779595
  H       2.475725     -1.947007     -3.974622
  H       0.300665     -2.251247     -0.644127
  H      -3.631089     -1.657349      0.638165
26
Coordinates from ORCA-job my_molecule_MEP_ALL E -1757.350377288055
  O      -1.625029     -0.096285      1.490915
  Si     -0.562217      0.711248      2.536937
  Si     -2.991043     -1.068645      1.684628
  C       0.895415      1.489931      1.574988
  C       1.870708      0.464054      0.952505
  H       1.424628      2.142743      2.338914
  H       2.807500      0.993462      0.609601
  H       2.231560     -0.328150      1.646373
  Si      0.972125     -0.593729     -0.586201
  O      -0.142370      0.338012     -1.422312
  O       2.272212     -0.840118     -1.582790
  Si      2.850359     -1.043778     -3.122432
  Si     -1.693460      0.822172     -1.811486
  H       0.489207      2.130854      0.603110
  H      -4.215523     -0.212892      1.839459
  H      -1.322627      1.771734      3.283585
  H      -2.868456     -1.965184      2.884211
  H      -0.077014     -0.307571      3.545320
  H      -1.739038      1.187785     -3.268549
  H      -2.687761     -0.276970     -1.584947
  H      -2.124717      2.008402     -0.997157
  H       2.613722      0.186169     -3.956595
  H       4.308048     -1.347669     -2.954936
  H       2.158146     -2.209167     -3.760902
  H       0.300659     -1.969458     -0.458098
  H      -3.145031     -1.986950      0.515859
26
Coordinates from ORCA-job my_molecule_MEP_ALL E -1757.381892156518
  O      -1.534608     -0.161759      1.457437
  Si     -0.657625      0.780529      2.554152
  Si     -2.734200     -1.342133      1.518301
  C       0.815825      1.514339      1.638805
  C       1.738287      0.509761      0.917991
  H       1.385577      2.100366      2.396187
  H       2.643645      1.026263      0.528697
  H       2.120640     -0.264363      1.620517
  Si      1.014403     -0.375726     -0.584833
  O       0.000748      0.658544     -1.423676
  O       2.320862     -0.735782     -1.568569
  Si      2.655563     -1.312210     -3.106286
  Si     -1.586295      1.088578     -1.731409
  H       0.421234      2.263759      0.918325
  H      -4.092717     -0.701493      1.437238
  H      -1.530969      1.877806      3.105002
  H      -2.632720     -2.116815      2.806656
  H      -0.209540     -0.100356      3.694759
  H      -1.661058      1.602896     -3.141466
  H      -2.513872     -0.090103     -1.595446
  H      -2.026516      2.179915     -0.794386
  H       2.441403     -0.238357     -4.137996
  H       4.093569     -1.743664     -3.133463
  H       1.778004     -2.491061     -3.441854
  H       0.293207     -1.659448     -0.289780
  H      -2.542846     -2.269488      0.355098
26
Coordinates from ORCA-job my_molecule_MEP_ALL E -1757.328557421627
  O      -1.845706      0.529372      1.580749
  Si     -0.340506      0.389943      2.325301
  Si     -3.470566      0.551388      1.998738
  C       0.909653      1.476454      1.453733
  C       2.144539      1.054214      1.112262
  H       0.641324      2.531734      1.255479
  H       2.890276      1.724486      0.649950
  H       2.472343      0.013198      1.284131
  Si      0.908505     -1.997946     -1.356688
  O      -0.432876     -1.131278     -0.878286
  O       1.860444     -1.113469     -2.400156
  Si      2.996650      0.104653     -2.566457
  Si     -1.848984     -0.505833     -1.539255
  H       1.677416     -2.327971     -0.112517
  H      -3.656991      1.235870      3.328365
  H      -0.505750      0.847380      3.755385
  H      -4.017915     -0.847344      2.090754
  H       0.137438     -1.035406      2.318523
  H      -1.978320     -0.963651     -2.970224
  H      -3.032398     -1.018605     -0.770411
  H      -1.815201      0.993246     -1.507057
  H       2.340649      1.455571     -2.484937
  H       4.047325      0.002807     -1.491416
  H       3.649507     -0.050373     -3.909342
  H       0.484582     -3.226418     -2.103731
  H      -4.215440      1.307978      0.937107
26
Coordinates from ORCA-job my_molecule_MEP_ALL E -1757.319965863110
  O      -1.851429      0.458067      1.589514
  Si     -0.368336      0.486787      2.404559
  Si     -3.469147      0.222259      1.993307
  C       0.925808      1.492497      1.487280
  C       2.137708      1.036345      1.093633
  H       0.740113      2.577316      1.393726
  H       2.875612      1.671714      0.569456
  H       2.515506      0.051249      1.413369
  Si      0.851590     -1.864567     -1.200590
  O      -0.400070     -0.796596     -0.966109
  O       1.894324     -1.169097     -2.289788
  Si      3.059555     -0.063433     -2.726658
  Si     -1.807460     -0.187945     -1.643344
  H       1.491971     -2.165384      0.173982
  H      -3.815646      0.984647      3.239772
  H      -0.628518      1.097801      3.757956
  H      -3.783946     -1.235800      2.208480
  H       0.148346     -0.904247      2.623238
  H      -1.891243     -0.456041     -3.127183
  H      -2.964641     -0.893615     -1.000774
  H      -1.831403      1.294627     -1.421016
  H       2.486913      1.330621     -2.765894
  H       4.199638     -0.158127     -1.746859
  H       3.501277     -0.472625     -4.098425
  H       0.338540     -3.108140     -1.877566
  H      -4.355063      0.771686      0.915934
26
Coordinates from ORCA-job my_molecule_MEP_ALL E -1757.300199753349
  O      -1.858611      0.374528      1.591501
  Si     -0.410152      0.568120      2.469081
  Si     -3.445072     -0.066099      1.982781
  C       0.943088      1.492443      1.534161
  C       2.148297      1.014144      1.126196
  H       0.840983      2.591026      1.523127
  H       2.866078      1.609651      0.527113
  H       2.578218      0.102561      1.569287
  Si      0.790056     -1.709978     -1.103246
  O      -0.355018     -0.502818     -1.084695
  O       1.956764     -1.183629     -2.150810
  Si      3.104619     -0.234363     -2.878744
  Si     -1.779550      0.097602     -1.722878
  H       1.323557     -1.952258      0.382704
  H      -3.954835      0.789494      3.100963
  H      -0.780046      1.312375      3.724433
  H      -3.566720     -1.517314      2.371936
  H       0.138646     -0.751631      2.915705
  H      -1.833245      0.013693     -3.229517
  H      -2.900610     -0.759765     -1.217602
  H      -1.870522      1.535153     -1.308125
  H       2.600999      1.180608     -3.039663
  H       4.336217     -0.336642     -2.018851
  H       3.316506     -0.861892     -4.222826
  H       0.233183     -2.981832     -1.713094
  H      -4.422829      0.176824      0.871064
26
Coordinates from ORCA-job my_molecule_MEP_ALL E -1757.280943953579
  O      -1.870399      0.309758      1.605303
  Si     -0.458018      0.632267      2.529683
  Si     -3.409039     -0.320361      1.966615
  C       0.980422      1.482650      1.623230
  C       2.201655      1.008837      1.235664
  H       0.929071      2.584152      1.657785
  H       2.886040      1.555978      0.547645
  H       2.673877      0.139340      1.719979
  Si      0.734631     -1.544821     -1.087251
  O      -0.324847     -0.276243     -1.256921
  O       2.050914     -1.162042     -2.008447
  Si      3.127776     -0.410582     -3.021212
  Si     -1.775781      0.345713     -1.789977
  H       1.130029     -1.594670      0.485448
  H      -4.112242      0.627737      2.884906
  H      -0.933009      1.478953      3.681348
  H      -3.375014     -1.695282      2.586544
  H       0.092878     -0.606968      3.158496
  H      -1.815575      0.433727     -3.292270
  H      -2.871645     -0.601202     -1.407545
  H      -1.902930      1.709558     -1.184730
  H       2.681653      1.006256     -3.303758
  H       4.447098     -0.524692     -2.306250
  H       3.104725     -1.224133     -4.280357
  H       0.172363     -2.887645     -1.555225
  H      -4.364635     -0.466286      0.811299
26
Coordinates from ORCA-job my_molecule_MEP_ALL E -1757.264202600880
  O      -1.899181      0.279344      1.667131
  Si     -0.489227      0.669124      2.593826
  Si     -3.382023     -0.520600      1.952712
  C       1.085820      1.490238      1.809714
  C       2.329491      1.030310      1.458265
  H       1.022282      2.590553      1.817716
  H       2.983191      1.519057      0.689853
  H       2.749872      0.073108      1.804294
  Si      0.706193     -1.382957     -1.128521
  O      -0.372622     -0.243373     -1.621501
  O       2.155157     -1.184853     -1.912419
  Si      3.129907     -0.579796     -3.122257
  Si     -1.823613      0.496602     -1.875980
  H       0.864091     -0.783859      0.341341
  H      -4.268324      0.460953      2.652431
  H      -1.033650      1.573099      3.671024
  H      -3.240069     -1.787238      2.762815
  H       0.040966     -0.550446      3.267492
  H      -1.876967      0.735017     -3.349880
  H      -2.913477     -0.467495     -1.526373
  H      -1.918066      1.785013     -1.105715
  H       2.728411      0.825078     -3.516832
  H       4.509627     -0.699894     -2.539416
  H       2.927769     -1.511296     -4.277385
  H       0.180361     -2.827504     -1.275633
  H      -4.195919     -0.988184      0.763298
26
Coordinates from ORCA-job my_molecule_MEP_ALL E -1757.213964235668
  O      -1.868881      0.192144      1.682778
  Si     -0.476480      0.641371      2.603761
  Si     -3.346630     -0.627461      1.933616
  C       1.188055      1.475901      1.955508
  C       2.390287      0.947490      1.570736
  H       1.142833      2.574877      1.972914
  H       3.112714      1.425479      0.857240
  H       2.614494     -0.123282      1.698289
  Si      0.713771     -1.171161     -1.015701
  O      -0.471748     -0.396860     -1.851715
  O       2.192879     -1.192186     -1.792573
  Si      3.095737     -0.679926     -3.112361
  Si     -1.854633      0.502250     -1.939693
  H       0.679173      0.384709      0.026219
  H      -4.302149      0.366289      2.523183
  H      -1.053473      1.573551      3.638773
  H      -3.166919     -1.829428      2.824391
  H       0.049636     -0.601671      3.226174
  H      -1.917229      0.826040     -3.392623
  H      -2.955999     -0.435792     -1.572650
  H      -2.003279      1.787980     -1.142131
  H       2.747239      0.705508     -3.618173
  H       4.509461     -0.801010     -2.624989
  H       2.812753     -1.657550     -4.209614
  H       0.234113     -2.676078     -0.976716
  H      -4.065724     -1.211186      0.735357
26
Coordinates from ORCA-job my_molecule_MEP_ALL E -1757.135116018791
  O      -1.781350      0.065911      1.582132
  Si     -0.472901      0.612415      2.553686
  Si     -3.264401     -0.722520      1.881127
  C       1.185254      1.408808      1.907070
  C       2.333664      0.790076      1.496363
  H       1.266722      2.485701      2.132214
  H       3.135017      1.221880      0.848351
  H       2.406530     -0.311106      1.537757
  Si      0.752805     -0.979026     -0.826868
  O      -0.433485     -0.257675     -1.686788
  O       2.190399     -1.052530     -1.665471
  Si      3.042126     -0.746983     -3.083491
  Si     -1.859699      0.527711     -1.933075
  H       0.602502      1.315398     -0.063154
  H      -4.266257      0.284041      2.374665
  H      -1.090920      1.581838      3.530046
  H      -3.098399     -1.845280      2.869386
  H       0.030083     -0.581204      3.289120
  H      -1.877216      0.828330     -3.396448
  H      -2.927454     -0.454718     -1.596677
  H      -2.156037      1.809418     -1.181524
  H       2.746165      0.598362     -3.704078
  H       4.476808     -0.911278     -2.679549
  H       2.665258     -1.792853     -4.091111
  H       0.294320     -2.465295     -0.792681
  H      -3.899533     -1.409421      0.698999
26
Coordinates from ORCA-job my_molecule_MEP_ALL E -1757.246073298744
  O      -1.722936     -0.006638      1.534369
  Si     -0.502468      0.644719      2.531053
  Si     -3.175858     -0.837297      1.819343
  C       0.997741      1.445760      1.613182
  C       2.092217      0.547571      1.132756
  H       1.366616      2.316560      2.238027
  H       3.000564      1.075562      0.729247
  H       2.367527     -0.363160      1.648949
  Si      0.894096     -0.831220     -0.664820
  O      -0.298070     -0.008436     -1.507791
  O       2.221803     -0.961443     -1.633412
  Si      2.986048     -0.835884     -3.096671
  Si     -1.800932      0.615825     -1.887303
  H       0.559245      1.801710      0.274126
  H      -4.254886      0.139659      2.192223
  H      -1.159519      1.648856      3.441397
  H      -3.024942     -1.871901      2.897324
  H       0.002772     -0.489243      3.383688
  H      -1.819263      0.914353     -3.358341
  H      -2.842647     -0.413652     -1.596324
  H      -2.177607      1.866883     -1.140649
  H       2.711234      0.479325     -3.782964
  H       4.433781     -1.045818     -2.771633
  H       2.496235     -1.934163     -3.987758
  H       0.304214     -2.266549     -0.649202
  H      -3.654962     -1.631379      0.641184
26
Coordinates from ORCA-job my_molecule_MEP_ALL E -1757.354618305748
  O      -1.630043     -0.092335      1.492173
  Si     -0.558423      0.710098      2.534644
  Si     -3.001651     -1.056490      1.693486
  C       0.892245      1.496073      1.556442
  C       1.872659      0.458032      0.949877
  H       1.416009      2.152418      2.323903
  H       2.810689      0.992341      0.611853
  H       2.237797     -0.327511      1.650015
  Si      0.976158     -0.597681     -0.582754
  O      -0.149717      0.320347     -1.424142
  O       2.271561     -0.846564     -1.583685
  Si      2.859577     -1.032852     -3.120857
  Si     -1.700372      0.808381     -1.815933
  H       0.501884      2.100676      0.616026
  H      -4.218227     -0.192060      1.859482
  H      -1.314189      1.766047      3.292346
  H      -2.876465     -1.958634      2.887516
  H      -0.071111     -0.316051      3.535101
  H      -1.742622      1.170235     -3.274383
  H      -2.696990     -0.287945     -1.585536
  H      -2.127675      1.999865     -1.006420
  H       2.621220      0.203243     -3.946481
  H       4.317616     -1.328753     -2.945994
  H       2.178957     -2.194809     -3.775865
  H       0.305404     -1.979933     -0.461784
  H      -3.174292     -1.966138      0.520968
26
Coordinates from ORCA-job my_molecule_MEP_ALL E -1757.381892156518
  O      -1.534700     -0.161880      1.457326
  Si     -0.658138      0.780986      2.553880
  Si     -2.733910     -1.342634      1.518382
  C       0.815162      1.515039      1.638488
  C       1.738027      0.510577      0.918030
  H       1.384645      2.101454      2.395772
  H       2.643253      1.027274      0.528691
  H       2.120565     -0.263236      1.620799
  Si      1.014586     -0.375545     -0.584633
  O       0.000673      0.658169     -1.423849
  O       2.321261     -0.735430     -1.568142
  Si      2.656307     -1.312153     -3.105674
  Si     -1.586481      1.087598     -1.731854
  H       0.420396      2.264140      0.917770
  H      -4.092630     -0.702463      1.437013
  H      -1.531899      1.878119      3.104353
  H      -2.632303     -2.116943      2.806950
  H      -0.209877     -0.099451      3.694764
  H      -1.661272      1.601520     -3.142055
  H      -2.513682     -0.091353     -1.595674
  H      -2.027155      2.179037     -0.795163
  H       2.441896     -0.238643     -4.137689
  H       4.094458     -1.743140     -3.132594
  H       1.779170     -2.491382     -3.441020
  H       0.293783     -1.659427     -0.289313
  H      -2.542133     -2.270232      0.355442
26
Coordinates from ORCA-job my_molecule_MEP_ALL E -1757.328557421627
  O      -1.845706      0.529372      1.580749
  Si     -0.340506      0.389943      2.325301
  Si     -3.470566      0.551388      1.998738
  C       0.909653      1.476454      1.453733
  C       2.144539      1.054214      1.112262
  H       0.641324      2.531734      1.255479
  H       2.890276      1.724486      0.649950
  H       2.472343      0.013198      1.284131
  Si      0.908505     -1.997946     -1.356688
  O      -0.432876     -1.131278     -0.878286
  O       1.860444     -1.113469     -2.400156
  Si      2.996650      0.104653     -2.566457
  Si     -1.848984     -0.505833     -1.539255
  H       1.677416     -2.327971     -0.112517
  H      -3.656991      1.235870      3.328365
  H      -0.505750      0.847380      3.755385
  H      -4.017915     -0.847344      2.090754
  H       0.137438     -1.035406      2.318523
  H      -1.978320     -0.963651     -2.970224
  H      -3.032398     -1.018605     -0.770411
  H      -1.815201      0.993246     -1.507057
  H       2.340649      1.455571     -2.484937
  H       4.047325      0.002807     -1.491416
  H       3.649507     -0.050373     -3.909342
  H       0.484582     -3.226418     -2.103731
  H      -4.215440      1.307978      0.937107
26
Coordinates from ORCA-job my_molecule_MEP_ALL E -1757.321082054634
  O      -1.851312      0.457269      1.589926
  Si     -0.368920      0.487478      2.406440
  Si     -3.469010      0.219850      1.993896
  C       0.930093      1.492438      1.491145
  C       2.136205      1.039174      1.101688
  H       0.737570      2.578274      1.387920
  H       2.875053      1.672432      0.570731
  H       2.513559      0.046970      1.409221
  Si      0.849807     -1.863428     -1.198435
  O      -0.399337     -0.794269     -0.965435
  O       1.896074     -1.172616     -2.285121
  Si      3.059317     -0.067497     -2.728351
  Si     -1.806693     -0.185228     -1.643171
  H       1.486827     -2.159960      0.166872
  H      -3.816450      0.982122      3.240483
  H      -0.630357      1.101536      3.757886
  H      -3.780200     -1.238882      2.209892
  H       0.148439     -0.904048      2.625635
  H      -1.888815     -0.450510     -3.127881
  H      -2.965924     -0.890471     -1.003239
  H      -1.833330      1.297346     -1.419462
  H       2.489749      1.328320     -2.768703
  H       4.202302     -0.157926     -1.751157
  H       3.501413     -0.475578     -4.100875
  H       0.338361     -3.106542     -1.872939
  H      -4.354421      0.763744      0.913033
26
Coordinates from ORCA-job my_molecule_MEP_ALL E -1757.304422661802
  O      -1.857733      0.372442      1.592388
  Si     -0.410891      0.568156      2.472207
  Si     -3.444784     -0.067617      1.983933
  C       0.950354      1.492363      1.541325
  C       2.145569      1.019548      1.138954
  H       0.834169      2.593852      1.510784
  H       2.865631      1.612496      0.532013
  H       2.574745      0.092608      1.561389
  Si      0.790064     -1.709012     -1.096840
  O      -0.353943     -0.503383     -1.084235
  O       1.958067     -1.188019     -2.144088
  Si      3.102814     -0.239860     -2.879082
  Si     -1.778416      0.098748     -1.722350
  H       1.315612     -1.944517      0.365197
  H      -3.955657      0.788149      3.102330
  H      -0.781898      1.316749      3.723856
  H      -3.561925     -1.519082      2.374236
  H       0.137689     -0.753736      2.916615
  H      -1.830646      0.018790     -3.229900
  H      -2.903165     -0.756232     -1.219144
  H      -1.873186      1.536743     -1.306905
  H       2.604732      1.177749     -3.041863
  H       4.339467     -0.334715     -2.024624
  H       3.317660     -0.863681     -4.225436
  H       0.233689     -2.978048     -1.707095
  H      -4.418019      0.169510      0.866337
26
Coordinates from ORCA-job my_molecule_MEP_ALL E -1757.288967614605
  O      -1.867266      0.305210      1.606398
  Si     -0.458029      0.631431      2.533826
  Si     -3.408367     -0.320758      1.968163
  C       0.988087      1.483718      1.632873
  C       2.197647      1.013167      1.246818
  H       0.919887      2.589157      1.641026
  H       2.885647      1.561611      0.558294
  H       2.668225      0.126182      1.710741
  Si      0.737609     -1.542039     -1.071572
  O      -0.324198     -0.280548     -1.260039
  O       2.049568     -1.166866     -2.000953
  Si      3.124293     -0.416545     -3.019300
  Si     -1.775484      0.345163     -1.790850
  H       1.122902     -1.587860      0.461215
  H      -4.113793      0.627221      2.886347
  H      -0.933665      1.483181      3.679957
  H      -3.369579     -1.695206      2.589074
  H       0.091018     -0.612271      3.158055
  H      -1.814694      0.437820     -3.293608
  H      -2.874996     -0.598908     -1.407419
  H      -1.905905      1.710158     -1.184874
  H       2.685752      1.003181     -3.305247
  H       4.449823     -0.521860     -2.312301
  H       3.106989     -1.224827     -4.283290
  H       0.174668     -2.879797     -1.549663
  H      -4.356137     -0.469715      0.806329
26
Coordinates from ORCA-job my_molecule_MEP_ALL E -1757.274838435196
  O      -1.889902      0.270613      1.665729
  Si     -0.486437      0.667103      2.598605
  Si     -3.377601     -0.522313      1.953473
  C       1.092422      1.491048      1.820786
  C       2.318812      1.025891      1.461206
  H       1.019255      2.595875      1.807400
  H       2.987337      1.524217      0.711620
  H       2.737446      0.056660      1.794399
  Si      0.708278     -1.363951     -1.102630
  O      -0.374095     -0.252952     -1.638346
  O       2.150203     -1.187645     -1.901208
  Si      3.124912     -0.588887     -3.118234
  Si     -1.827386      0.495260     -1.882670
  H       0.860060     -0.754408      0.316173
  H      -4.271110      0.457457      2.649469
  H      -1.033137      1.576341      3.667381
  H      -3.233124     -1.786453      2.767267
  H       0.039442     -0.558631      3.266606
  H      -1.881842      0.741536     -3.355071
  H      -2.918652     -0.466172     -1.526854
  H      -1.922878      1.783144     -1.108822
  H       2.732321      0.817622     -3.519787
  H       4.511683     -0.700243     -2.546657
  H       2.927134     -1.516874     -4.278205
  H       0.188716     -2.810131     -1.260531
  H      -4.181856     -0.994108      0.758900
26
Coordinates from ORCA-job my_molecule_MEP_ALL E -1757.223049140130
  O      -1.855489      0.182272      1.671942
  Si     -0.472818      0.638956      2.604969
  Si     -3.336809     -0.630641      1.931395
  C       1.186747      1.471613      1.954226
  C       2.373055      0.937460      1.562355
  H       1.146065      2.577069      1.972047
  H       3.112665      1.420502      0.872520
  H       2.596688     -0.139143      1.685699
  Si      0.713189     -1.130115     -0.990822
  O      -0.472370     -0.391002     -1.856040
  O       2.186901     -1.181391     -1.779067
  Si      3.090502     -0.689090     -3.106894
  Si     -1.861052      0.501451     -1.945653
  H       0.681650      0.397713      0.008597
  H      -4.300680      0.361076      2.515052
  H      -1.054507      1.576563      3.629829
  H      -3.160033     -1.827776      2.830355
  H       0.047190     -0.605312      3.233814
  H      -1.918689      0.828153     -3.397070
  H      -2.959221     -0.437855     -1.573312
  H      -2.008474      1.783894     -1.145875
  H       2.748968      0.695463     -3.620424
  H       4.509560     -0.805482     -2.630947
  H       2.806214     -1.668195     -4.203945
  H       0.247519     -2.645811     -0.953122
  H      -4.046774     -1.220371      0.730372
26
Coordinates from ORCA-job my_molecule_MEP_ALL E -1757.141291152781
  O      -1.775585      0.064378      1.578689
  Si     -0.470077      0.611708      2.557286
  Si     -3.259936     -0.722424      1.881225
  C       1.191544      1.405588      1.912211
  C       2.324318      0.792152      1.502142
  H       1.262560      2.493603      2.120860
  H       3.134573      1.227601      0.861997
  H       2.400655     -0.314253      1.531716
  Si      0.747724     -0.958758     -0.829501
  O      -0.440734     -0.258691     -1.702912
  O       2.190255     -1.049193     -1.659871
  Si      3.041233     -0.751344     -3.080246
  Si     -1.867446      0.526189     -1.938240
  H       0.604265      1.294081     -0.067593
  H      -4.265471      0.282903      2.372843
  H      -1.091230      1.585734      3.525617
  H      -3.094966     -1.842720      2.873678
  H       0.028564     -0.584149      3.293913
  H      -1.878828      0.828019     -3.399808
  H      -2.932006     -0.457769     -1.596782
  H      -2.151839      1.806021     -1.182227
  H       2.747554      0.594316     -3.702068
  H       4.478472     -0.910930     -2.682039
  H       2.664936     -1.797802     -4.088862
  H       0.301847     -2.454780     -0.777700
  H      -3.890381     -1.409479      0.695671
26
Coordinates from ORCA-job my_molecule_MEP_ALL E -1757.252086422862
  O      -1.728347     -0.000195      1.537565
  Si     -0.498044      0.642906      2.530561
  Si     -3.184366     -0.824296      1.827345
  C       0.992432      1.452994      1.598183
  C       2.105768      0.554612      1.145957
  H       1.348639      2.334911      2.213748
  H       3.005800      1.086629      0.739190
  H       2.375968     -0.360308      1.651818
  Si      0.888719     -0.840176     -0.674347
  O      -0.308451     -0.029932     -1.522644
  O       2.221314     -0.971729     -1.637650
  Si      2.994199     -0.828569     -3.096036
  Si     -1.809727      0.602974     -1.893545
  H       0.573507      1.748791      0.298344
  H      -4.255996      0.156481      2.213116
  H      -1.151574      1.644444      3.449434
  H      -3.030885     -1.866949      2.898151
  H       0.007097     -0.498456      3.374051
  H      -1.825162      0.902501     -3.364016
  H      -2.854654     -0.422245     -1.596330
  H      -2.172373      1.858644     -1.146070
  H       2.717284      0.491488     -3.772411
  H       4.441631     -1.028405     -2.763793
  H       2.517204     -1.921085     -4.001391
  H       0.308793     -2.280828     -0.653742
  H      -3.678777     -1.604201      0.644511
26
Coordinates from ORCA-job my_molecule_MEP_ALL E -1757.357914281847
  O      -1.635303     -0.088357      1.493848
  Si     -0.554398      0.709170      2.531134
  Si     -3.012029     -1.043634      1.702255
  C       0.893820      1.491684      1.551182
  C       1.875036      0.455066      0.948038
  H       1.406125      2.162128      2.305997
  H       2.812605      0.990558      0.613550
  H       2.243432     -0.326361      1.653910
  Si      0.978041     -0.603613     -0.581832
  O      -0.156655      0.302772     -1.425811
  O       2.271409     -0.853158     -1.584805
  Si      2.868904     -1.021738     -3.119840
  Si     -1.706561      0.794177     -1.820124
  H       0.509952      2.076623      0.620465
  H      -4.220913     -0.171077      1.880228
  H      -1.305559      1.760540      3.301370
  H      -2.884179     -1.952253      2.891137
  H      -0.064587     -0.324267      3.524417
  H      -1.746454      1.152854     -3.280076
  H      -2.706693     -0.298916     -1.586012
  H      -2.129936      1.991216     -1.015417
  H       2.628779      0.220217     -3.936145
  H       4.327461     -1.309545     -2.937483
  H       2.199932     -2.180603     -3.791427
  H       0.311287     -1.989029     -0.464307
  H      -3.203517     -1.944453      0.525750
26
Coordinates from ORCA-job my_molecule_MEP_ALL E -1757.381892156518
  O      -1.534744     -0.162024      1.457264
  Si     -0.658576      0.781424      2.553633
  Si     -2.733556     -1.343170      1.518545
  C       0.814537      1.515741      1.638150
  C       1.737792      0.511405      0.918015
  H       1.383769      2.102546      2.395321
  H       2.642869      1.028310      0.528603
  H       2.120545     -0.262096      1.621011
  Si      1.014753     -0.375352     -0.584467
  O       0.000546      0.657800     -1.424020
  O       2.321617     -0.735048     -1.567795
  Si      2.656962     -1.312056     -3.105154
  Si     -1.586733      1.086610     -1.732243
  H       0.419565      2.264521      0.917212
  H      -4.092488     -0.703481      1.436919
  H      -1.532746      1.878404      3.103763
  H      -2.631774     -2.117110      2.807321
  H      -0.210093     -0.098564      3.694776
  H      -1.661604      1.600142     -3.142582
  H      -2.513544     -0.092621     -1.595820
  H      -2.027842      2.178142     -0.795865
  H       2.442256     -0.238886     -4.137462
  H       4.095262     -1.742562     -3.131865
  H       1.780249     -2.491670     -3.440254
  H       0.294366     -1.659403     -0.288863
  H      -2.541386     -2.271004      0.355858
26
Coordinates from ORCA-job my_molecule_MEP_ALL E -1757.328557421627
  O      -1.845706      0.529372      1.580749
  Si     -0.340506      0.389943      2.325301
  Si     -3.470566      0.551388      1.998738
  C       0.909653      1.476454      1.453733
  C       2.144539      1.054214      1.112262
  H       0.641324      2.531734      1.255479
  H       2.890276      1.724486      0.649950
  H       2.472343      0.013198      1.284131
  Si      0.908505     -1.997946     -1.356688
  O      -0.432876     -1.131278     -0.878286
  O       1.860444     -1.113469     -2.400156
  Si      2.996650      0.104653     -2.566457
  Si     -1.848984     -0.505833     -1.539255
  H       1.677416     -2.327971     -0.112517
  H      -3.656991      1.235870      3.328365
  H      -0.505750      0.847380      3.755385
  H      -4.017915     -0.847344      2.090754
  H       0.137438     -1.035406      2.318523
  H      -1.978320     -0.963651     -2.970224
  H      -3.032398     -1.018605     -0.770411
  H      -1.815201      0.993246     -1.507057
  H       2.340649      1.455571     -2.484937
  H       4.047325      0.002807     -1.491416
  H       3.649507     -0.050373     -3.909342
  H       0.484582     -3.226418     -2.103731
  H      -4.215440      1.307978      0.937107
26
Coordinates from ORCA-job my_molecule_MEP_ALL E -1757.321891817721
  O      -1.851131      0.456551      1.590308
  Si     -0.368975      0.488096      2.408359
  Si     -3.468942      0.217517      1.994571
  C       0.926505      1.496927      1.497385
  C       2.143742      1.038681      1.107105
  H       0.735211      2.577359      1.381952
  H       2.873206      1.672391      0.573115
  H       2.510716      0.044003      1.404494
  Si      0.848413     -1.862739     -1.195720
  O      -0.399378     -0.791408     -0.964732
  O       1.898277     -1.175955     -2.280913
  Si      3.059333     -0.071592     -2.730211
  Si     -1.806081     -0.182445     -1.642888
  H       1.481648     -2.154459      0.159663
  H      -3.817198      0.979505      3.241196
  H      -0.632227      1.105375      3.757831
  H      -3.776335     -1.242018      2.211313
  H       0.148434     -0.903808      2.628013
  H      -1.886197     -0.444963     -3.128520
  H      -2.967234     -0.887201     -1.005753
  H      -1.835315      1.300021     -1.417865
  H       2.492596      1.325893     -2.771497
  H       4.205033     -0.157611     -1.755568
  H       3.501568     -0.478486     -4.103244
  H       0.337947     -3.105310     -1.868438
  H      -4.353617      0.755677      0.910045
26
Coordinates from ORCA-job my_molecule_MEP_ALL E -1757.307495649527
  O      -1.856771      0.370387      1.593195
  Si     -0.410588      0.568086      2.475479
  Si     -3.444648     -0.069110      1.985320
  C       0.945073      1.499917      1.552658
  C       2.157571      1.019380      1.147541
  H       0.827356      2.593606      1.497914
  H       2.863124      1.614231      0.539008
  H       2.569629      0.084648      1.552177
  Si      0.790203     -1.708607     -1.090659
  O      -0.353996     -0.502963     -1.083843
  O       1.960228     -1.192186     -2.137856
  Si      3.101332     -0.245503     -2.879705
  Si     -1.777542      0.100031     -1.721776
  H       1.307865     -1.936702      0.348384
  H      -3.956374      0.786593      3.103589
  H      -0.783816      1.321316      3.723255
  H      -3.556872     -1.520895      2.376640
  H       0.136530     -0.755781      2.917514
  H      -1.827808      0.023981     -3.230160
  H      -2.905688     -0.752507     -1.220758
  H      -1.875918      1.538172     -1.305648
  H       2.608476      1.174674     -3.044049
  H       4.342774     -0.332651     -2.030674
  H       3.318776     -0.865435     -4.227882
  H       0.233886     -2.974668     -1.701138
  H      -4.412800      0.161984      0.861473
26
Coordinates from ORCA-job my_molecule_MEP_ALL E -1757.294448762476
  O      -1.864061      0.300496      1.607520
  Si     -0.456881      0.630322      2.538421
  Si     -3.407613     -0.321584      1.970056
  C       0.984730      1.491824      1.646440
  C       2.207046      1.012137      1.255221
  H       0.910700      2.591235      1.623876
  H       2.883876      1.566543      0.571490
  H       2.660769      0.114659      1.700084
  Si      0.740009     -1.539978     -1.057131
  O      -0.325368     -0.283268     -1.264415
  O       2.050307     -1.171124     -1.994273
  Si      3.120837     -0.423290     -3.017598
  Si     -1.775398      0.344964     -1.791881
  H       1.115685     -1.578972      0.438543
  H      -4.115472      0.626062      2.887153
  H      -0.934546      1.487818      3.678534
  H      -3.363527     -1.695268      2.592158
  H       0.088828     -0.617427      3.157753
  H      -1.813888      0.442667     -3.294955
  H      -2.878430     -0.596155     -1.407559
  H      -1.908995      1.710598     -1.184938
  H       2.689902      0.999439     -3.307133
  H       4.452534     -0.519294     -2.319202
  H       3.108779     -1.226074     -4.285973
  H       0.176841     -2.871995     -1.543266
  H      -4.346666     -0.474334      0.801075
26
Coordinates from ORCA-job my_molecule_MEP_ALL E -1757.280757604912
  O      -1.880318      0.261647      1.663993
  Si     -0.482349      0.663716      2.603445
  Si     -3.372655     -0.524157      1.954576
  C       1.088765      1.498834      1.834032
  C       2.319587      1.014134      1.462300
  H       1.016515      2.597833      1.797185
  H       2.990620      1.529093      0.734893
  H       2.722423      0.042915      1.782691
  Si      0.710429     -1.347374     -1.076768
  O      -0.380888     -0.258178     -1.657599
  O       2.148493     -1.188996     -1.892081
  Si      3.119506     -0.598681     -3.113594
  Si     -1.829608      0.492954     -1.889347
  H       0.856484     -0.723736      0.293505
  H      -4.273382      0.453487      2.646179
  H      -1.032642      1.579805      3.663845
  H      -3.225778     -1.785557      2.771982
  H       0.037703     -0.566645      3.265883
  H      -1.887022      0.748360     -3.360287
  H      -2.923986     -0.464762     -1.527389
  H      -1.927714      1.781051     -1.111924
  H       2.736033      0.809869     -3.522692
  H       4.513284     -0.700733     -2.554317
  H       2.926037     -1.522603     -4.278589
  H       0.197304     -2.792034     -1.244184
  H      -4.166841     -1.000240      0.754265
26
Coordinates from ORCA-job my_molecule_MEP_ALL E -1757.230720727315
  O      -1.841166      0.172289      1.661069
  Si     -0.468694      0.634824      2.606210
  Si     -3.326908     -0.634254      1.929465
  C       1.178889      1.475308      1.955339
  C       2.363735      0.919888      1.552574
  H       1.149496      2.574614      1.971284
  H       3.112115      1.415179      0.888870
  H       2.577281     -0.152353      1.671832
  Si      0.712252     -1.088518     -0.966555
  O      -0.475885     -0.383192     -1.861805
  O       2.182210     -1.169400     -1.765874
  Si      3.085038     -0.698530     -3.101316
  Si     -1.866183      0.499535     -1.951974
  H       0.684249      0.410524     -0.009285
  H      -4.298489      0.355323      2.506496
  H      -1.055596      1.579713      3.620902
  H      -3.152683     -1.826016      2.836485
  H       0.044472     -0.608848      3.241676
  H      -1.920582      0.830752     -3.401669
  H      -2.962885     -0.439852     -1.574073
  H      -2.013863      1.780359     -1.149197
  H       2.750570      0.685392     -3.622776
  H       4.509266     -0.810153     -2.637360
  H       2.799044     -1.678942     -4.197710
  H       0.261203     -2.613748     -0.927656
  H      -4.026888     -1.229895      0.725050
26
Coordinates from ORCA-job my_molecule_MEP_ALL E -1757.147891324292
  O      -1.769025      0.062757      1.575264
  Si     -0.466747      0.609765      2.561212
  Si     -3.255364     -0.722682      1.881500
  C       1.186355      1.414272      1.923609
  C       2.328950      0.784294      1.501414
  H       1.258107      2.496200      2.108337
  H       3.131667      1.232233      0.878446
  H       2.393996     -0.314559      1.525452
  Si      0.741698     -0.935406     -0.832852
  O      -0.447449     -0.260390     -1.719558
  O       2.189915     -1.045329     -1.653986
  Si      3.040376     -0.755695     -3.077468
  Si     -1.875274      0.524553     -1.943783
  H       0.606299      1.269907     -0.072820
  H      -4.264230      0.281397      2.370876
  H      -1.091368      1.589560      3.521167
  H      -3.091221     -1.840060      2.877936
  H       0.026812     -0.587243      3.298834
  H      -1.881070      0.828459     -3.403456
  H      -2.937117     -0.460540     -1.596921
  H      -2.147628      1.803089     -1.182447
  H       2.748857      0.590372     -3.700018
  H       4.479929     -0.910561     -2.684968
  H       2.664249     -1.802565     -4.086437
  H       0.309768     -2.442259     -0.761438
  H      -3.880486     -1.409570      0.692104
26
Coordinates from ORCA-job my_molecule_MEP_ALL E -1757.255425511831
  O      -1.733024      0.006191      1.540589
  Si     -0.494121      0.640531      2.531134
  Si     -3.192715     -0.811509      1.835453
  C       0.990322      1.455456      1.583251
  C       2.115026      0.564407      1.160733
  H       1.330759      2.354537      2.189544
  H       3.012957      1.098765      0.749684
  H       2.384574     -0.359797      1.654893
  Si      0.883914     -0.848872     -0.684247
  O      -0.319374     -0.051446     -1.538945
  O       2.220669     -0.981523     -1.642405
  Si      3.001836     -0.821296     -3.094725
  Si     -1.819691      0.590626     -1.900163
  H       0.587040      1.696233      0.321182
  H      -4.256863      0.173183      2.234189
  H      -1.143129      1.639471      3.457260
  H      -3.036653     -1.861915      2.898844
  H       0.011419     -0.508328      3.364518
  H      -1.831515      0.891127     -3.369860
  H      -2.867070     -0.430541     -1.596392
  H      -2.166758      1.850184     -1.151268
  H       2.723280      0.503988     -3.761728
  H       4.449473     -1.010689     -2.756357
  H       2.538125     -1.907688     -4.015206
  H       0.313540     -2.294372     -0.657654
  H      -3.702020     -1.576723      0.647676
26
Coordinates from ORCA-job my_molecule_MEP_ALL E -1757.358846118947
  O      -1.640790     -0.083852      1.495594
  Si     -0.550474      0.706785      2.528928
  Si     -3.023360     -1.029839      1.711748
  C       0.893755      1.487823      1.542837
  C       1.878888      0.449855      0.948054
  H       1.396953      2.173344      2.288840
  H       2.815507      0.989458      0.615508
  H       2.249563     -0.325128      1.657075
  Si      0.979890     -0.610160     -0.581449
  O      -0.164476      0.283845     -1.428183
  O       2.270982     -0.860279     -1.586256
  Si      2.878952     -1.009499     -3.118972
  Si     -1.713393      0.779196     -1.824594
  H       0.518146      2.050078      0.625059
  H      -4.223731     -0.148439      1.902980
  H      -1.295799      1.754198      3.311132
  H      -2.892488     -1.945576      2.894677
  H      -0.057649     -0.333625      3.512773
  H      -1.750767      1.134541     -3.285949
  H      -2.717272     -0.310320     -1.586493
  H      -2.132031      1.981845     -1.024800
  H       2.636771      0.238978     -3.924961
  H       4.337945     -1.288511     -2.928585
  H       2.222559     -2.164760     -3.808578
  H       0.317414     -1.999350     -0.467221
  H      -3.235095     -1.920606      0.530836
26
Coordinates from ORCA-job my_molecule_MEP_ALL E -1757.381892156518
  O      -1.534749     -0.162309      1.457228
  Si     -0.658943      0.781608      2.553482
  Si     -2.733166     -1.343848      1.518648
  C       0.813960      1.516276      1.637942
  C       1.737582      0.512136      0.918004
  H       1.382964      2.103392      2.395043
  H       2.642501      1.029283      0.528547
  H       2.120567     -0.261124      1.621138
  Si      1.014903     -0.375103     -0.584366
  O       0.000382      0.657574     -1.424124
  O       2.321928     -0.734516     -1.567584
  Si      2.657530     -1.311655     -3.104838
  Si     -1.587029      1.085801     -1.732481
  H       0.418765      2.264807      0.916869
  H      -4.092310     -0.704631      1.436864
  H      -1.533505      1.878381      3.103402
  H      -2.631175     -2.117549      2.807551
  H      -0.210210     -0.098048      3.694783
  H      -1.662015      1.599083     -3.142904
  H      -2.513447     -0.093720     -1.595908
  H      -2.028543      2.177333     -0.796294
  H       2.442505     -0.238722     -4.137325
  H       4.095975     -1.741681     -3.131422
  H       1.781227     -2.491617     -3.439785
  H       0.294937     -1.659349     -0.288588
  H      -2.540636     -2.271803      0.356116
26
Coordinates from ORCA-job my_molecule_MEP_ALL E -1757.328557421627
  O      -1.845706      0.529372      1.580749
  Si     -0.340506      0.389943      2.325301
  Si     -3.470566      0.551388      1.998738
  C       0.909653      1.476454      1.453733
  C       2.144539      1.054214      1.112262
  H       0.641324      2.531734      1.255479
  H       2.890276      1.724486      0.649950
  H       2.472343      0.013198      1.284131
  Si      0.908505     -1.997946     -1.356688
  O      -0.432876     -1.131278     -0.878286
  O       1.860444     -1.113469     -2.400156
  Si      2.996650      0.104653     -2.566457
  Si     -1.848984     -0.505833     -1.539255
  H       1.677416     -2.327971     -0.112517
  H      -3.656991      1.235870      3.328365
  H      -0.505750      0.847380      3.755385
  H      -4.017915     -0.847344      2.090754
  H       0.137438     -1.035406      2.318523
  H      -1.978320     -0.963651     -2.970224
  H      -3.032398     -1.018605     -0.770411
  H      -1.815201      0.993246     -1.507057
  H       2.340649      1.455571     -2.484937
  H       4.047325      0.002807     -1.491416
  H       3.649507     -0.050373     -3.909342
  H       0.484582     -3.226418     -2.103731
  H      -4.215440      1.307978      0.937107
26
Coordinates from ORCA-job my_molecule_MEP_ALL E -1757.322607330628
  O      -1.850917      0.455823      1.590853
  Si     -0.369446      0.488758      2.410537
  Si     -3.468678      0.215110      1.995229
  C       0.930204      1.497491      1.501648
  C       2.142789      1.041227      1.115115
  H       0.732254      2.577906      1.375385
  H       2.872538      1.673185      0.575187
  H       2.508286      0.039586      1.399798
  Si      0.846278     -1.861581     -1.194265
  O      -0.399403     -0.788632     -0.963829
  O       1.900730     -1.179508     -2.276643
  Si      3.059504     -0.075661     -2.732075
  Si     -1.805635     -0.179527     -1.642606
  H       1.476848     -2.148993      0.153198
  H      -3.817907      0.976850      3.242095
  H      -0.634176      1.109263      3.757921
  H      -3.772304     -1.245162      2.212761
  H       0.148468     -0.903595      2.630304
  H      -1.883335     -0.439344     -3.129040
  H      -2.968728     -0.883757     -1.008296
  H      -1.837432      1.302693     -1.416200
  H       2.495546      1.323225     -2.774292
  H       4.207886     -0.157119     -1.760195
  H       3.501840     -0.481368     -4.105710
  H       0.337416     -3.104322     -1.863759
  H      -4.352624      0.747451      0.906880
26
Coordinates from ORCA-job my_molecule_MEP_ALL E -1757.310133485754
  O      -1.855681      0.368179      1.594348
  Si     -0.411027      0.568081      2.479119
  Si     -3.444081     -0.070710      1.986628
  C       0.950938      1.501128      1.560562
  C       2.156198      1.024131      1.160279
  H       0.819699      2.595602      1.484241
  H       2.862469      1.617266      0.545480
  H       2.565246      0.074432      1.543266
  Si      0.789054     -1.707427     -1.087294
  O      -0.354061     -0.502641     -1.083200
  O       1.962877     -1.196597     -2.131350
  Si      3.100046     -0.251109     -2.880347
  Si     -1.776849      0.101466     -1.721210
  H       1.300716     -1.928903      0.333250
  H      -3.957082      0.785009      3.105091
  H      -0.785878      1.325990      3.722867
  H      -3.551513     -1.522706      2.379196
  H       0.135388     -0.757978      2.918290
  H      -1.824684      0.029353     -3.230268
  H      -2.908397     -0.748532     -1.222417
  H      -1.878830      1.539514     -1.304338
  H       2.612372      1.171183     -3.046205
  H       4.346205     -0.330364     -2.037164
  H       3.319963     -0.867206     -4.230429
  H       0.233958     -2.971428     -1.694779
  H      -4.407044      0.154265      0.856382
26
Coordinates from ORCA-job my_molecule_MEP_ALL E -1757.298898966205
  O      -1.860529      0.295342      1.609148
  Si     -0.456432      0.629387      2.543430
  Si     -3.406141     -0.322954      1.971760
  C       0.990731      1.494554      1.657547
  C       2.205162      1.015604      1.267579
  H       0.900992      2.595028      1.606252
  H       2.883883      1.572516      0.584963
  H       2.653852      0.100679      1.689824
  Si      0.740830     -1.536632     -1.048037
  O      -0.326439     -0.286247     -1.269401
  O       2.051469     -1.175708     -1.986476
  Si      3.117598     -0.430308     -3.016193
  Si     -1.775766      0.345197     -1.793255
  H       1.108810     -1.567882      0.418885
  H      -4.117500      0.624488      2.887623
  H      -0.935735      1.492773      3.677265
  H      -3.356773     -1.695472      2.595906
  H       0.086551     -0.622904      3.157605
  H      -1.813200      0.448457     -3.296410
  H      -2.882155     -0.592843     -1.407988
  H      -1.912347      1.710983     -1.184937
  H       2.694305      0.994722     -3.309389
  H       4.455343     -0.516935     -2.327148
  H       3.110184     -1.228002     -4.288663
  H       0.179206     -2.863716     -1.535398
  H      -4.335899     -0.480131      0.795507
26
Coordinates from ORCA-job my_molecule_MEP_ALL E -1757.285230213064
  O      -1.869956      0.251833      1.662157
  Si     -0.478861      0.660543      2.608417
  Si     -3.366656     -0.526451      1.955224
  C       1.092749      1.500715      1.844538
  C       2.310267      1.007702      1.466274
  H       1.013937      2.601330      1.787280
  H       2.995114      1.533928      0.758816
  H       2.706929      0.025443      1.770793
  Si      0.710754     -1.329504     -1.058427
  O      -0.385311     -0.265348     -1.676739
  O       2.146229     -1.189857     -1.880961
  Si      3.114289     -0.608421     -3.109277
  Si     -1.833731      0.491513     -1.896669
  H       0.853448     -0.688497      0.275001
  H      -4.275407      0.449042      2.642387
  H      -1.032193      1.583146      3.660210
  H      -3.217788     -1.784606      2.777229
  H       0.036134     -0.575391      3.265503
  H      -1.892827      0.755870     -3.365925
  H      -2.929692     -0.463096     -1.528176
  H      -1.932886      1.778498     -1.115356
  H       2.739837      0.801102     -3.525614
  H       4.514615     -0.701571     -2.562636
  H       2.924375     -1.529016     -4.278525
  H       0.206752     -2.771979     -1.224928
  H      -4.150121     -1.006929      0.749404
26
Coordinates from ORCA-job my_molecule_MEP_ALL E -1757.237951232512
  O      -1.826330      0.161324      1.649920
  Si     -0.464986      0.631047      2.607573
  Si     -3.315906     -0.638413      1.926876
  C       1.176615      1.472589      1.955019
  C       2.347686      0.907362      1.545637
  H       1.153046      2.574279      1.970568
  H       3.112254      1.409309      0.905630
  H       2.556735     -0.168965      1.656906
  Si      0.710735     -1.045964     -0.945199
  O      -0.478145     -0.375747     -1.867646
  O       2.177440     -1.155666     -1.751327
  Si      3.079251     -0.707838     -3.095481
  Si     -1.873051      0.498699     -1.958613
  H       0.687124      0.423711     -0.027651
  H      -4.295656      0.349094      2.497258
  H      -1.056849      1.582765      3.611586
  H      -3.144629     -1.824116      2.843086
  H       0.041807     -0.612866      3.250217
  H      -1.923014      0.833785     -3.406856
  H      -2.967059     -0.441968     -1.575099
  H      -2.019530      1.776683     -1.152639
  H       2.752234      0.674666     -3.625223
  H       4.508728     -0.815242     -2.644277
  H       2.791081     -1.690457     -4.190733
  H       0.275739     -2.578062     -0.898977
  H      -4.005320     -1.240009      0.719445
26
Coordinates from ORCA-job my_molecule_MEP_ALL E -1757.155174219529
  O      -1.761716      0.060408      1.571713
  Si     -0.463856      0.608210      2.565471
  Si     -3.249719     -0.723277      1.881309
  C       1.190399      1.413045      1.930286
  C       2.320273      0.783540      1.505897
  H       1.254107      2.501837      2.096413
  H       3.130928      1.237166      0.893955
  H       2.386875     -0.318360      1.518866
  Si      0.736320     -0.909193     -0.835338
  O      -0.454965     -0.261743     -1.738022
  O       2.189681     -1.040314     -1.647831
  Si      3.039094     -0.760193     -3.074347
  Si     -1.883721      0.523328     -1.949694
  H       0.608717      1.243520     -0.078355
  H      -4.262527      0.279309      2.368270
  H      -1.091711      1.593343      3.516389
  H      -3.086846     -1.837324      2.882565
  H       0.025002     -0.590735      3.304383
  H      -1.883916      0.829526     -3.407647
  H      -2.942769     -0.463293     -1.597195
  H      -2.143462      1.800198     -1.182513
  H       2.750145      0.585909     -3.698068
  H       4.481267     -0.910527     -2.688486
  H       2.662840     -1.807930     -4.083468
  H       0.318541     -2.426218     -0.742781
  H      -3.868983     -1.410230      0.688228
26
Coordinates from ORCA-job my_molecule_MEP_ALL E -1757.257430493300
  O      -1.737333      0.012557      1.543640
  Si     -0.489718      0.637550      2.531644
  Si     -3.200706     -0.798230      1.843562
  C       0.986825      1.458002      1.573152
  C       2.128175      0.572293      1.175736
  H       1.311940      2.373669      2.163004
  H       3.019991      1.111264      0.762356
  H       2.392252     -0.358421      1.656858
  Si      0.877809     -0.857085     -0.695088
  O      -0.330812     -0.073741     -1.556953
  O       2.219746     -0.991084     -1.647059
  Si      3.009615     -0.813842     -3.093453
  Si     -1.830223      0.578036     -1.907349
  H       0.599909      1.643307      0.341934
  H      -4.257475      0.190103      2.255800
  H      -1.134178      1.634412      3.465017
  H      -3.042286     -1.856613      2.899729
  H       0.015773     -0.518863      3.355164
  H      -1.838612      0.879807     -3.376220
  H      -2.880374     -0.438906     -1.596517
  H      -2.160698      1.841264     -1.156467
  H       2.729408      0.516518     -3.750524
  H       4.457489     -0.992519     -2.749080
  H       2.559447     -1.894073     -4.029179
  H       0.318917     -2.306998     -0.660570
  H      -3.724879     -1.548409      0.650864
26
Coordinates from ORCA-job my_molecule_MEP_ALL E -1757.359157913288
  O      -1.646965     -0.078822      1.497639
  Si     -0.546342      0.703795      2.526710
  Si     -3.035759     -1.014367      1.722117
  C       0.895522      1.480583      1.538480
  C       1.883525      0.445611      0.948589
  H       1.386860      2.185746      2.269784
  H       2.818835      0.988573      0.617896
  H       2.256550     -0.324448      1.660820
  Si      0.981091     -0.618237     -0.581990
  O      -0.173067      0.262876     -1.431202
  O       2.270577     -0.868217     -1.588241
  Si      2.889986     -0.995952     -3.118085
  Si     -1.720890      0.762731     -1.829533
  H       0.524806      2.023131      0.625417
  H      -4.226754     -0.123502      1.928382
  H      -1.284828      1.747154      3.321874
  H      -2.901567     -1.938303      2.898458
  H      -0.049940     -0.344163      3.499990
  H      -1.755712      1.114523     -3.292341
  H      -2.729081     -0.322670     -1.587015
  H      -2.133967      1.971393     -1.034982
  H       2.645515      0.259640     -3.912516
  H       4.349516     -1.265243     -2.918880
  H       2.247606     -2.147192     -3.827575
  H       0.324256     -2.010769     -0.470249
  H      -3.269773     -1.893869      0.536450
26
Coordinates from ORCA-job my_molecule_MEP_ALL E -1757.381892156518
  O      -1.534735     -0.162643      1.457204
  Si     -0.659315      0.781777      2.553334
  Si     -2.732716     -1.344617      1.518777
  C       0.813344      1.516843      1.637723
  C       1.737363      0.512929      0.917978
  H       1.382106      2.104293      2.394747
  H       2.642102      1.030349      0.528466
  H       2.120612     -0.260075      1.621249
  Si      1.015061     -0.374821     -0.584273
  O       0.000184      0.657344     -1.424231
  O       2.322252     -0.733908     -1.567390
  Si      2.658117     -1.311171     -3.104540
  Si     -1.587376      1.084932     -1.732707
  H       0.417895      2.265111      0.916516
  H      -4.092095     -0.705917      1.436846
  H      -1.534302      1.878314      3.103049
  H      -2.630480     -2.118072      2.807808
  H      -0.210293     -0.097528      3.694792
  H      -1.662507      1.597958     -3.143216
  H      -2.513361     -0.094911     -1.595974
  H      -2.029325      2.176452     -0.796711
  H       2.442727     -0.238484     -4.137207
  H       4.096723     -1.740667     -3.131008
  H       1.782263     -2.491513     -3.439325
  H       0.295562     -1.659287     -0.288310
  H      -2.539804     -2.272688      0.356401
26
Coordinates from ORCA-job my_molecule_MEP_ALL E -1757.328557421627
  O      -1.845706      0.529372      1.580749
  Si     -0.340506      0.389943      2.325301
  Si     -3.470566      0.551388      1.998738
  C       0.909653      1.476454      1.453733
  C       2.144539      1.054214      1.112262
  H       0.641324      2.531734      1.255479
  H       2.890276      1.724486      0.649950
  H       2.472343      0.013198      1.284131
  Si      0.908505     -1.997946     -1.356688
  O      -0.432876     -1.131278     -0.878286
  O       1.860444     -1.113469     -2.400156
  Si      2.996650      0.104653     -2.566457
  Si     -1.848984     -0.505833     -1.539255
  H       1.677416     -2.327971     -0.112517
  H      -3.656991      1.235870      3.328365
  H      -0.505750      0.847380      3.755385
  H      -4.017915     -0.847344      2.090754
  H       0.137438     -1.035406      2.318523
  H      -1.978320     -0.963651     -2.970224
  H      -3.032398     -1.018605     -0.770411
  H      -1.815201      0.993246     -1.507057
  H       2.340649      1.455571     -2.484937
  H       4.047325      0.002807     -1.491416
  H       3.649507     -0.050373     -3.909342
  H       0.484582     -3.226418     -2.103731
  H      -4.215440      1.307978      0.937107
26
Coordinates from ORCA-job my_molecule_MEP_ALL E -1757.323305086031
  O      -1.850449      0.455202      1.591766
  Si     -0.369780      0.489657      2.412940
  Si     -3.468064      0.212427      1.995895
  C       0.932469      1.498943      1.506920
  C       2.143114      1.042998      1.123141
  H       0.728540      2.577887      1.367372
  H       2.871729      1.674155      0.578676
  H       2.504887      0.035062      1.394075
  Si      0.842577     -1.859592     -1.195538
  O      -0.399932     -0.785562     -0.962449
  O       1.904157     -1.183533     -2.272407
  Si      3.060173     -0.079848     -2.734063
  Si     -1.805578     -0.176188     -1.642274
  H       1.472842     -2.143406      0.148461
  H      -3.818519      0.973956      3.243440
  H      -0.636389      1.113562      3.758378
  H      -3.767642     -1.248455      2.214334
  H       0.148448     -0.903450      2.632541
  H      -1.879673     -0.433349     -3.129263
  H      -2.970768     -0.879727     -1.011021
  H      -1.839985      1.305482     -1.414275
  H       2.498824      1.319821     -2.777187
  H       4.211214     -0.156126     -1.765550
  H       3.502429     -0.484297     -4.108485
  H       0.336413     -3.104090     -1.858584
  H      -4.351036      0.738471      0.903155
26
Coordinates from ORCA-job my_molecule_MEP_ALL E -1757.312544757515
  O      -1.854025      0.365676      1.596309
  Si     -0.411295      0.568378      2.483101
  Si     -3.442615     -0.072897      1.987862
  C       0.955398      1.503571      1.569669
  C       2.155767      1.027758      1.173847
  H       0.810490      2.596574      1.468132
  H       2.861832      1.620918      0.554671
  H       2.559178      0.063882      1.532570
  Si      0.784966     -1.704706     -1.090541
  O      -0.355031     -0.501592     -1.082231
  O       1.967482     -1.201503     -2.124381
  Si      3.099422     -0.256981     -2.881258
  Si     -1.776625      0.103501     -1.720699
  H       1.294876     -1.920613      0.322541
  H      -3.957844      0.783080      3.106986
  H      -0.788492      1.331482      3.722945
  H      -3.544933     -1.524689      2.382432
  H       0.133971     -0.760524      2.919118
  H      -1.820624      0.035631     -3.230017
  H      -2.911658     -0.743671     -1.224400
  H      -1.882363      1.540780     -1.302736
  H       2.616767      1.166333     -3.048542
  H       4.350217     -0.327522     -2.045259
  H       3.321209     -0.869387     -4.233305
  H       0.233402     -2.968733     -1.687300
  H      -4.399473      0.145253      0.850486
26
Coordinates from ORCA-job my_molecule_MEP_ALL E -1757.302576690627
  O      -1.855843      0.288992      1.612066
  Si     -0.455825      0.628714      2.549251
  Si     -3.402771     -0.326167      1.973177
  C       0.996537      1.498076      1.670411
  C       2.203293      1.018578      1.282970
  H       0.890245      2.597582      1.586969
  H       2.885088      1.579446      0.603366
  H       2.644637      0.084884      1.677848
  Si      0.737694     -1.530493     -1.051539
  O      -0.328869     -0.288560     -1.277420
  O       2.055371     -1.180661     -1.976735
  Si      3.114812     -0.438735     -3.015555
  Si     -1.777372      0.346680     -1.795736
  H       1.102524     -1.549259      0.407421
  H      -4.120577      0.621401      2.886760
  H      -0.937851      1.499070      3.676289
  H      -3.347641     -1.696129      2.601871
  H       0.083717     -0.629237      3.158144
  H      -1.812990      0.457282     -3.298339
  H      -2.886854     -0.587842     -1.409347
  H      -1.916571      1.711242     -1.184692
  H       2.699412      0.987005     -3.312971
  H       4.458555     -0.515323     -2.338452
  H       3.110271     -1.232288     -4.291349
  H       0.181889     -2.854335     -1.523277
  H      -4.320880     -0.489924      0.788871
26
Coordinates from ORCA-job my_molecule_MEP_ALL E -1757.288624519173
  O      -1.857280      0.239698      1.659884
  Si     -0.475140      0.656848      2.613524
  Si     -3.357613     -0.530086      1.954937
  C       1.095452      1.500991      1.854028
  C       2.299831      1.001505      1.471771
  H       1.012077      2.603376      1.777987
  H       3.000153      1.537612      0.787835
  H       2.686372      0.003908      1.755855
  Si      0.707562     -1.309602     -1.055280
  O      -0.389339     -0.273431     -1.698436
  O       2.145066     -1.188542     -1.866765
  Si      3.108901     -0.618755     -3.104950
  Si     -1.840287      0.490862     -1.905534
  H       0.851646     -0.640958      0.266272
  H      -4.276484      0.443091      2.637115
  H      -1.031766      1.586409      3.656272
  H      -3.207766     -1.783407      2.784062
  H       0.034751     -0.586118      3.266210
  H      -1.900598      0.765519     -3.372878
  H      -2.936678     -0.460742     -1.529642
  H      -1.938998      1.774820     -1.119543
  H       2.743799      0.789636     -3.528656
  H       4.515174     -0.703386     -2.573000
  H       2.920980     -1.537411     -4.277241
  H       0.218371     -2.746660     -1.197567
  H      -4.128187     -1.015175      0.743741
26
Coordinates from ORCA-job my_molecule_MEP_ALL E -1757.244894673192
  O      -1.809553      0.147884      1.638043
  Si     -0.461438      0.626924      2.609229
  Si     -3.301922     -0.644132      1.922774
  C       1.173987      1.466492      1.956094
  C       2.331498      0.895329      1.540582
  H       1.156981      2.573693      1.969680
  H       3.112184      1.401382      0.925851
  H       2.531493     -0.189236      1.638362
  Si      0.708225     -1.001032     -0.931250
  O      -0.480149     -0.367620     -1.875539
  O       2.173144     -1.136790     -1.733801
  Si      3.072370     -0.717056     -3.088610
  Si     -1.882969      0.499499     -1.966345
  H       0.690770      0.437058     -0.047133
  H      -4.290784      0.341438      2.486107
  H      -1.058461      1.585765      3.601246
  H      -3.134485     -1.821685      2.851002
  H       0.038983     -0.618179      3.260770
  H      -1.927260      0.838327     -3.413776
  H      -2.972932     -0.444292     -1.576877
  H      -2.025823      1.772855     -1.156155
  H       2.754024      0.662263     -3.627905
  H       4.507447     -0.821480     -2.652756
  H       2.780809     -1.704033     -4.181626
  H       0.292628     -2.531755     -0.860827
  H      -3.978766     -1.251619      0.712860
26
Coordinates from ORCA-job my_molecule_MEP_ALL E -1757.163504631477
  O      -1.752008      0.056139      1.567828
  Si     -0.460746      0.606515      2.570090
  Si     -3.241235     -0.725045      1.879937
  C       1.191941      1.410099      1.936958
  C       2.308703      0.780710      1.509115
  H       1.250696      2.506367      2.083910
  H       3.130091      1.240482      0.911997
  H       2.377269     -0.324729      1.511583
  Si      0.732258     -0.873075     -0.836218
  O      -0.463450     -0.262916     -1.761105
  O       2.189406     -1.031805     -1.640593
  Si      3.036803     -0.765112     -3.070556
  Si     -1.894305      0.523355     -1.956897
  H       0.612266      1.209458     -0.084829
  H      -4.259320      0.275510      2.363799
  H      -1.092475      1.597334      3.510634
  H      -3.080581     -1.834268      2.888224
  H       0.022781     -0.595290      3.311898
  H      -1.888730      0.832601     -3.413432
  H      -2.950142     -0.465864     -1.597918
  H      -2.139322      1.797504     -1.182029
  H       2.751413      0.580082     -3.696362
  H       4.482241     -0.911414     -2.693799
  H       2.659322     -1.814928     -4.078870
  H       0.329828     -2.399283     -0.716668
  H      -3.852702     -1.412425      0.683302
26
Coordinates from ORCA-job my_molecule_MEP_ALL E -1757.257750111020
  O      -1.740177      0.018491      1.546493
  Si     -0.484700      0.633008      2.532780
  Si     -3.207376     -0.784159      1.851579
  C       0.984441      1.454665      1.572442
  C       2.142481      0.580595      1.191789
  H       1.291088      2.392956      2.131264
  H       3.028206      1.125180      0.779998
  H       2.398458     -0.358625      1.657685
  Si      0.869499     -0.863108     -0.707846
  O      -0.343632     -0.097352     -1.579646
  O       2.218303     -0.999451     -1.651746
  Si      3.017449     -0.806138     -3.091969
  Si     -1.842434      0.564970     -1.916077
  H       0.610160      1.590783      0.357131
  H      -4.257170      0.207018      2.278367
  H      -1.123998      1.629016      3.472276
  H      -3.047174     -1.850622      2.901201
  H       0.020124     -0.531194      3.346620
  H      -1.847859      0.868917     -3.384041
  H      -2.896036     -0.447432     -1.596884
  H      -2.153438      1.831073     -1.161531
  H       2.735804      0.529013     -3.738093
  H       4.465895     -0.973198     -2.742646
  H       2.581498     -1.880065     -4.043283
  H       0.326252     -2.315932     -0.659728
  H      -3.745667     -1.518411      0.653865
26
Coordinates from ORCA-job my_molecule_MEP_ALL E -1757.358632044087
  O      -1.655403     -0.071805      1.500704
  Si     -0.541426      0.698206      2.525134
  Si     -3.052157     -0.993173      1.735719
  C       0.900373      1.466496      1.541101
  C       1.892297      0.442349      0.952269
  H       1.374178      2.202897      2.245393
  H       2.824406      0.989187      0.622234
  H       2.266560     -0.324936      1.665494
  Si      0.980420     -0.631198     -0.585482
  O      -0.184738      0.234280     -1.436838
  O       2.269873     -0.879012     -1.591965
  Si      2.904597     -0.977566     -3.117169
  Si     -1.730969      0.740932     -1.836262
  H       0.528286      1.990988      0.615342
  H      -4.230450     -0.090450      1.963255
  H      -1.269513      1.737412      3.336139
  H      -2.913474     -1.928936      2.902915
  H      -0.039706     -0.359210      3.483242
  H      -1.763037      1.088291     -3.300675
  H      -2.745288     -0.338485     -1.587698
  H      -2.135586      1.956991     -1.048050
  H       2.656839      0.287341     -3.895546
  H       4.364824     -1.233765     -2.906123
  H       2.281434     -2.123067     -3.853050
  H       0.333302     -2.026807     -0.474268
  H      -3.315644     -1.856959      0.544185
26
Coordinates from ORCA-job my_molecule_MEP_ALL E -1757.381892156518
  O      -1.534646     -0.163223      1.457234
  Si     -0.659716      0.781821      2.553217
  Si     -2.732009     -1.345813      1.518990
  C       0.812557      1.517516      1.637490
  C       1.737097      0.513976      0.917894
  H       1.381014      2.105379      2.394423
  H       2.641565      1.031809      0.528301
  H       2.120752     -0.258721      1.621282
  Si      1.015255     -0.374380     -0.584219
  O      -0.000164      0.657127     -1.424331
  O       2.322630     -0.732933     -1.567286
  Si      2.658792     -1.310255     -3.104349
  Si     -1.587947      1.083839     -1.732868
  H       0.416715      2.265469      0.916170
  H      -4.091721     -0.707835      1.436966
  H      -1.535274      1.877985      3.102768
  H      -2.629365     -2.119018      2.808139
  H      -0.210231     -0.097076      3.694807
  H      -1.663351      1.596611     -3.143454
  H      -2.513316     -0.096467     -1.595951
  H      -2.030464      2.175270     -0.797036
  H       2.442839     -0.237838     -4.137178
  H       4.097622     -1.739004     -3.130756
  H       1.783554     -2.491105     -3.438951
  H       0.296427     -1.659176     -0.288058
  H      -2.538616     -2.273960      0.356755
26
Coordinates from ORCA-job my_molecule_MEP_ALL E -1757.328557421627
  O      -1.845706      0.529372      1.580749
  Si     -0.340506      0.389943      2.325301
  Si     -3.470566      0.551388      1.998738
  C       0.909653      1.476454      1.453733
  C       2.144539      1.054214      1.112262
  H       0.641324      2.531734      1.255479
  H       2.890276      1.724486      0.649950
  H       2.472343      0.013198      1.284131
  Si      0.908505     -1.997946     -1.356688
  O      -0.432876     -1.131278     -0.878286
  O       1.860444     -1.113469     -2.400156
  Si      2.996650      0.104653     -2.566457
  Si     -1.848984     -0.505833     -1.539255
  H       1.677416     -2.327971     -0.112517
  H      -3.656991      1.235870      3.328365
  H      -0.505750      0.847380      3.755385
  H      -4.017915     -0.847344      2.090754
  H       0.137438     -1.035406      2.318523
  H      -1.978320     -0.963651     -2.970224
  H      -3.032398     -1.018605     -0.770411
  H      -1.815201      0.993246     -1.507057
  H       2.340649      1.455571     -2.484937
  H       4.047325      0.002807     -1.491416
  H       3.649507     -0.050373     -3.909342
  H       0.484582     -3.226418     -2.103731
  H      -4.215440      1.307978      0.937107
26
Coordinates from ORCA-job my_molecule_MEP_ALL E -1757.323930874838
  O      -1.849870      0.454761      1.592782
  Si     -0.369772      0.490579      2.415479
  Si     -3.467313      0.209822      1.996636
  C       0.930983      1.502208      1.512821
  C       2.146962      1.043236      1.129358
  H       0.724789      2.576862      1.359248
  H       2.870493      1.674864      0.583289
  H       2.500887      0.031244      1.388248
  Si      0.839388     -1.857981     -1.196280
  O      -0.401360     -0.782032     -0.961135
  O       1.908113     -1.187318     -2.269158
  Si      3.061354     -0.083833     -2.736224
  Si     -1.805939     -0.172731     -1.641858
  H       1.469156     -2.137964      0.144320
  H      -3.819002      0.970994      3.244785
  H      -0.638636      1.117792      3.759045
  H      -3.762841     -1.251692      2.215914
  H       0.148337     -0.903203      2.634618
  H      -1.875671     -0.427530     -3.129331
  H      -2.973057     -0.875578     -1.013710
  H      -1.842667      1.308272     -1.412272
  H       2.501954      1.316242     -2.779951
  H       4.214776     -0.154886     -1.770961
  H       3.503161     -0.487089     -4.111229
  H       0.334832     -3.104611     -1.853830
  H      -4.349056      0.729571      0.899395
26
Coordinates from ORCA-job my_molecule_MEP_ALL E -1757.314673182808
  O      -1.852135      0.363253      1.598467
  Si     -0.410808      0.568820      2.487289
  Si     -3.440758     -0.075401      1.989279
  C       0.951801      1.509818      1.580431
  C       2.163342      1.028133      1.183949
  H       0.801351      2.595452      1.452090
  H       2.860209      1.623905      0.566199
  H       2.551854      0.054932      1.521697
  Si      0.781486     -1.702340     -1.092897
  O      -0.357551     -0.498873     -1.081872
  O       1.973504     -1.206049     -2.118700
  Si      3.099874     -0.262606     -2.882889
  Si     -1.777368      0.106229     -1.720425
  H       1.289411     -1.912051      0.313723
  H      -3.958585      0.780712      3.108511
  H      -0.791368      1.337140      3.723265
  H      -3.537825     -1.526825      2.386096
  H       0.132355     -0.762777      2.920113
  H      -1.816168      0.042289     -3.229694
  H      -2.915047     -0.738508     -1.226613
  H      -1.886104      1.542147     -1.300912
  H       2.620971      1.160996     -3.050995
  H       4.354615     -0.324675     -2.053945
  H       3.322206     -0.871972     -4.236169
  H       0.231740     -2.967357     -1.680481
  H      -4.391001      0.135606      0.844484
26
Coordinates from ORCA-job my_molecule_MEP_ALL E -1757.305882922849
  O      -1.850710      0.282407      1.615269
  Si     -0.454173      0.628012      2.555467
  Si     -3.398309     -0.330601      1.974750
  C       0.993450      1.505608      1.685309
  C       2.210693      1.017632      1.295991
  H       0.880250      2.597578      1.568968
  H       2.885995      1.585577      0.625452
  H       2.633394      0.070548      1.665559
  Si      0.735070     -1.524048     -1.052614
  O      -0.334278     -0.287718     -1.289152
  O       2.062815     -1.184588     -1.968787
  Si      3.113164     -0.447732     -3.016212
  Si     -1.780619      0.349480     -1.799273
  H       1.095644     -1.525522      0.398041
  H      -4.124014      0.616943      2.884334
  H      -0.940509      1.505743      3.675501
  H      -3.337320     -1.697217      2.609231
  H       0.080598     -0.635251      3.159326
  H      -1.813434      0.467855     -3.300778
  H      -2.891970     -0.582074     -1.411446
  H      -1.921128      1.711513     -1.184186
  H       2.704276      0.977867     -3.317421
  H       4.462059     -0.514686     -2.351314
  H       3.109036     -1.238400     -4.293680
  H       0.183645     -2.846574     -1.510181
  H      -4.303624     -0.502352      0.781847
26
Coordinates from ORCA-job my_molecule_MEP_ALL E -1757.291822035662
  O      -1.844374      0.227318      1.657178
  Si     -0.470500      0.651932      2.618206
  Si     -3.347234     -0.534395      1.954625
  C       1.088917      1.505796      1.864026
  C       2.298825      0.989225      1.476299
  H       1.010799      2.602352      1.770302
  H       3.004546      1.540173      0.818131
  H       2.662450     -0.015007      1.739153
  Si      0.706002     -1.287827     -1.045448
  O      -0.400384     -0.275586     -1.724516
  O       2.148646     -1.184781     -1.855571
  Si      3.103920     -0.629173     -3.100836
  Si     -1.845750      0.489458     -1.914730
  H       0.849734     -0.594159      0.256208
  H      -4.276158      0.436292      2.630906
  H      -1.031498      1.589405      3.652436
  H      -3.197010     -1.782087      2.791497
  H       0.033387     -0.596420      3.267788
  H      -1.909327      0.775652     -3.380209
  H      -2.944028     -0.458440     -1.531557
  H      -1.945080      1.770831     -1.123670
  H       2.747132      0.777868     -3.531617
  H       4.515313     -0.705803     -2.583725
  H       2.916431     -1.546613     -4.274892
  H       0.229498     -2.722073     -1.167679
  H      -4.104255     -1.023939      0.737696
26
Coordinates from ORCA-job my_molecule_MEP_ALL E -1757.252413456788
  O      -1.792621      0.134636      1.626997
  Si     -0.457743      0.621577      2.611224
  Si     -3.287548     -0.650364      1.918793
  C       1.165312      1.467338      1.960002
  C       2.323257      0.876664      1.535796
  H       1.160306      2.568909      1.968499
  H       3.111804      1.393553      0.946785
  H       2.505201     -0.205673      1.619215
  Si      0.706064     -0.958802     -0.920904
  O      -0.486516     -0.357967     -1.887440
  O       2.171687     -1.116264     -1.717884
  Si      3.065776     -0.725639     -3.082007
  Si     -1.891738      0.499428     -1.974546
  H       0.694581      0.447201     -0.064946
  H      -4.284528      0.333373      2.474628
  H      -1.060337      1.588763      3.591440
  H      -3.123674     -1.818994      2.859049
  H       0.036003     -0.623239      3.271655
  H      -1.933043      0.843545     -3.421264
  H      -2.979664     -0.446481     -1.579129
  H      -2.031716      1.769556     -1.159071
  H       2.755516      0.650415     -3.630552
  H       4.505753     -0.827780     -2.661445
  H       2.769941     -1.717487     -4.171486
  H       0.309150     -2.483138     -0.819287
  H      -3.951224     -1.263131      0.705875
26
Coordinates from ORCA-job my_molecule_MEP_ALL E -1757.174151638191
  O      -1.740992      0.050857      1.563821
  Si     -0.457743      0.603875      2.574796
  Si     -3.231637     -0.728112      1.878103
  C       1.182307      1.415105      1.945184
  C       2.306442      0.768707      1.505142
  H       1.247814      2.505494      2.071814
  H       3.126715      1.240573      0.931011
  H       2.366326     -0.330178      1.505230
  Si      0.728714     -0.830530     -0.835873
  O      -0.470698     -0.263682     -1.784038
  O       2.189371     -1.020768     -1.632982
  Si      3.034182     -0.770117     -3.067195
  Si     -1.904556      0.523656     -1.964524
  H       0.616486      1.172582     -0.090382
  H      -4.254897      0.270415      2.357837
  H      -1.093641      1.601366      3.504549
  H      -3.073146     -1.831224      2.894131
  H       0.020301     -0.599377      3.320172
  H      -1.895009      0.837061     -3.419789
  H      -2.958038     -0.467853     -1.599079
  H      -2.135958      1.795397     -1.181132
  H       2.752436      0.573828     -3.695383
  H       4.482754     -0.913138     -2.700154
  H       2.654172     -1.822669     -4.072967
  H       0.342118     -2.365057     -0.686072
  H      -3.833826     -1.416211      0.677781
26
Coordinates from ORCA-job my_molecule_MEP_ALL E -1757.255481889216
  O      -1.740794      0.022862      1.548421
  Si     -0.480639      0.627524      2.535699
  Si     -3.211660     -0.772183      1.858540
  C       0.982769      1.447796      1.571259
  C       2.151551      0.587393      1.206249
  H       1.272233      2.410250      2.101707
  H       3.036593      1.138155      0.798470
  H       2.403078     -0.361743      1.658265
  Si      0.862982     -0.864690     -0.719179
  O      -0.355655     -0.117884     -1.603052
  O       2.216823     -1.004960     -1.655986
  Si      3.024010     -0.799667     -3.090228
  Si     -1.854711      0.553528     -1.925047
  H       0.617025      1.544869      0.369601
  H      -4.255717      0.221001      2.297894
  H      -1.114510      1.624150      3.477762
  H      -3.050272     -1.844714      2.903017
  H       0.023568     -0.543215      3.340375
  H      -1.857944      0.860232     -3.392156
  H      -2.911379     -0.454791     -1.597592
  H      -2.146365      1.821373     -1.165696
  H       2.741467      0.539586     -3.726732
  H       4.473376     -0.955933     -2.738176
  H       2.600582     -1.868131     -4.055049
  H       0.334240     -2.318925     -0.654308
  H      -3.760650     -1.491884      0.655943
26
Coordinates from ORCA-job my_molecule_MEP_ALL E -1757.356824349252
  O      -1.665067     -0.063202      1.504400
  Si     -0.536037      0.689819      2.525555
  Si     -3.071202     -0.968236      1.751536
  C       0.902092      1.456138      1.536378
  C       1.905361      0.438276      0.960053
  H       1.360887      2.224003      2.219776
  H       2.833407      0.992714      0.629502
  H       2.279327     -0.327010      1.669933
  Si      0.978655     -0.647088     -0.591049
  O      -0.199116      0.200021     -1.445847
  O       2.268091     -0.891763     -1.596980
  Si      2.921640     -0.955902     -3.116360
  Si     -1.743257      0.715902     -1.844607
  H       0.532557      1.948939      0.605609
  H      -4.234284     -0.052246      2.004589
  H      -1.251081      1.725583      3.352622
  H      -2.927285     -1.918191      2.907189
  H      -0.028416     -0.378384      3.464598
  H      -1.772475      1.058352     -3.310484
  H      -2.764652     -0.356089     -1.588580
  H      -2.136693      1.939861     -1.062744
  H       2.669606      0.319711     -3.875401
  H       4.382282     -1.196853     -2.891172
  H       2.321170     -2.094186     -3.882447
  H       0.342963     -2.047224     -0.479644
  H      -3.368471     -1.812944      0.553578
26
Coordinates from ORCA-job my_molecule_MEP_ALL E -1757.381892156518
  O      -1.534488     -0.164037      1.457308
  Si     -0.660099      0.781647      2.553172
  Si     -2.731119     -1.347362      1.519219
  C       0.811683      1.518168      1.637320
  C       1.736816      0.515133      0.917780
  H       1.379807      2.106451      2.394177
  H       2.640948      1.033490      0.528104
  H       2.120975     -0.257263      1.621224
  Si      1.015463     -0.373806     -0.584224
  O      -0.000625      0.656997     -1.424391
  O       2.323022     -0.731642     -1.567309
  Si      2.659481     -1.308897     -3.104332
  Si     -1.588685      1.082700     -1.732905
  H       0.415351      2.265810      0.915947
  H      -4.091228     -0.710231      1.437190
  H      -1.536313      1.877320      3.102656
  H      -2.627947     -2.120385      2.808435
  H      -0.210027     -0.096867      3.694824
  H      -1.664460      1.595296     -3.143536
  H      -2.513319     -0.098165     -1.595845
  H      -2.031839      2.173943     -0.797156
  H       2.442825     -0.236708     -4.137252
  H       4.098575     -1.736759     -3.130756
  H       1.784958     -2.490318     -3.438793
  H       0.297441     -1.659019     -0.287918
  H      -2.537198     -2.275496      0.357062
26
Coordinates from ORCA-job my_molecule_MEP_ALL E -1757.328557421627
  O      -1.845706      0.529372      1.580749
  Si     -0.340506      0.389943      2.325301
  Si     -3.470566      0.551388      1.998738
  C       0.909653      1.476454      1.453733
  C       2.144539      1.054214      1.112262
  H       0.641324      2.531734      1.255479
  H       2.890276      1.724486      0.649950
  H       2.472343      0.013198      1.284131
  Si      0.908505     -1.997946     -1.356688
  O      -0.432876     -1.131278     -0.878286
  O       1.860444     -1.113469     -2.400156
  Si      2.996650      0.104653     -2.566457
  Si     -1.848984     -0.505833     -1.539255
  H       1.677416     -2.327971     -0.112517
  H      -3.656991      1.235870      3.328365
  H      -0.505750      0.847380      3.755385
  H      -4.017915     -0.847344      2.090754
  H       0.137438     -1.035406      2.318523
  H      -1.978320     -0.963651     -2.970224
  H      -3.032398     -1.018605     -0.770411
  H      -1.815201      0.993246     -1.507057
  H       2.340649      1.455571     -2.484937
  H       4.047325      0.002807     -1.491416
  H       3.649507     -0.050373     -3.909342
  H       0.484582     -3.226418     -2.103731
  H      -4.215440      1.307978      0.937107
26
Coordinates from ORCA-job my_molecule_MEP_ALL E -1757.324453643665
  O      -1.849253      0.454515      1.593877
  Si     -0.370242      0.491446      2.418012
  Si     -3.466398      0.207568      1.997287
  C       0.937437      1.500500      1.514955
  C       2.140480      1.046487      1.136820
  H       0.721064      2.577372      1.352122
  H       2.870913      1.676408      0.587142
  H       2.497844      0.026885      1.383761
  Si      0.836718     -1.856139     -1.197145
  O      -0.402267     -0.779344     -0.960093
  O       1.911283     -1.190868     -2.266788
  Si      3.063005     -0.086889     -2.738332
  Si     -1.806947     -0.169434     -1.641629
  H       1.466438     -2.133481      0.141813
  H      -3.819332      0.968365      3.245889
  H      -0.640622      1.121261      3.759893
  H      -3.758545     -1.254457      2.217335
  H       0.148247     -0.902826      2.636277
  H      -1.871912     -0.422621     -3.129270
  H      -2.975367     -0.871886     -1.016018
  H      -1.845150      1.310821     -1.410444
  H       2.504472      1.313013     -2.782245
  H       4.218208     -0.153627     -1.775671
  H       3.503959     -0.489450     -4.113677
  H       0.332910     -3.105565     -1.850057
  H      -4.346943      0.721947      0.896186
26
Coordinates from ORCA-job my_molecule_MEP_ALL E -1757.316407221549
  O      -1.850246      0.361157      1.600715
  Si     -0.411525      0.569385      2.491644
  Si     -3.438479     -0.078027      1.990532
  C       0.964763      1.505599      1.583357
  C       2.149451      1.035133      1.198066
  H       0.792973      2.597033      1.438592
  H       2.861973      1.628326      0.575308
  H       2.546633      0.045221      1.513869
  Si      0.778526     -1.698966     -1.095353
  O      -0.359087     -0.496458     -1.082153
  O       1.978609     -1.210414     -2.113869
  Si      3.101585     -0.266998     -2.885277
  Si     -1.779440      0.109657     -1.720773
  H       1.285146     -1.904229      0.308698
  H      -3.959343      0.778183      3.109290
  H      -0.794189      1.341976      3.723876
  H      -3.531117     -1.528931      2.389855
  H       0.130969     -0.764283      2.921249
  H      -1.812048      0.048677     -3.229550
  H      -2.918291     -0.733731     -1.228875
  H      -1.889654      1.543808     -1.299024
  H       2.624365      1.155968     -3.053398
  H       4.359113     -0.322399     -2.062077
  H       3.322757     -0.874937     -4.238862
  H       0.229267     -2.967136     -1.675102
  H      -4.382712      0.126384      0.839262
26
Coordinates from ORCA-job my_molecule_MEP_ALL E -1757.308581439307
  O      -1.845578      0.276466      1.618397
  Si     -0.454030      0.627545      2.561690
  Si     -3.393167     -0.335785      1.975971
  C       1.007524      1.501546      1.691673
  C       2.195704      1.024349      1.313798
  H       0.872180      2.599789      1.555532
  H       2.890714      1.592236      0.644718
  H       2.624476      0.055334      1.656946
  Si      0.733405     -1.514576     -1.054578
  O      -0.337529     -0.287258     -1.302354
  O       2.068452     -1.188558     -1.960152
  Si      3.114022     -0.455259     -3.019248
  Si     -1.786616      0.353997     -1.804251
  H       1.089293     -1.499199      0.393233
  H      -4.127377      0.611652      2.880371
  H      -0.943375      1.511441      3.675045
  H      -3.327228     -1.698677      2.617137
  H       0.077923     -0.640037      3.161128
  H      -1.814893      0.479022     -3.303815
  H      -2.897105     -0.576370     -1.414201
  H      -1.925569      1.712172     -1.183424
  H       2.708178      0.968675     -3.322297
  H       4.465843     -0.515394     -2.363923
  H       3.106537     -1.245977     -4.295506
  H       0.184494     -2.841200     -1.497324
  H      -4.286279     -0.515937      0.775434
26
Coordinates from ORCA-job my_molecule_MEP_ALL E -1757.294612247008
  O      -1.832608      0.216646      1.654558
  Si     -0.468319      0.647873      2.622257
  Si     -3.337524     -0.538773      1.953883
  C       1.099482      1.497249      1.865629
  C       2.277450      0.990783      1.486155
  H       1.009553      2.604535      1.765182
  H       3.010286      1.542000      0.843053
  H       2.642441     -0.036166      1.725760
  Si      0.703560     -1.263650     -1.041896
  O      -0.401612     -0.282095     -1.745264
  O       2.149050     -1.180599     -1.842528
  Si      3.102432     -0.636535     -3.100496
  Si     -1.856540      0.491487     -1.924257
  H       0.848315     -0.554219      0.249329
  H      -4.274331      0.429828      2.624531
  H      -1.031531      1.591158      3.649110
  H      -3.187147     -1.780830      2.798449
  H       0.032533     -0.604749      3.270124
  H      -1.918115      0.784732     -3.386976
  H      -2.950672     -0.456515     -1.533895
  H      -1.950225      1.767044     -1.127288
  H       2.749469      0.767654     -3.533984
  H       4.515543     -0.708546     -2.592930
  H       2.911602     -1.555475     -4.271691
  H       0.238699     -2.701036     -1.138902
  H      -4.081791     -1.031803      0.732087
26
Coordinates from ORCA-job my_molecule_MEP_ALL E -1757.259676962432
  O      -1.778348      0.123556      1.618532
  Si     -0.455860      0.617820      2.613817
  Si     -3.274872     -0.655978      1.915203
  C       1.171985      1.454377      1.958474
  C       2.300897      0.875095      1.538952
  H       1.162090      2.569445      1.967023
  H       3.112505      1.387102      0.964271
  H       2.484053     -0.223902      1.604001
  Si      0.702307     -0.924628     -0.919314
  O      -0.487802     -0.353373     -1.898539
  O       2.171470     -1.097667     -1.704488
  Si      3.061710     -0.731684     -3.078005
  Si     -1.902403      0.501063     -1.982525
  H       0.698081      0.451896     -0.077441
  H      -4.277934      0.326319      2.464501
  H      -1.062520      1.591050      3.583659
  H      -3.113839     -1.816396      2.866035
  H       0.033535     -0.627190      3.281271
  H      -1.939991      0.848461     -3.428367
  H      -2.986141     -0.448158     -1.581769
  H      -2.036018      1.766561     -1.161425
  H       2.756623      0.640912     -3.632655
  H       4.504279     -0.833132     -2.668648
  H       2.760502     -1.728940     -4.161628
  H       0.322540     -2.439890     -0.780461
  H      -3.926849     -1.272720      0.699528
26
Coordinates from ORCA-job my_molecule_MEP_ALL E -1757.185792429902
  O      -1.730621      0.044679      1.559758
  Si     -0.457250      0.602212      2.579289
  Si     -3.221813     -0.732446      1.875637
  C       1.191332      1.398933      1.935922
  C       2.276351      0.771568      1.508973
  H       1.246348      2.508571      2.063603
  H       3.126524      1.238187      0.942037
  H       2.356752     -0.342649      1.501870
  Si      0.728321     -0.788275     -0.832546
  O      -0.475764     -0.261957     -1.802090
  O       2.189787     -1.007816     -1.625894
  Si      3.031528     -0.774776     -3.064440
  Si     -1.912100      0.524001     -1.971124
  H       0.620818      1.142678     -0.090294
  H      -4.249811      0.264384      2.350288
  H      -1.095682      1.604855      3.498535
  H      -3.065287     -1.828699      2.899678
  H       0.018132     -0.601570      3.328201
  H      -1.901632      0.841856     -3.425698
  H      -2.964686     -0.469131     -1.600820
  H      -2.134373      1.793908     -1.180449
  H       2.753164      0.567571     -3.695852
  H       4.482879     -0.916062     -2.706722
  H       2.647664     -1.830957     -4.065911
  H       0.353745     -2.326870     -0.654164
  H      -3.814325     -1.422196      0.672212
26
Coordinates from ORCA-job my_molecule_MEP_ALL E -1757.253207377011
  O      -1.739221      0.024754      1.549166
  Si     -0.477705      0.622301      2.538874
  Si     -3.212611     -0.764205      1.863021
  C       0.977020      1.445909      1.572568
  C       2.161651      0.586707      1.214262
  H       1.257579      2.419302      2.077501
  H       3.040933      1.146424      0.815999
  H       2.404138     -0.364394      1.657754
  Si      0.858493     -0.859752     -0.726918
  O      -0.364094     -0.132542     -1.623022
  O       2.216010     -1.006511     -1.658664
  Si      3.028665     -0.795665     -3.088919
  Si     -1.864553      0.545093     -1.933073
  H       0.619506      1.511681      0.377588
  H      -4.253175      0.229764      2.310649
  H      -1.107777      1.621341      3.480573
  H      -3.050875     -1.839607      2.905162
  H       0.025365     -0.552615      3.337954
  H      -1.867573      0.854866     -3.399599
  H      -2.923961     -0.460015     -1.598766
  H      -2.140838      1.813604     -1.168626
  H       2.745607      0.546006     -3.718379
  H       4.478782     -0.943935     -2.736179
  H       2.613574     -1.860821     -4.061810
  H       0.341924     -2.314184     -0.643714
  H      -3.766866     -1.473506      0.656599
26
Coordinates from ORCA-job my_molecule_MEP_ALL E -1757.353798660334
  O      -1.674910     -0.054381      1.508433
  Si     -0.530300      0.681256      2.526156
  Si     -3.089984     -0.942568      1.767172
  C       0.906775      1.446175      1.538142
  C       1.919039      0.438262      0.968304
  H       1.345974      2.244462      2.192648
  H       2.844745      0.998850      0.640213
  H       2.293550     -0.331643      1.675532
  Si      0.975900     -0.663712     -0.597578
  O      -0.213980      0.164038     -1.457845
  O       2.265912     -0.904973     -1.603625
  Si      2.938593     -0.934264     -3.114841
  Si     -1.756350      0.690717     -1.853990
  H       0.533551      1.906969      0.588566
  H      -4.237542     -0.014123      2.046598
  H      -1.232271      1.713612      3.368951
  H      -2.941110     -1.907149      2.910712
  H      -0.017741     -0.399234      3.447231
  H      -1.783134      1.028458     -3.321048
  H      -2.784806     -0.373247     -1.589750
  H      -2.136889      1.921972     -1.077322
  H       2.682136      0.351731     -3.854576
  H       4.399592     -1.159814     -2.875598
  H       2.361779     -2.064830     -3.910994
  H       0.351942     -2.068977     -0.485050
  H      -3.420471     -1.767589      0.563561
26
Coordinates from ORCA-job my_molecule_MEP_ALL E -1757.381892156518
  O      -1.534350     -0.164823      1.457366
  Si     -0.660591      0.781664      2.553039
  Si     -2.730166     -1.348958      1.519515
  C       0.810669      1.519027      1.637026
  C       1.736478      0.516495      0.917654
  H       1.378401      2.107840      2.393764
  H       2.640247      1.035401      0.527868
  H       2.121180     -0.255507      1.621234
  Si      1.015710     -0.373216     -0.584173
  O      -0.001101      0.656734     -1.424512
  O       2.323497     -0.730334     -1.567215
  Si      2.660326     -1.307641     -3.104138
  Si     -1.589458      1.081289     -1.733077
  H       0.413810      2.266264      0.915522
  H      -4.090714     -0.712777      1.437392
  H      -1.537548      1.876836      3.102337
  H      -2.626440     -2.121673      2.808871
  H      -0.209896     -0.096331      3.694846
  H      -1.665610      1.593573     -3.143800
  H      -2.513279     -0.100186     -1.595783
  H      -2.033346      2.172400     -0.797521
  H       2.442915     -0.235791     -4.137251
  H       4.099712     -1.734520     -3.130508
  H       1.786609     -2.489725     -3.438365
  H       0.298576     -1.658868     -0.287618
  H      -2.535627     -2.277172      0.357525
26
Coordinates from ORCA-job my_molecule_MEP_ALL E -1757.328557421627
  O      -1.845706      0.529372      1.580749
  Si     -0.340506      0.389943      2.325301
  Si     -3.470566      0.551388      1.998738
  C       0.909653      1.476454      1.453733
  C       2.144539      1.054214      1.112262
  H       0.641324      2.531734      1.255479
  H       2.890276      1.724486      0.649950
  H       2.472343      0.013198      1.284131
  Si      0.908505     -1.997946     -1.356688
  O      -0.432876     -1.131278     -0.878286
  O       1.860444     -1.113469     -2.400156
  Si      2.996650      0.104653     -2.566457
  Si     -1.848984     -0.505833     -1.539255
  H       1.677416     -2.327971     -0.112517
  H      -3.656991      1.235870      3.328365
  H      -0.505750      0.847380      3.755385
  H      -4.017915     -0.847344      2.090754
  H       0.137438     -1.035406      2.318523
  H      -1.978320     -0.963651     -2.970224
  H      -3.032398     -1.018605     -0.770411
  H      -1.815201      0.993246     -1.507057
  H       2.340649      1.455571     -2.484937
  H       4.047325      0.002807     -1.491416
  H       3.649507     -0.050373     -3.909342
  H       0.484582     -3.226418     -2.103731
  H      -4.215440      1.307978      0.937107
26
Coordinates from ORCA-job my_molecule_MEP_ALL E -1757.324721868922
  O      -1.848594      0.454308      1.594986
  Si     -0.370456      0.492374      2.420460
  Si     -3.465472      0.205231      1.997947
  C       0.939251      1.501159      1.518331
  C       2.139107      1.047793      1.142642
  H       0.717522      2.576967      1.345087
  H       2.870675      1.677530      0.591576
  H       2.494350      0.023341      1.379158
  Si      0.834088     -1.854382     -1.197962
  O      -0.403325     -0.776498     -0.959123
  O       1.914585     -1.194373     -2.264512
  Si      3.064659     -0.090053     -2.740464
  Si     -1.807899     -0.166093     -1.641378
  H       1.463705     -2.128934      0.139415
  H      -3.819679      0.965670      3.246959
  H      -0.642647      1.124813      3.760774
  H      -3.754141     -1.257292      2.218808
  H       0.148121     -0.902412      2.638016
  H      -1.868076     -0.417604     -3.129225
  H      -2.977747     -0.868131     -1.018379
  H      -1.847692      1.313470     -1.408564
  H       2.506997      1.309725     -2.784599
  H       4.221759     -0.152363     -1.780471
  H       3.504766     -0.491903     -4.116195
  H       0.330898     -3.106502     -1.846235
  H      -4.344755      0.714161      0.892948
26
Coordinates from ORCA-job my_molecule_MEP_ALL E -1757.317163671815
  O      -1.848271      0.359110      1.602988
  Si     -0.411666      0.570020      2.495793
  Si     -3.436152     -0.080807      1.991800
  C       0.968136      1.506443      1.589029
  C       2.146288      1.037872      1.208755
  H       0.784895      2.596744      1.425262
  H       2.862428      1.631953      0.585760
  H       2.540391      0.037190      1.505654
  Si      0.775624     -1.695756     -1.097685
  O      -0.360922     -0.493713     -1.082657
  O       1.984017     -1.214682     -2.109196
  Si      3.103280     -0.271564     -2.887670
  Si     -1.781426      0.113136     -1.721121
  H       1.280837     -1.896192      0.303878
  H      -3.960136      0.775556      3.109964
  H      -0.797064      1.346959      3.724516
  H      -3.524233     -1.531106      2.393765
  H       0.129502     -0.765748      2.922538
  H      -1.807887      0.055246     -3.229472
  H      -2.921637     -0.728877     -1.231218
  H      -1.893303      1.545606     -1.297059
  H       2.627746      1.150854     -3.055907
  H       4.363795     -0.320152     -2.070391
  H       3.323262     -0.878097     -4.241654
  H       0.226687     -2.966889     -1.669659
  H      -4.374191      0.116892      0.833986
26
Coordinates from ORCA-job my_molecule_MEP_ALL E -1757.310004463473
  O      -1.840305      0.270508      1.621536
  Si     -0.453244      0.627044      2.567747
  Si     -3.387833     -0.341261      1.977185
  C       1.011877      1.502679      1.700773
  C       2.191751      1.026413      1.328382
  H       0.864472      2.600084      1.542489
  H       2.894287      1.598129      0.665674
  H       2.614231      0.041852      1.647808
  Si      0.731670     -1.505244     -1.056155
  O      -0.341500     -0.286160     -1.316409
  O       2.074927     -1.192169     -1.951959
  Si      3.114654     -0.463190     -3.022110
  Si     -1.792442      0.358505     -1.809331
  H       1.082785     -1.471811      0.388656
  H      -4.130789      0.606128      2.876104
  H      -0.946296      1.517276      3.674591
  H      -3.316858     -1.700212      2.625350
  H       0.075174     -0.644794      3.163156
  H      -1.816606      0.490572     -3.307109
  H      -2.902452     -0.570568     -1.417109
  H      -1.930158      1.712958     -1.182596
  H       2.712041      0.959304     -3.327403
  H       4.469836     -0.516299     -2.376834
  H       3.103808     -1.254008     -4.297382
  H       0.185386     -2.835694     -1.483978
  H      -4.268418     -0.530040      0.768924
26
Coordinates from ORCA-job my_molecule_MEP_ALL E -1757.296255953193
  O      -1.820827      0.205970      1.651858
  Si     -0.465504      0.643521      2.626128
  Si     -3.327566     -0.543295      1.953138
  C       1.100546      1.494571      1.869829
  C       2.266996      0.986495      1.492983
  H       1.008455      2.604582      1.760348
  H       3.014848      1.543174      0.869150
  H       2.621044     -0.054954      1.711716
  Si      0.701633     -1.240350     -1.037469
  O      -0.405607     -0.286621     -1.767308
  O       2.150640     -1.175769     -1.830425
  Si      3.100444     -0.644164     -3.099502
  Si     -1.865810      0.492649     -1.933677
  H       0.846887     -0.514464      0.242543
  H      -4.272243      0.423292      2.618052
  H      -1.031532      1.592905      3.645792
  H      -3.177117     -1.779547      2.805517
  H       0.031638     -0.613040      3.272677
  H      -1.927202      0.793976     -3.393943
  H      -2.957511     -0.454620     -1.536313
  H      -1.955383      1.763356     -1.130812
  H       2.751715      0.757564     -3.536427
  H       4.515876     -0.711366     -2.602218
  H       2.906600     -1.564521     -4.268463
  H       0.247934     -2.679635     -1.109543
  H      -4.058955     -1.039710      0.726370
26
Coordinates from ORCA-job my_molecule_MEP_ALL E -1757.265392203959
  O      -1.763997      0.112443      1.610140
  Si     -0.453583      0.613662      2.616349
  Si     -3.262013     -0.661756      1.911570
  C       1.170797      1.447689      1.959778
  C       2.287501      0.867098      1.538955
  H       1.163847      2.567531      1.965581
  H       3.112180      1.380139      0.982606
  H       2.462253     -0.239793      1.588718
  Si      0.699218     -0.890800     -0.917671
  O      -0.490637     -0.347960     -1.910681
  O       2.171578     -1.078696     -1.691438
  Si      3.057562     -0.737634     -3.073925
  Si     -1.912282      0.502298     -1.990549
  H       0.701536      0.456517     -0.089512
  H      -4.271099      0.319168      2.454256
  H      -1.064720      1.593325      3.575947
  H      -3.103836     -1.813814      2.873037
  H       0.030983     -0.631188      3.291062
  H      -1.947293      0.853666     -3.435589
  H      -2.992781     -0.449708     -1.584538
  H      -2.040274      1.763674     -1.163663
  H       2.757696      0.631577     -3.634855
  H       4.502825     -0.838524     -2.675972
  H       2.750856     -1.740418     -4.151661
  H       0.335840     -2.396115     -0.740984
  H      -3.902156     -1.282379      0.693038
26
Coordinates from ORCA-job my_molecule_MEP_ALL E -1757.195271639727
  O      -1.720152      0.038433      1.555775
  Si     -0.456333      0.600053      2.583464
  Si     -3.211930     -0.736968      1.873088
  C       1.188281      1.392616      1.931579
  C       2.260202      0.765458      1.506428
  H       1.244664      2.508095      2.054781
  H       3.123917      1.234511      0.954513
  H       2.346700     -0.352770      1.498903
  Si      0.728042     -0.745109     -0.829108
  O      -0.480498     -0.260139     -1.820080
  O       2.190142     -0.994334     -1.618861
  Si      3.028851     -0.779250     -3.061754
  Si     -1.919663      0.524496     -1.977808
  H       0.625263      1.111337     -0.090047
  H      -4.244535      0.258231      2.342668
  H      -1.097662      1.608351      3.492627
  H      -3.057290     -1.826237      2.905184
  H       0.015920     -0.603830      3.336382
  H      -1.908597      0.846969     -3.431646
  H      -2.971429     -0.470189     -1.602679
  H      -2.132760      1.792419     -1.179697
  H       2.753900      0.561486     -3.696380
  H       4.482993     -0.918939     -2.713451
  H       2.641037     -1.839122     -4.058832
  H       0.365510     -2.287347     -0.621565
  H      -3.794572     -1.428220      0.666515
26
Coordinates from ORCA-job my_molecule_MEP_ALL E -1757.251802336419
  O      -1.737324      0.026284      1.549792
  Si     -0.474850      0.616975      2.542313
  Si     -3.213189     -0.756574      1.867307
  C       0.973005      1.441704      1.573221
  C       2.168754      0.587652      1.222637
  H       1.243274      2.428502      2.053921
  H       3.045810      1.154502      0.833629
  H       2.405061     -0.368460      1.657340
  Si      0.854257     -0.853583     -0.734573
  O      -0.372647     -0.146803     -1.643374
  O       2.215134     -1.007471     -1.661194
  Si      3.033174     -0.791625     -3.087659
  Si     -1.874352      0.536941     -1.941175
  H       0.621720      1.478365      0.385109
  H      -4.250383      0.238091      2.322985
  H      -1.101187      1.618370      3.483345
  H      -3.051201     -1.834634      2.907294
  H       0.027033     -0.562250      3.335858
  H      -1.877487      0.850048     -3.407097
  H      -2.936586     -0.464931     -1.600079
  H      -2.135352      1.805962     -1.171378
  H       2.749676      0.552396     -3.710187
  H       4.484071     -0.932126     -2.734497
  H       2.626107     -1.853620     -4.068308
  H       0.349760     -2.308123     -0.632223
  H      -3.772278     -1.455593      0.656995
26
Coordinates from ORCA-job my_molecule_MEP_ALL E -1757.349773882189
  O      -1.684785     -0.045352      1.512589
  Si     -0.524369      0.672114      2.527084
  Si     -3.109130     -0.916322      1.783088
  C       0.910678      1.436379      1.538507
  C       1.933681      0.437574      0.977378
  H       1.330952      2.265487      2.165320
  H       2.856608      1.005273      0.651776
  H       2.307982     -0.336406      1.680812
  Si      0.972998     -0.680522     -0.604536
  O      -0.229204      0.127164     -1.470520
  O       2.263410     -0.918419     -1.610469
  Si      2.955930     -0.912025     -3.113463
  Si     -1.769786      0.665158     -1.863689
  H       0.534691      1.863314      0.571989
  H      -4.240704      0.024766      2.089601
  H      -1.212909      1.701126      3.385727
  H      -2.955244     -1.895920      2.914087
  H      -0.007008     -0.421014      3.429620
  H      -1.794277      0.998300     -3.331914
  H      -2.805594     -0.390473     -1.591026
  H      -2.136895      1.903753     -1.092019
  H       2.694895      0.384576     -3.833185
  H       4.417186     -1.121897     -2.859753
  H       2.403274     -2.034559     -3.940164
  H       0.361019     -2.091091     -0.490533
  H      -3.473400     -1.720985      0.573696
26
Coordinates from ORCA-job my_molecule_MEP_ALL E -1757.381892156518
  O      -1.534208     -0.165692      1.457417
  Si     -0.661070      0.781520      2.552959
  Si     -2.729217     -1.350633      1.519733
  C       0.809670      1.519775      1.636828
  C       1.736146      0.517786      0.917557
  H       1.377018      2.109064      2.393484
  H       2.639554      1.037260      0.527689
  H       2.121388     -0.253870      1.621220
  Si      1.015952     -0.372595     -0.584149
  O      -0.001578      0.656563     -1.424590
  O       2.323961     -0.728942     -1.567176
  Si      2.661151     -1.306203     -3.104036
  Si     -1.590230      1.080001     -1.733173
  H       0.412288      2.266655      0.915243
  H      -4.090201     -0.715388      1.437562
  H      -1.538761      1.876161      3.102144
  H      -2.624940     -2.123124      2.809179
  H      -0.209753     -0.096032      3.694862
  H      -1.666760      1.592065     -3.143957
  H      -2.513244     -0.102086     -1.595719
  H      -2.034841      2.170922     -0.797739
  H       2.442989     -0.234624     -4.137273
  H       4.100828     -1.732106     -3.130385
  H       1.788231     -2.488921     -3.438105
  H       0.299698     -1.658699     -0.287426
  H      -2.534072     -2.278855      0.357850
26
Coordinates from ORCA-job my_molecule_MEP_ALL E -1757.328557421627
  O      -1.845706      0.529372      1.580749
  Si     -0.340506      0.389943      2.325301
  Si     -3.470566      0.551388      1.998738
  C       0.909653      1.476454      1.453733
  C       2.144539      1.054214      1.112262
  H       0.641324      2.531734      1.255479
  H       2.890276      1.724486      0.649950
  H       2.472343      0.013198      1.284131
  Si      0.908505     -1.997946     -1.356688
  O      -0.432876     -1.131278     -0.878286
  O       1.860444     -1.113469     -2.400156
  Si      2.996650      0.104653     -2.566457
  Si     -1.848984     -0.505833     -1.539255
  H       1.677416     -2.327971     -0.112517
  H      -3.656991      1.235870      3.328365
  H      -0.505750      0.847380      3.755385
  H      -4.017915     -0.847344      2.090754
  H       0.137438     -1.035406      2.318523
  H      -1.978320     -0.963651     -2.970224
  H      -3.032398     -1.018605     -0.770411
  H      -1.815201      0.993246     -1.507057
  H       2.340649      1.455571     -2.484937
  H       4.047325      0.002807     -1.491416
  H       3.649507     -0.050373     -3.909342
  H       0.484582     -3.226418     -2.103731
  H      -4.215440      1.307978      0.937107
26
Coordinates from ORCA-job my_molecule_MEP_ALL E -1757.324945831548
  O      -1.848235      0.454345      1.595470
  Si     -0.369892      0.492929      2.421197
  Si     -3.465027      0.203997      1.998209
  C       0.927683      1.507522      1.522610
  C       2.151779      1.043141      1.140336
  H       0.716728      2.574393      1.342854
  H       2.868934      1.676852      0.594869
  H       2.491855      0.024233      1.377359
  Si      0.833270     -1.853979     -1.198062
  O      -0.404181     -0.774880     -0.959102
  O       1.916218     -1.195520     -2.264017
  Si      3.065327     -0.091609     -2.741382
  Si     -1.808082     -0.164619     -1.641234
  H       1.462644     -2.127010      0.139075
  H      -3.819899      0.964399      3.247175
  H      -0.643562      1.126411      3.761229
  H      -3.752082     -1.258647      2.219593
  H       0.147965     -0.902052      2.638995
  H      -1.866379     -0.415274     -3.129287
  H      -2.978875     -0.866491     -1.019489
  H      -1.848857      1.314878     -1.407649
  H       2.507948      1.308270     -2.785737
  H       4.223548     -0.151925     -1.782627
  H       3.505061     -0.493227     -4.117410
  H       0.329777     -3.106737     -1.844642
  H      -4.343667      0.710598      0.891670
26
Coordinates from ORCA-job my_molecule_MEP_ALL E -1757.317768835340
  O      -1.847282      0.358474      1.603948
  Si     -0.410271      0.570512      2.496868
  Si     -3.434998     -0.082495      1.992300
  C       0.943793      1.519957      1.597938
  C       2.173191      1.027562      1.203410
  H       0.782838      2.591605      1.421142
  H       2.859317      1.631233      0.593438
  H       2.535357      0.038844      1.502041
  Si      0.774766     -1.694980     -1.098106
  O      -0.362529     -0.491534     -1.083824
  O       1.987033     -1.215929     -2.107988
  Si      3.103923     -0.273890     -2.888669
  Si     -1.781944      0.114750     -1.721321
  H       1.279076     -1.892293      0.303103
  H      -3.960628      0.774142      3.109694
  H      -0.798382      1.349272      3.724884
  H      -3.520986     -1.532242      2.395873
  H       0.128728     -0.766012      2.923641
  H      -1.806238      0.058488     -3.229749
  H      -2.923256     -0.726772     -1.232465
  H      -1.895044      1.546866     -1.296001
  H       2.628918      1.148611     -3.057325
  H       4.366276     -0.319533     -2.074217
  H       3.323179     -0.880154     -4.243077
  H       0.225299     -2.966656     -1.667409
  H      -4.370135      0.112174      0.831869
26
Coordinates from ORCA-job my_molecule_MEP_ALL E -1757.311088111893
  O      -1.837871      0.268202      1.622728
  Si     -0.451284      0.626752      2.569599
  Si     -3.385020     -0.344462      1.977549
  C       0.986924      1.516857      1.711051
  C       2.219880      1.014374      1.324991
  H       0.862985      2.594901      1.539568
  H       2.892868      1.598128      0.678477
  H       2.606642      0.041694      1.643459
  Si      0.730843     -1.501877     -1.055416
  O      -0.345284     -0.283628     -1.325041
  O       2.080061     -1.192254     -1.950265
  Si      3.114256     -0.467549     -3.022728
  Si     -1.794219      0.360320     -1.811763
  H       1.079752     -1.457236      0.388013
  H      -4.132228      0.603099      2.873198
  H      -0.947617      1.519790      3.674452
  H      -3.311954     -1.701108      2.629636
  H       0.073985     -0.646323      3.164806
  H      -1.818367      0.496402     -3.309393
  H      -2.905255     -0.568049     -1.418852
  H      -1.932426      1.713758     -1.182024
  H       2.713254      0.955134     -3.330242
  H       4.472136     -0.517523     -2.382784
  H       3.101798     -1.258881     -4.298215
  H       0.185925     -2.833127     -1.477006
  H      -4.259782     -0.537393      0.766200
26
Coordinates from ORCA-job my_molecule_MEP_ALL E -1757.297509955659
  O      -1.816532      0.202106      1.650600
  Si     -0.462852      0.641085      2.627020
  Si     -3.323030     -0.545468      1.952802
  C       1.074821      1.509419      1.878109
  C       2.292802      0.968813      1.487342
  H       1.008318      2.598832      1.759671
  H       3.013333      1.541691      0.881820
  H       2.609343     -0.055023      1.704989
  Si      0.702351     -1.234431     -1.033397
  O      -0.415370     -0.282290     -1.779469
  O       2.155095     -1.171716     -1.829067
  Si      3.098246     -0.647667     -3.097107
  Si     -1.864526      0.490381     -1.936908
  H       0.846312     -0.500979      0.240529
  H      -4.270415      0.420655      2.615277
  H      -1.031485      1.593374      3.644664
  H      -3.172846     -1.778981      2.808526
  H       0.031266     -0.615782      3.274423
  H      -1.931737      0.797888     -3.397232
  H      -2.960687     -0.454063     -1.537564
  H      -1.957258      1.762294     -1.131791
  H       2.752161      0.754419     -3.537572
  H       4.516433     -0.712676     -2.605829
  H       2.904168     -1.568514     -4.267104
  H       0.251335     -2.670645     -1.096620
  H      -4.049246     -1.042720      0.723888
26
Coordinates from ORCA-job my_molecule_MEP_ALL E -1757.270428973689
  O      -1.758608      0.108503      1.607540
  Si     -0.451871      0.611083      2.617266
  Si     -3.256743     -0.664300      1.910145
  C       1.148819      1.462550      1.967863
  C       2.306892      0.846513      1.530637
  H       1.164025      2.560167      1.964979
  H       3.109316      1.376461      0.991448
  H       2.452864     -0.238715      1.583468
  Si      0.700018     -0.880876     -0.918028
  O      -0.496289     -0.343896     -1.918681
  O       2.172934     -1.070572     -1.688225
  Si      3.055938     -0.739386     -3.072222
  Si     -1.913397      0.501356     -1.993767
  H       0.702751      0.457380     -0.091692
  H      -4.267703      0.316379      2.450233
  H      -1.065663      1.594135      3.573534
  H      -3.099611     -1.812804      2.875646
  H       0.029821     -0.632602      3.295196
  H      -1.951525      0.856436     -3.438738
  H      -2.995819     -0.449849     -1.586065
  H      -2.041453      1.762795     -1.164167
  H       2.757972      0.628869     -3.635954
  H       4.502456     -0.840550     -2.678885
  H       2.746850     -1.744656     -4.147599
  H       0.340190     -2.378512     -0.724172
  H      -3.892165     -1.285911      0.690241
26
Coordinates from ORCA-job my_molecule_MEP_ALL E -1757.205047434126
  O      -1.716124      0.035942      1.554590
  Si     -0.455307      0.597941      2.583976
  Si     -3.208125     -0.739253      1.871891
  C       1.153924      1.416358      1.940976
  C       2.291133      0.738724      1.487735
  H       1.243155      2.498182      2.049528
  H       3.116181      1.229028      0.961798
  H       2.342011     -0.350799      1.499900
  Si      0.728494     -0.727209     -0.827315
  O      -0.480211     -0.258863     -1.825267
  O       2.190126     -0.987319     -1.616656
  Si      3.027842     -0.780318     -3.061014
  Si     -1.922163      0.524935     -1.980466
  H       0.627298      1.096154     -0.087603
  H      -4.241879      0.255648      2.339582
  H      -1.098244      1.609735      3.490778
  H      -3.053823     -1.825414      2.907152
  H       0.015108     -0.604438      3.339841
  H      -1.912459      0.849634     -3.433966
  H      -2.974118     -0.469912     -1.603834
  H      -2.132171      1.791711     -1.179383
  H       2.754222      0.559737     -3.696920
  H       4.483054     -0.919936     -2.716433
  H       2.638265     -1.841886     -4.056029
  H       0.370276     -2.267776     -0.606937
  H      -3.786467     -1.430607      0.664076
26
Coordinates from ORCA-job my_molecule_MEP_ALL E -1757.250007698896
  O      -1.735242      0.025456      1.549538
  Si     -0.474079      0.614936      2.544390
  Si     -3.211753     -0.755282      1.868099
  C       0.975913      1.434006      1.571647
  C       2.162655      0.591798      1.226056
  H       1.239326      2.431545      2.047290
  H       3.048751      1.156434      0.840420
  H       2.404350     -0.373832      1.657136
  Si      0.853799     -0.846260     -0.736715
  O      -0.375909     -0.150426     -1.651982
  O       2.214737     -1.005387     -1.661392
  Si      3.034172     -0.790403     -3.087305
  Si     -1.877692      0.534852     -1.944447
  H       0.621287      1.466240      0.385935
  H      -4.248309      0.239290      2.325487
  H      -1.099561      1.617257      3.483858
  H      -3.049979     -1.833124      2.908343
  H       0.027102     -0.565996      3.336637
  H      -1.882304      0.849984     -3.410117
  H      -2.941182     -0.465806     -1.601067
  H      -2.133713      1.803435     -1.171930
  H       2.750758      0.554022     -3.708107
  H       4.485476     -0.928989     -2.735122
  H       2.628647     -1.852108     -4.069124
  H       0.353348     -2.300240     -0.623815
  H      -3.770598     -1.451403      0.656286
26
Coordinates from ORCA-job my_molecule_MEP_ALL E -1757.345277197218
  O      -1.688421     -0.041261      1.514735
  Si     -0.521492      0.666799      2.528651
  Si     -3.117261     -0.904573      1.790019
  C       0.909548      1.434063      1.533724
  C       1.942751      0.436041      0.984063
  H       1.324260      2.275332      2.153495
  H       2.863158      1.009411      0.659675
  H       2.314193     -0.338498      1.681659
  Si      0.971072     -0.687409     -0.609040
  O      -0.236310      0.109860     -1.478283
  O       2.261489     -0.924216     -1.614252
  Si      2.963531     -0.901822     -3.113097
  Si     -1.776223      0.653943     -1.868650
  H       0.535461      1.840604      0.567275
  H      -4.241189      0.041522      2.109121
  H      -1.203800      1.694870      3.393274
  H      -2.961293     -1.890948      2.914976
  H      -0.002906     -0.432157      3.422428
  H      -1.800618      0.985735     -3.337293
  H      -2.815739     -0.397459     -1.591853
  H      -2.136263      1.895348     -1.098049
  H       2.700253      0.399299     -3.823224
  H       4.424614     -1.104667     -2.852815
  H       2.422018     -2.020125     -3.952629
  H       0.364897     -2.100402     -0.492396
  H      -3.495732     -1.699291      0.578485
26
Coordinates from ORCA-job my_molecule_MEP_ALL E -1757.381892156518
  O      -1.534089     -0.166306      1.457472
  Si     -0.661227      0.781136      2.553036
  Si     -2.728692     -1.351658      1.519765
  C       0.809222      1.519949      1.636887
  C       1.736008      0.518321      0.917515
  H       1.376401      2.109385      2.393556
  H       2.639223      1.038127      0.527641
  H       2.121543     -0.253248      1.621114
  Si      1.016054     -0.372213     -0.584216
  O      -0.001862      0.656650     -1.424550
  O       2.324143     -0.728053     -1.567320
  Si      2.661463     -1.305104     -3.104231
  Si     -1.590672      1.079566     -1.733038
  H       0.411555      2.266739      0.915366
  H      -4.089895     -0.716871      1.437692
  H      -1.539267      1.875445      3.102326
  H      -2.624096     -2.124193      2.809160
  H      -0.209563     -0.096333      3.694865
  H      -1.667437      1.591691     -3.143787
  H      -2.513277     -0.102844     -1.595618
  H      -2.035614      2.170278     -0.797518
  H       2.442893     -0.233536     -4.137392
  H       4.101284     -1.730515     -3.130667
  H       1.788933     -2.488099     -3.438335
  H       0.300251     -1.658579     -0.287541
  H      -2.533280     -2.279740      0.357817
26
Coordinates from ORCA-job my_molecule_MEP_ALL E -1757.328557421627
  O      -1.845706      0.529372      1.580749
  Si     -0.340506      0.389943      2.325301
  Si     -3.470566      0.551388      1.998738
  C       0.909653      1.476454      1.453733
  C       2.144539      1.054214      1.112262
  H       0.641324      2.531734      1.255479
  H       2.890276      1.724486      0.649950
  H       2.472343      0.013198      1.284131
  Si      0.908505     -1.997946     -1.356688
  O      -0.432876     -1.131278     -0.878286
  O       1.860444     -1.113469     -2.400156
  Si      2.996650      0.104653     -2.566457
  Si     -1.848984     -0.505833     -1.539255
  H       1.677416     -2.327971     -0.112517
  H      -3.656991      1.235870      3.328365
  H      -0.505750      0.847380      3.755385
  H      -4.017915     -0.847344      2.090754
  H       0.137438     -1.035406      2.318523
  H      -1.978320     -0.963651     -2.970224
  H      -3.032398     -1.018605     -0.770411
  H      -1.815201      0.993246     -1.507057
  H       2.340649      1.455571     -2.484937
  H       4.047325      0.002807     -1.491416
  H       3.649507     -0.050373     -3.909342
  H       0.484582     -3.226418     -2.103731
  H      -4.215440      1.307978      0.937107
26
Coordinates from ORCA-job my_molecule_MEP_ALL E -1757.325121529774
  O      -1.847865      0.454329      1.596135
  Si     -0.369951      0.493555      2.422506
  Si     -3.464357      0.202459      1.998544
  C       0.926316      1.508597      1.524206
  C       2.152751      1.042913      1.141970
  H       0.715094      2.573706      1.339710
  H       2.868719      1.677253      0.597752
  H       2.489821      0.023002      1.375546
  Si      0.832164     -1.853232     -1.198260
  O      -0.404949     -0.773085     -0.959074
  O       1.918068     -1.197146     -2.263287
  Si      3.066283     -0.093455     -2.742602
  Si     -1.808482     -0.162668     -1.641094
  H       1.461328     -2.124603      0.138687
  H      -3.820176      0.962799      3.247455
  H      -0.644721      1.128306      3.761845
  H      -3.749485     -1.260364      2.220591
  H       0.147853     -0.901550      2.640167
  H      -1.864228     -0.412337     -3.129355
  H      -2.980318     -0.864397     -1.020898
  H      -1.850342      1.316652     -1.406491
  H       2.509136      1.306422     -2.787159
  H       4.225825     -0.151365     -1.785354
  H       3.505452     -0.494883     -4.118946
  H       0.328333     -3.107043     -1.842655
  H      -4.342270      0.706138      0.890060
26
Coordinates from ORCA-job my_molecule_MEP_ALL E -1757.318370105219
  O      -1.846168      0.357506      1.605248
  Si     -0.410240      0.571043      2.499037
  Si     -3.433318     -0.084624      1.992937
  C       0.940527      1.522001      1.601011
  C       2.175704      1.027113      1.206370
  H       0.779237      2.590324      1.415430
  H       2.859398      1.632713      0.600147
  H       2.531605      0.035956      1.498862
  Si      0.773549     -1.693422     -1.098817
  O      -0.363909     -0.489249     -1.085331
  O       1.990392     -1.217812     -2.106095
  Si      3.104980     -0.276668     -2.890174
  Si     -1.782953      0.117052     -1.721702
  H       1.276830     -1.887275      0.302243
  H      -3.961293      0.772311      3.109298
  H      -0.800113      1.351969      3.725431
  H      -3.516844     -1.533747      2.398613
  H       0.127925     -0.766234      2.924964
  H      -1.804172      0.062725     -3.230129
  H      -2.925319     -0.724028     -1.234117
  H      -1.897272      1.548511     -1.294639
  H       2.630404      1.145717     -3.059159
  H       4.369472     -0.318811     -2.079142
  H       3.323027     -0.882837     -4.244891
  H       0.223500     -2.966341     -1.664562
  H      -4.364948      0.106109      0.829167
26
Coordinates from ORCA-job my_molecule_MEP_ALL E -1757.312002907125
  O      -1.834865      0.265115      1.624254
  Si     -0.450663      0.626427      2.572656
  Si     -3.381265     -0.348454      1.977979
  C       0.983261      1.519094      1.715932
  C       2.223036      1.012770      1.330232
  H       0.860321      2.593600      1.535516
  H       2.895047      1.600317      0.691490
  H       2.600006      0.036037      1.639669
  Si      0.729970     -1.496474     -1.055165
  O      -0.348605     -0.281473     -1.335766
  O       2.085073     -1.192961     -1.946865
  Si      3.114456     -0.472594     -3.024266
  Si     -1.797353      0.363113     -1.815185
  H       1.075935     -1.438664      0.387400
  H      -4.134031      0.599226      2.869434
  H      -0.949351      1.522652      3.674367
  H      -3.305737     -1.702291      2.635107
  H       0.072682     -0.648189      3.166815
  H      -1.820715      0.503896     -3.312322
  H      -2.908802     -0.564784     -1.421158
  H      -1.935317      1.714769     -1.181329
  H       2.714795      0.949793     -3.333826
  H       4.475081     -0.519146     -2.390355
  H       3.099209     -1.265105     -4.299206
  H       0.186595     -2.829932     -1.468099
  H      -4.248765     -0.546743      0.762690
26
Coordinates from ORCA-job my_molecule_MEP_ALL E -1757.298882590064
  O      -1.810959      0.197122      1.649019
  Si     -0.461371      0.638562      2.628693
  Si     -3.317319     -0.548161      1.952255
  C       1.069574      1.510796      1.880468
  C       2.293350      0.963012      1.489737
  H       1.007548      2.597298      1.758509
  H       3.015245      1.541592      0.894948
  H       2.597434     -0.061832      1.697860
  Si      0.701926     -1.224491     -1.030699
  O      -0.421595     -0.280928     -1.792666
  O       2.158455     -1.167094     -1.825215
  Si      3.096722     -0.651426     -3.095686
  Si     -1.866408      0.489469     -1.941509
  H       0.845583     -0.483777      0.238051
  H      -4.268026      0.417320      2.611640
  H      -1.031584      1.593692      3.643264
  H      -3.167416     -1.778276      2.812389
  H       0.030990     -0.619135      3.276580
  H      -1.937614      0.802778     -3.401325
  H      -2.964565     -0.453289     -1.539296
  H      -1.959593      1.760674     -1.133236
  H       2.752756      0.750261     -3.538962
  H       4.517113     -0.714428     -2.610343
  H       2.901075     -1.573646     -4.265103
  H       0.255548     -2.659489     -1.080073
  H      -4.036870     -1.046604      0.720699
26
Coordinates from ORCA-job my_molecule_MEP_ALL E -1757.273010990250
  O      -1.751810      0.103445      1.604240
  Si     -0.451005      0.608667      2.618934
  Si     -3.250033     -0.667447      1.908304
  C       1.143671      1.463157      1.969341
  C       2.304916      0.837973      1.530249
  H       1.164034      2.556906      1.964183
  H       3.109049      1.373080      1.000214
  H       2.442552     -0.243733      1.577197
  Si      0.699521     -0.867560     -0.919604
  O      -0.500060     -0.340597     -1.927438
  O       2.174453     -1.060399     -1.683787
  Si      3.054312     -0.741502     -3.070668
  Si     -1.916590      0.501121     -1.998016
  H       0.704315      0.458501     -0.094230
  H      -4.263352      0.312868      2.445061
  H      -1.067064      1.595038      3.570495
  H      -3.094186     -1.811482      2.879049
  H       0.028531     -0.634193      3.300380
  H      -1.957074      0.859759     -3.442730
  H      -2.999594     -0.450071     -1.588079
  H      -2.042916      1.761400     -1.165016
  H       2.758326      0.625320     -3.637391
  H       4.502017     -0.843176     -2.682497
  H       2.741798     -1.750170     -4.142244
  H       0.345631     -2.356419     -0.702681
  H      -3.879442     -1.290486      0.686735
26
Coordinates from ORCA-job my_molecule_MEP_ALL E -1757.209286826520
  O      -1.711198      0.032380      1.552753
  Si     -0.455953      0.596348      2.585398
  Si     -3.203051     -0.742285      1.870312
  C       1.143957      1.416633      1.934759
  C       2.287928      0.729650      1.480902
  H       1.241610      2.494345      2.044016
  H       3.112938      1.223976      0.965285
  H       2.337632     -0.356918      1.501820
  Si      0.729833     -0.704891     -0.824104
  O      -0.479777     -0.256109     -1.830799
  O       2.190446     -0.978209     -1.613913
  Si      3.026542     -0.781880     -3.060211
  Si     -1.924683      0.525261     -1.983536
  H       0.629834      1.080454     -0.081457
  H      -4.238447      0.252187      2.335295
  H      -1.099274      1.611309      3.488216
  H      -3.049238     -1.824371      2.909832
  H       0.014338     -0.604709      3.344131
  H      -1.917186      0.852756     -3.436791
  H      -2.977222     -0.469686     -1.605359
  H      -2.131729      1.790822     -1.179120
  H       2.754607      0.557212     -3.697932
  H       4.483113     -0.921522     -2.720380
  H       2.634451     -1.845839     -4.052187
  H       0.376356     -2.242724     -0.587854
  H      -3.775828     -1.434192      0.660926
26
Coordinates from ORCA-job my_molecule_MEP_ALL E -1757.249263992091
  O      -1.732433      0.024513      1.549210
  Si     -0.472893      0.612277      2.546764
  Si     -3.209817     -0.753692      1.869020
  C       0.974691      1.429671      1.572110
  C       2.162231      0.591430      1.229145
  H       1.234173      2.433657      2.038253
  H       3.050836      1.158167      0.849681
  H       2.402368     -0.377731      1.655759
  Si      0.852992     -0.836558     -0.739155
  O      -0.379768     -0.155087     -1.662924
  O       2.214445     -1.002531     -1.661540
  Si      3.035370     -0.789178     -3.086708
  Si     -1.882051      0.532203     -1.948770
  H       0.620672      1.450441      0.386375
  H      -4.245605      0.240850      2.328315
  H      -1.097646      1.616330      3.484276
  H      -3.048313     -1.830986      2.909844
  H       0.027049     -0.570320      3.337881
  H      -1.888522      0.849764     -3.414060
  H      -2.946941     -0.466950     -1.602381
  H      -2.131692      1.800156     -1.172806
  H       2.752131      0.555640     -3.705651
  H       4.487217     -0.925455     -2.735871
  H       2.631645     -1.850740     -4.069715
  H       0.357969     -2.289507     -0.612440
  H      -3.768109     -1.446366      0.655385
26
Coordinates from ORCA-job my_molecule_MEP_ALL E -1757.342944557571
  O      -1.693106     -0.036080      1.517463
  Si     -0.517746      0.660461      2.530354
  Si     -3.127346     -0.889444      1.798840
  C       0.909802      1.430127      1.530190
  C       1.953081      0.435974      0.991780
  H       1.315214      2.287593      2.137665
  H       2.871743      1.014788      0.670084
  H       2.322313     -0.341937      1.683580
  Si      0.968667     -0.696130     -0.614628
  O      -0.245479      0.087722     -1.488567
  O       2.259150     -0.931639     -1.619201
  Si      2.973166     -0.889138     -3.112314
  Si     -1.784429      0.639517     -1.875172
  H       0.535674      1.812290      0.559091
  H      -4.241714      0.062909      2.133779
  H      -1.192303      1.687212      3.402702
  H      -2.968937     -1.884344      2.916225
  H       0.002197     -0.446103      3.413503
  H      -1.808858      0.969541     -3.344360
  H      -2.828699     -0.406414     -1.592983
  H      -2.135388      1.884487     -1.105913
  H       2.707074      0.417590     -3.810577
  H       4.434056     -1.083094     -2.843820
  H       2.445843     -2.002223     -3.968079
  H       0.369836     -2.111944     -0.494278
  H      -3.523810     -1.671720      0.584635
26
Coordinates from ORCA-job my_molecule_MEP_ALL E -1757.381892156518
  O      -1.533959     -0.166959      1.457535
  Si     -0.661481      0.780902      2.553042
  Si     -2.728026     -1.352847      1.519903
  C       0.808601      1.520353      1.636819
  C       1.735811      0.519124      0.917436
  H       1.375545      2.110062      2.393451
  H       2.638777      1.039326      0.527514
  H       2.121719     -0.252255      1.621039
  Si      1.016198     -0.371771     -0.584245
  O      -0.002212      0.656615     -1.424566
  O       2.324410     -0.727046     -1.567391
  Si      2.661931     -1.303984     -3.104301
  Si     -1.591224      1.078809     -1.733004
  H       0.410571      2.266946      0.915294
  H      -4.089518     -0.718673      1.437867
  H      -1.539991      1.874829      3.102339
  H      -2.623034     -2.125303      2.809312
  H      -0.209378     -0.096336      3.694875
  H      -1.668272      1.590865     -3.143762
  H      -2.513292     -0.104012     -1.595519
  H      -2.036620      2.169344     -0.797493
  H       2.442839     -0.232539     -4.137480
  H       4.101942     -1.728748     -3.130782
  H       1.789919     -2.487379     -3.438343
  H       0.300985     -1.658451     -0.287512
  H      -2.532241     -2.280870      0.357970
26
Coordinates from ORCA-job my_molecule_MEP_ALL E -1757.328557421627
  O      -1.845706      0.529372      1.580749
  Si     -0.340506      0.389943      2.325301
  Si     -3.470566      0.551388      1.998738
  C       0.909653      1.476454      1.453733
  C       2.144539      1.054214      1.112262
  H       0.641324      2.531734      1.255479
  H       2.890276      1.724486      0.649950
  H       2.472343      0.013198      1.284131
  Si      0.908505     -1.997946     -1.356688
  O      -0.432876     -1.131278     -0.878286
  O       1.860444     -1.113469     -2.400156
  Si      2.996650      0.104653     -2.566457
  Si     -1.848984     -0.505833     -1.539255
  H       1.677416     -2.327971     -0.112517
  H      -3.656991      1.235870      3.328365
  H      -0.505750      0.847380      3.755385
  H      -4.017915     -0.847344      2.090754
  H       0.137438     -1.035406      2.318523
  H      -1.978320     -0.963651     -2.970224
  H      -3.032398     -1.018605     -0.770411
  H      -1.815201      0.993246     -1.507057
  H       2.340649      1.455571     -2.484937
  H       4.047325      0.002807     -1.491416
  H       3.649507     -0.050373     -3.909342
  H       0.484582     -3.226418     -2.103731
  H      -4.215440      1.307978      0.937107
26
Coordinates from ORCA-job my_molecule_MEP_ALL E -1757.325172396985
  O      -1.847106      0.454248      1.597431
  Si     -0.370223      0.494864      2.425076
  Si     -3.463052      0.199177      1.999174
  C       0.924448      1.510054      1.526778
  C       2.153439      1.042580      1.145302
  H       0.712014      2.572659      1.333973
  H       2.868597      1.678150      0.603174
  H       2.486016      0.020711      1.372483
  Si      0.830069     -1.851308     -1.198556
  O      -0.405795     -0.769756     -0.959242
  O       1.921186     -1.200584     -2.261570
  Si      3.068411     -0.096931     -2.745208
  Si     -1.809503     -0.158483     -1.641058
  H       1.458679     -2.119806      0.138335
  H      -3.820870      0.959548      3.247763
  H      -0.647056      1.132082      3.763042
  H      -3.744237     -1.263979      2.222740
  H       0.147635     -0.900395      2.642755
  H      -1.860067     -0.406228     -3.129584
  H      -2.983038     -0.860226     -1.023854
  H      -1.853258      1.320294     -1.404136
  H       2.511446      1.302683     -2.790155
  H       4.230393     -0.150508     -1.790896
  H       3.506035     -0.498499     -4.122012
  H       0.325376     -3.107395     -1.838732
  H      -4.339539      0.697046      0.886978
26
Coordinates from ORCA-job my_molecule_MEP_ALL E -1757.318391363507
  O      -1.843960      0.355618      1.607725
  Si     -0.410557      0.572077      2.503346
  Si     -3.430007     -0.089149      1.994133
  C       0.936298      1.524594      1.605869
  C       2.177599      1.026215      1.213062
  H       0.772478      2.588374      1.405111
  H       2.860528      1.636122      0.612576
  H       2.524573      0.030610      1.493428
  Si      0.771324     -1.689471     -1.100222
  O      -0.365425     -0.485344     -1.088723
  O       1.995955     -1.221892     -2.101693
  Si      3.107527     -0.281853     -2.893607
  Si     -1.785495      0.122122     -1.722914
  H       1.272322     -1.876966      0.301147
  H      -3.962805      0.768545      3.108040
  H      -0.803551      1.357189      3.726510
  H      -3.508579     -1.536932      2.404311
  H       0.126403     -0.766347      2.927966
  H      -1.800413      0.071483     -3.231061
  H      -2.929264     -0.718542     -1.237652
  H      -1.901669      1.551940     -1.291889
  H       2.633212      1.139881     -3.063058
  H       4.375855     -0.317834     -2.089020
  H       3.322398     -0.888653     -4.248432
  H       0.219980     -2.965442     -1.658906
  H      -4.354727      0.093655      0.823954
26
Coordinates from ORCA-job my_molecule_MEP_ALL E -1757.312128495025
  O      -1.828971      0.259241      1.626974
  Si     -0.450083      0.625699      2.578587
  Si     -3.373981     -0.356433      1.978681
  C       0.980171      1.520751      1.723614
  C       2.223734      1.010850      1.341808
  H       0.855466      2.592032      1.528812
  H       2.900636      1.605051      0.715722
  H       2.587539      0.024623      1.633148
  Si      0.728851     -1.484030     -1.055451
  O      -0.352430     -0.278975     -1.356632
  O       2.092043     -1.195084     -1.938129
  Si      3.116129     -0.481511     -3.028565
  Si     -1.804924      0.369383     -1.822656
  H       1.068494     -1.402049      0.386665
  H      -4.137343      0.591583      2.861665
  H      -0.952671      1.527828      3.674254
  H      -3.293644     -1.704677      2.645894
  H       0.070351     -0.651450      3.171051
  H      -1.825941      0.518658     -3.318230
  H      -2.915642     -0.558414     -1.425983
  H      -1.940970      1.716731     -1.180059
  H       2.717623      0.939360     -3.340895
  H       4.480872     -0.522708     -2.405031
  H       3.093903     -1.277611     -4.300857
  H       0.188047     -2.823695     -1.450283
  H      -4.227255     -0.565152      0.755893
26
Coordinates from ORCA-job my_molecule_MEP_ALL E -1757.299148197335
  O      -1.800216      0.188122      1.646075
  Si     -0.459602      0.634181      2.631890
  Si     -3.306930     -0.553228      1.951020
  C       1.063968      1.509458      1.883408
  C       2.288940      0.957939      1.494823
  H       1.005526      2.595995      1.756242
  H       3.019021      1.541322      0.919397
  H       2.576149     -0.077033      1.685576
  Si      0.699937     -1.202836     -1.029650
  O      -0.423482     -0.284440     -1.814130
  O       2.160591     -1.159120     -1.814463
  Si      3.096358     -0.656904     -3.096015
  Si     -1.875695      0.491009     -1.951088
  H       0.844216     -0.453642      0.234006
  H      -4.263072      0.411253      2.604742
  H      -1.031933      1.594021      3.640830
  H      -3.157154     -1.776910      2.819650
  H       0.030569     -0.625044      3.280956
  H      -1.949262      0.811823     -3.408843
  H      -2.971540     -0.451708     -1.542944
  H      -1.963631      1.757125     -1.136211
  H       2.753873      0.742595     -3.541389
  H       4.518492     -0.717708     -2.618590
  H       2.895414     -1.583203     -4.260914
  H       0.262954     -2.639421     -1.048919
  H      -4.013493     -1.053644      0.714543
26
Coordinates from ORCA-job my_molecule_MEP_ALL E -1757.275081777316
  O      -1.739149      0.093987      1.598175
  Si     -0.450074      0.604783      2.622098
  Si     -3.237514     -0.673560      1.904632
  C       1.137342      1.457901      1.970021
  C       2.297524      0.830033      1.530128
  H       1.163770      2.553525      1.962421
  H       3.107704      1.365548      1.016744
  H       2.423936     -0.257106      1.566615
  Si      0.696958     -0.841474     -0.924169
  O      -0.501504     -0.337199     -1.941912
  O       2.176744     -1.041254     -1.674963
  Si      3.052354     -0.744936     -3.069119
  Si     -1.925273      0.502325     -2.006434
  H       0.706945      0.461144     -0.097647
  H      -4.254912      0.306205      2.434994
  H      -1.070100      1.596673      3.564960
  H      -3.083761     -1.809060      2.885442
  H       0.026143     -0.636805      3.310376
  H      -1.968232      0.865985     -3.450226
  H      -3.006497     -0.450318     -1.592317
  H      -2.045435      1.758259     -1.166965
  H       2.759104      0.618832     -3.640329
  H       4.501418     -0.848137     -2.689150
  H       2.732324     -1.760638     -4.131736
  H       0.355409     -2.315332     -0.661602
  H      -3.855225     -1.299382      0.679964
26
Coordinates from ORCA-job my_molecule_MEP_ALL E -1757.213039753580
  O      -1.702813      0.025836      1.549428
  Si     -0.457772      0.593621      2.587891
  Si     -3.194017     -0.747809      1.867471
  C       1.127102      1.413079      1.920600
  C       2.278886      0.715711      1.469347
  H       1.237692      2.488712      2.031982
  H       3.107053      1.214437      0.970205
  H       2.330331     -0.369863      1.507096
  Si      0.733165     -0.664545     -0.817500
  O      -0.479260     -0.250016     -1.840846
  O       2.191071     -0.960671     -1.609112
  Si      3.024549     -0.784163     -3.058904
  Si     -1.928238      0.525219     -1.989209
  H       0.634414      1.049106     -0.068210
  H      -4.232003      0.246012      2.327699
  H      -1.101136      1.614138      3.483906
  H      -3.040758     -1.822406      2.914646
  H       0.013108     -0.604872      3.351965
  H      -1.926532      0.858184     -3.442043
  H      -2.982788     -0.469221     -1.608510
  H      -2.130661      1.788653     -1.178914
  H       2.755579      0.553092     -3.699827
  H       4.483509     -0.923938     -2.727526
  H       2.628137     -1.852640     -4.045217
  H       0.387807     -2.195277     -0.551439
  H      -3.756426     -1.440380      0.655020
26
Coordinates from ORCA-job my_molecule_MEP_ALL E -1757.248223445396
  O      -1.726418      0.022171      1.548323
  Si     -0.470992      0.607129      2.551591
  Si     -3.205276     -0.751652      1.870139
  C       0.970858      1.423522      1.574734
  C       2.164001      0.589602      1.234580
  H       1.224789      2.436237      2.021778
  H       3.053873      1.160304      0.867768
  H       2.397125     -0.385437      1.652212
  Si      0.851157     -0.814939     -0.743295
  O      -0.386493     -0.163519     -1.684246
  O       2.214170     -0.995216     -1.661002
  Si      3.037321     -0.787103     -3.085397
  Si     -1.890637      0.527783     -1.957443
  H       0.619505      1.417794      0.384723
  H      -4.240043      0.242859      2.332043
  H      -1.094890      1.614995      3.484632
  H      -3.044429     -1.827140      2.912881
  H       0.026453     -0.577930      3.341180
  H      -1.900923      0.849996     -3.421760
  H      -2.957548     -0.468771     -1.605317
  H      -2.128281      1.794017     -1.174578
  H       2.754648      0.558032     -3.701799
  H       4.490250     -0.919784     -2.737569
  H       2.636087     -1.849210     -4.069335
  H       0.367192     -2.265021     -0.587962
  H      -3.761496     -1.438720      0.653117
26
Coordinates from ORCA-job my_molecule_MEP_ALL E -1757.339760826434
  O      -1.701474     -0.026845      1.522606
  Si     -0.510439      0.648806      2.533190
  Si     -3.145187     -0.861278      1.815031
  C       0.912624      1.421574      1.529418
  C       1.971368      0.438316      1.005008
  H       1.296755      2.308975      2.106177
  H       2.888305      1.024974      0.691559
  H       2.337177     -0.349814      1.688182
  Si      0.964091     -0.711224     -0.625205
  O      -0.262837      0.046205     -1.509488
  O       2.255038     -0.944871     -1.629147
  Si      2.990998     -0.865626     -3.110268
  Si     -1.800079      0.612588     -1.888113
  H       0.534054      1.759428      0.539666
  H      -4.241960      0.102245      2.179205
  H      -1.171030      1.672907      3.420112
  H      -2.982784     -1.871821      2.918471
  H       0.011142     -0.472433      3.397637
  H      -1.825374      0.939707     -3.358196
  H      -2.853317     -0.422814     -1.595571
  H      -2.133429      1.863777     -1.120658
  H       2.719741      0.451258     -3.786946
  H       4.451567     -1.043156     -2.826939
  H       2.490212     -1.969141     -3.995842
  H       0.379305     -2.131356     -0.495807
  H      -3.574466     -1.620381      0.595918
26
Coordinates from ORCA-job my_molecule_MEP_ALL E -1757.381892156518
  O      -1.533751     -0.168231      1.457609
  Si     -0.662114      0.780557      2.552984
  Si     -2.726713     -1.355223      1.520146
  C       0.807247      1.521279      1.636628
  C       1.735361      0.520835      0.917317
  H       1.373669      2.111596      2.393177
  H       2.637830      1.041836      0.527308
  H       2.122013     -0.250109      1.620989
  Si      1.016523     -0.370888     -0.584243
  O      -0.002874      0.656462     -1.424635
  O       2.325029     -0.725051     -1.567399
  Si      2.663031     -1.301837     -3.104259
  Si     -1.592290      1.077145     -1.733060
  H       0.408496      2.267425      0.915039
  H      -4.088798     -0.722325      1.438092
  H      -1.541623      1.873726      3.102196
  H      -2.620955     -2.127445      2.809634
  H      -0.209154     -0.096139      3.694893
  H      -1.669867      1.588980     -3.143870
  H      -2.513254     -0.106519     -1.595417
  H      -2.038667      2.167365     -0.797649
  H       2.442905     -0.230706     -4.137544
  H       4.103437     -1.725265     -3.130748
  H       1.792108     -2.486079     -3.438144
  H       0.302518     -1.658202     -0.287347
  H      -2.530108     -2.283188      0.358304
26
Coordinates from ORCA-job my_molecule_MEP_ALL E -1757.328557421627
  O      -1.845706      0.529372      1.580749
  Si     -0.340506      0.389943      2.325301
  Si     -3.470566      0.551388      1.998738
  C       0.909653      1.476454      1.453733
  C       2.144539      1.054214      1.112262
  H       0.641324      2.531734      1.255479
  H       2.890276      1.724486      0.649950
  H       2.472343      0.013198      1.284131
  Si      0.908505     -1.997946     -1.356688
  O      -0.432876     -1.131278     -0.878286
  O       1.860444     -1.113469     -2.400156
  Si      2.996650      0.104653     -2.566457
  Si     -1.848984     -0.505833     -1.539255
  H       1.677416     -2.327971     -0.112517
  H      -3.656991      1.235870      3.328365
  H      -0.505750      0.847380      3.755385
  H      -4.017915     -0.847344      2.090754
  H       0.137438     -1.035406      2.318523
  H      -1.978320     -0.963651     -2.970224
  H      -3.032398     -1.018605     -0.770411
  H      -1.815201      0.993246     -1.507057
  H       2.340649      1.455571     -2.484937
  H       4.047325      0.002807     -1.491416
  H       3.649507     -0.050373     -3.909342
  H       0.484582     -3.226418     -2.103731
  H      -4.215440      1.307978      0.937107
26
Coordinates from ORCA-job my_molecule_MEP_ALL E -1757.325299237661
  O      -1.846937      0.454122      1.597998
  Si     -0.371237      0.495345      2.426560
  Si     -3.462360      0.197683      1.999427
  C       0.938727      1.502657      1.523258
  C       2.136498      1.048935      1.151619
  H       0.710150      2.575155      1.331560
  H       2.870811      1.679866      0.603943
  H       2.485809      0.017182      1.372081
  Si      0.829233     -1.850358     -1.198557
  O      -0.405921     -0.768444     -0.959542
  O       1.922352     -1.201986     -2.260883
  Si      3.069304     -0.098387     -2.746355
  Si     -1.809944     -0.156608     -1.641104
  H       1.457581     -2.117818      0.138483
  H      -3.821249      0.958158      3.247749
  H      -0.648040      1.133520      3.763578
  H      -3.741989     -1.265626      2.223758
  H       0.147640     -0.899755      2.643928
  H      -1.858407     -0.403521     -3.129749
  H      -2.984119     -0.858459     -1.025184
  H      -1.854475      1.321909     -1.403105
  H       2.512343      1.301095     -2.791492
  H       4.232364     -0.150299     -1.793289
  H       3.506191     -0.500197     -4.123327
  H       0.324069     -3.107343     -1.837115
  H      -4.338393      0.693173      0.885763
26
Coordinates from ORCA-job my_molecule_MEP_ALL E -1757.318669991481
  O      -1.843292      0.354683      1.608755
  Si     -0.412673      0.572408      2.505977
  Si     -3.428346     -0.091168      1.994603
  C       0.965741      1.508457      1.598206
  C       2.142629      1.040550      1.226205
  H       0.768853      2.593386      1.400914
  H       2.865428      1.639912      0.614453
  H       2.524770      0.022874      1.493307
  Si      0.770365     -1.687468     -1.100593
  O      -0.365657     -0.483912     -1.090648
  O       1.998082     -1.223522     -2.099875
  Si      3.108600     -0.284034     -2.895155
  Si     -1.786661      0.124466     -1.723564
  H       1.270434     -1.872431      0.301166
  H      -3.963550      0.766894      3.107233
  H      -0.805001      1.358982      3.727086
  H      -3.505095     -1.538432      2.406901
  H       0.126036     -0.766094      2.929340
  H      -1.799132      0.075398     -3.231631
  H      -2.930868     -0.716199     -1.239315
  H      -1.903528      1.553520     -1.290700
  H       2.634239      1.137420     -3.064838
  H       4.378601     -0.317730     -2.093234
  H       3.321933     -0.891410     -4.249920
  H       0.218545     -2.964814     -1.656530
  H      -4.350453      0.088266      0.821857
26
Coordinates from ORCA-job my_molecule_MEP_ALL E -1757.312996328779
  O      -1.826797      0.256803      1.627883
  Si     -0.451834      0.625365      2.581568
  Si     -3.370739     -0.359652      1.978878
  C       1.008880      1.504523      1.717385
  C       2.189187      1.024871      1.356025
  H       0.852913      2.596778      1.526501
  H       2.906954      1.608843      0.722217
  H       2.585571      0.014634      1.632655
  Si      0.728440     -1.478453     -1.055429
  O      -0.353307     -0.278238     -1.365460
  O       2.094373     -1.195756     -1.934404
  Si      3.116968     -0.484907     -3.030449
  Si     -1.808202      0.372095     -1.825891
  H       1.065584     -1.387422      0.386833
  H      -4.138396      0.588493      2.858324
  H      -0.953965      1.529302      3.674391
  H      -3.288772     -1.705696      2.650348
  H       0.069802     -0.652441      3.172898
  H      -1.828680      0.524715     -3.320864
  H      -2.918414     -0.555862     -1.428181
  H      -1.943314      1.717555     -1.179618
  H       2.718568      0.935301     -3.343761
  H       4.483304     -0.524382     -2.410869
  H       3.091604     -1.282883     -4.301390
  H       0.188762     -2.821084     -1.442741
  H      -4.218493     -0.572500      0.753149
26
Coordinates from ORCA-job my_molecule_MEP_ALL E -1757.300847282561
  O      -1.796217      0.184663      1.644857
  Si     -0.460730      0.632943      2.633683
  Si     -3.302693     -0.555251      1.950430
  C       1.090625      1.491522      1.875701
  C       2.253600      0.971452      1.507381
  H       1.003955      2.600840      1.755529
  H       3.024797      1.543132      0.925487
  H       2.570674     -0.088225      1.682118
  Si      0.698486     -1.193552     -1.030158
  O      -0.422347     -0.287017     -1.821745
  O       2.160924     -1.155654     -1.810007
  Si      3.096582     -0.658644     -3.096594
  Si     -1.879802      0.491946     -1.955025
  H       0.843422     -0.442590      0.232355
  H      -4.260698      0.408980      2.601871
  H      -1.032297      1.593699      3.640094
  H      -3.153016     -1.776409      2.822591
  H       0.030683     -0.626900      3.282855
  H      -1.954387      0.815316     -3.411784
  H      -2.974194     -0.451066     -1.544700
  H      -1.965036      1.755610     -1.137439
  H       2.754222      0.739820     -3.542525
  H       4.519165     -0.719197     -2.621754
  H       2.892989     -1.587162     -4.258942
  H       0.265499     -2.631733     -1.036297
  H      -4.004207     -1.056523      0.712018
26
Coordinates from ORCA-job my_molecule_MEP_ALL E -1757.279626689260
  O      -1.734508      0.090356      1.595976
  Si     -0.451159      0.603863      2.623890
  Si     -3.232571     -0.675990      1.903209
  C       1.158234      1.438998      1.960751
  C       2.267020      0.841241      1.541039
  H       1.163090      2.556856      1.961668
  H       3.111309      1.364153      1.019685
  H       2.418588     -0.266722      1.563423
  Si      0.695512     -0.831488     -0.926214
  O      -0.500705     -0.336454     -1.947003
  O       2.177679     -1.033766     -1.672003
  Si      3.051880     -0.746002     -3.069098
  Si     -1.928710      0.502947     -2.009759
  H       0.707665      0.463066     -0.097622
  H      -4.251339      0.303699      2.430976
  H      -1.071517      1.597076      3.563083
  H      -3.079495     -1.808144      2.887975
  H       0.025431     -0.637405      3.314329
  H      -1.973270      0.868420     -3.453065
  H      -3.009076     -0.450226     -1.594248
  H      -2.046241      1.756826     -1.167854
  H       2.759396      0.616567     -3.641916
  H       4.501334     -0.850173     -2.691798
  H       2.728476     -1.764817     -4.127503
  H       0.358676     -2.299866     -0.645245
  H      -3.845697     -1.303015      0.677328
26
Coordinates from ORCA-job my_molecule_MEP_ALL E -1757.220707040787
  O      -1.700413      0.023270      1.548142
  Si     -0.460921      0.593507      2.589660
  Si     -3.190862     -0.749688      1.866607
  C       1.158513      1.379107      1.893826
  C       2.227807      0.737170      1.483772
  H       1.235509      2.495201      2.027030
  H       3.111996      1.212992      0.964806
  H       2.330303     -0.383579      1.511221
  Si      0.735123     -0.651955     -0.814483
  O      -0.477790     -0.246344     -1.842657
  O       2.191688     -0.953731     -1.608169
  Si      3.023999     -0.784589     -3.058851
  Si     -1.928740      0.524984     -1.990976
  H       0.636028      1.039315     -0.057955
  H      -4.229465      0.243994      2.325312
  H      -1.101711      1.614686      3.482768
  H      -3.037553     -1.821656      2.916426
  H       0.013189     -0.604456      3.354491
  H      -1.930459      0.859960     -3.443756
  H      -2.984519     -0.468842     -1.609868
  H      -2.130117      1.787555     -1.178974
  H       2.756023      0.552013     -3.700798
  H       4.483767     -0.924565     -2.730340
  H       2.626146     -1.854792     -4.042961
  H       0.391938     -2.177255     -0.537124
  H      -3.749480     -1.442303      0.652849
26
Coordinates from ORCA-job my_molecule_MEP_ALL E -1757.245568501031
  O      -1.723429      0.020880      1.547790
  Si     -0.470159      0.605102      2.553518
  Si     -3.202731     -0.751638      1.870086
  C       0.964179      1.426061      1.578169
  C       2.171688      0.582832      1.235427
  H       1.221536      2.434993      2.015477
  H       3.053604      1.159685      0.875233
  H       2.393204     -0.386446      1.649206
  Si      0.850545     -0.803846     -0.744284
  O      -0.388985     -0.165904     -1.693067
  O       2.214215     -0.990599     -1.660141
  Si      3.037565     -0.786764     -3.084747
  Si     -1.893921      0.526613     -1.961113
  H       0.619300      1.402552      0.382640
  H      -4.237365      0.243001      2.332044
  H      -1.094450      1.615097      3.484393
  H      -3.042212     -1.825620      2.914369
  H       0.025843     -0.580208      3.343431
  H      -1.906410      0.850804     -3.424905
  H      -2.961423     -0.468986     -1.606776
  H      -2.127263      1.791841     -1.175309
  H       2.755458      0.558107     -3.701247
  H       4.491011     -0.918889     -2.738685
  H       2.636338     -1.849861     -4.067832
  H       0.371008     -2.251449     -0.575524
  H      -3.757145     -1.437359      0.651849
26
Coordinates from ORCA-job my_molecule_MEP_ALL E -1757.333532404523
  O      -1.703868     -0.023533      1.524633
  Si     -0.507456      0.644312      2.534593
  Si     -3.151001     -0.850652      1.820962
  C       0.914238      1.417790      1.529631
  C       1.978208      0.440943      1.010913
  H       1.288995      2.316710      2.093231
  H       2.895718      1.029360      0.701834
  H       2.342184     -0.353780      1.689743
  Si      0.961918     -0.715565     -0.630010
  O      -0.269823      0.030055     -1.519523
  O       2.253308     -0.949159     -1.633254
  Si      2.997396     -0.857156     -3.109195
  Si     -1.806546      0.602520     -1.893848
  H       0.533201      1.737234      0.531496
  H      -4.241117      0.116672      2.195796
  H      -1.162970      1.667546      3.426432
  H      -2.987551     -1.866698      2.919356
  H       0.013898     -0.482579      3.392415
  H      -1.832993      0.928955     -3.364115
  H      -2.863212     -0.428560     -1.596956
  H      -2.132341      1.855590     -1.126272
  H       2.724310      0.463222     -3.778131
  H       4.457779     -1.028729     -2.820569
  H       2.506541     -1.957091     -4.005086
  H       0.382953     -2.136422     -0.494320
  H      -3.591775     -1.600987      0.600243
26
Coordinates from ORCA-job my_molecule_MEP_ALL E -1757.381892156518
  O      -1.533654     -0.168678      1.457659
  Si     -0.662371      0.780579      2.552910
  Si     -2.726144     -1.356136      1.520353
  C       0.806677      1.521781      1.636442
  C       1.735173      0.521626      0.917224
  H       1.372881      2.112407      2.392914
  H       2.637427      1.042942      0.527138
  H       2.122146     -0.249087      1.620973
  Si      1.016658     -0.370549     -0.584223
  O      -0.003164      0.656302     -1.424708
  O       2.325285     -0.724303     -1.567366
  Si      2.663484     -1.301126     -3.104169
  Si     -1.592753      1.076320     -1.733147
  H       0.407615      2.267689      0.914778
  H      -4.088481     -0.723787      1.438257
  H      -1.542302      1.873460      3.102020
  H      -2.620053     -2.128172      2.809924
  H      -0.209040     -0.095811      3.694908
  H      -1.670562      1.587968     -3.144012
  H      -2.513245     -0.107694     -1.595353
  H      -2.039544      2.166467     -0.797848
  H       2.442912     -0.230197     -4.137569
  H       4.104057     -1.723985     -3.130641
  H       1.793023     -2.485751     -3.437904
  H       0.303170     -1.658114     -0.287169
  H      -2.529194     -2.284152      0.358610
26
Coordinates from ORCA-job my_molecule_MEP_ALL E -1757.328557421627
  O      -1.845706      0.529372      1.580749
  Si     -0.340506      0.389943      2.325301
  Si     -3.470566      0.551388      1.998738
  C       0.909653      1.476454      1.453733
  C       2.144539      1.054214      1.112262
  H       0.641324      2.531734      1.255479
  H       2.890276      1.724486      0.649950
  H       2.472343      0.013198      1.284131
  Si      0.908505     -1.997946     -1.356688
  O      -0.432876     -1.131278     -0.878286
  O       1.860444     -1.113469     -2.400156
  Si      2.996650      0.104653     -2.566457
  Si     -1.848984     -0.505833     -1.539255
  H       1.677416     -2.327971     -0.112517
  H      -3.656991      1.235870      3.328365
  H      -0.505750      0.847380      3.755385
  H      -4.017915     -0.847344      2.090754
  H       0.137438     -1.035406      2.318523
  H      -1.978320     -0.963651     -2.970224
  H      -3.032398     -1.018605     -0.770411
  H      -1.815201      0.993246     -1.507057
  H       2.340649      1.455571     -2.484937
  H       4.047325      0.002807     -1.491416
  H       3.649507     -0.050373     -3.909342
  H       0.484582     -3.226418     -2.103731
  H      -4.215440      1.307978      0.937107
26
Coordinates from ORCA-job my_molecule_MEP_ALL E -1757.325392026592
  O      -1.846717      0.454138      1.598337
  Si     -0.371175      0.495747      2.427167
  Si     -3.462003      0.196688      1.999600
  C       0.935515      1.504361      1.524381
  C       2.139515      1.047667      1.151445
  H       0.709491      2.574354      1.330313
  H       2.870410      1.679822      0.605736
  H       2.484547      0.017184      1.371429
  Si      0.828766     -1.849853     -1.198539
  O      -0.406129     -0.767493     -0.959743
  O       1.923170     -1.202892     -2.260476
  Si      3.069897     -0.099372     -2.747096
  Si     -1.810187     -0.155417     -1.641127
  H       1.456863     -2.116497      0.138572
  H      -3.821483      0.957243      3.247742
  H      -0.648660      1.134555      3.763930
  H      -3.740476     -1.266707      2.224428
  H       0.147567     -0.899381      2.644749
  H      -1.857291     -0.401757     -3.129849
  H      -2.984863     -0.857286     -1.026057
  H      -1.855300      1.322973     -1.402416
  H       2.512920      1.300038     -2.792363
  H       4.233689     -0.150133     -1.794873
  H       3.506333     -0.501303     -4.124203
  H       0.323195     -3.107307     -1.836037
  H      -4.337595      0.690628      0.884950
26
Coordinates from ORCA-job my_molecule_MEP_ALL E -1757.319311303988
  O      -1.842665      0.354207      1.609374
  Si     -0.412452      0.572750      2.506967
  Si     -3.427405     -0.092665      1.994919
  C       0.959785      1.511674      1.600253
  C       2.148414      1.037991      1.226123
  H       0.767446      2.591743      1.398895
  H       2.865011      1.640206      0.618606
  H       2.522359      0.022809      1.492136
  Si      0.769886     -1.686322     -1.100750
  O      -0.366060     -0.482677     -1.092054
  O       1.999616     -1.224558     -2.098686
  Si      3.109305     -0.285583     -2.896171
  Si     -1.787337      0.126010     -1.724042
  H       1.269118     -1.869244      0.301223
  H      -3.964066      0.765751      3.106621
  H      -0.805940      1.360432      3.727414
  H      -3.502657     -1.539467      2.408718
  H       0.125620     -0.765966      2.930471
  H      -1.798300      0.078102     -3.232045
  H      -2.931958     -0.714613     -1.240475
  H      -1.904815      1.554612     -1.289879
  H       2.634922      1.135714     -3.066101
  H       4.380493     -0.317693     -2.096150
  H       3.321587     -0.893373     -4.250939
  H       0.217586     -2.964336     -1.654858
  H      -4.347494      0.084498      0.820432
26
Coordinates from ORCA-job my_molecule_MEP_ALL E -1757.313872698847
  O      -1.825186      0.255305      1.628427
  Si     -0.451348      0.625103      2.582874
  Si     -3.368684     -0.361985      1.979002
  C       1.003663      1.507344      1.719843
  C       2.194227      1.021945      1.357363
  H       0.852003      2.595237      1.525717
  H       2.907721      1.609323      0.729490
  H       2.581540      0.013119      1.631081
  Si      0.728230     -1.474959     -1.055158
  O      -0.354369     -0.277356     -1.371702
  O       2.096303     -1.196005     -1.932162
  Si      3.117376     -0.487340     -3.031537
  Si     -1.810165      0.373795     -1.828091
  H       1.063561     -1.377362      0.386932
  H      -4.139064      0.586373      2.855995
  H      -0.954768      1.530501      3.674416
  H      -3.285402     -1.706376      2.653416
  H       0.069285     -0.653124      3.174347
  H      -1.830658      0.528859     -3.322697
  H      -2.920311     -0.554147     -1.429708
  H      -1.944930      1.718116     -1.179318
  H       2.719181      0.932539     -3.345757
  H       4.484971     -0.525563     -2.414864
  H       3.089996     -1.286548     -4.301731
  H       0.189296     -2.819231     -1.437476
  H      -4.212465     -0.577564      0.751297
26
Coordinates from ORCA-job my_molecule_MEP_ALL E -1757.302008499069
  O      -1.793473      0.182436      1.643994
  Si     -0.459974      0.631771      2.634308
  Si     -3.299881     -0.556794      1.950007
  C       1.085406      1.493991      1.877342
  C       2.257139      0.967291      1.507307
  H       1.003435      2.599207      1.755589
  H       3.024951      1.542185      0.932349
  H       2.564709     -0.090393      1.679026
  Si      0.698061     -1.187850     -1.029791
  O      -0.423352     -0.287589     -1.827622
  O       2.161646     -1.153046     -1.807483
  Si      3.096443     -0.659946     -3.096569
  Si     -1.881606      0.492055     -1.957631
  H       0.842725     -0.434912      0.231074
  H      -4.259028      0.407403      2.599849
  H      -1.032487      1.593642      3.639551
  H      -3.150165     -1.776094      2.824572
  H       0.030599     -0.628173      3.284314
  H      -1.957914      0.817756     -3.413806
  H      -2.976015     -0.450619     -1.545945
  H      -1.965978      1.754647     -1.138220
  H       2.754456      0.738019     -3.543377
  H       4.519648     -0.720243     -2.623933
  H       2.891260     -1.589886     -4.257582
  H       0.267231     -2.626290     -1.027584
  H      -3.997838     -1.058569      0.710264
26
Coordinates from ORCA-job my_molecule_MEP_ALL E -1757.281593103866
  O      -1.731427      0.088045      1.594568
  Si     -0.450822      0.602794      2.624607
  Si     -3.229376     -0.677706      1.902224
  C       1.153541      1.440417      1.961645
  C       2.268814      0.836247      1.539490
  H       1.162639      2.554556      1.961034
  H       3.110043      1.361524      1.023961
  H       2.413975     -0.268731      1.561532
  Si      0.695140     -0.825128     -0.927237
  O      -0.501049     -0.335442     -1.950897
  O       2.178286     -1.028676     -1.670208
  Si      3.051548     -0.746598     -3.068965
  Si     -1.930434      0.503107     -2.012012
  H       0.708074      0.464037     -0.097467
  H      -4.248938      0.302021      2.428299
  H      -1.072393      1.597424      3.561905
  H      -3.076664     -1.807585      2.889554
  H       0.024801     -0.637892      3.317085
  H      -1.976724      0.870204     -3.454981
  H      -3.010808     -0.450066     -1.595623
  H      -2.046667      1.755907     -1.168390
  H       2.759656      0.615254     -3.642968
  H       4.501345     -0.851426     -2.693559
  H       2.725986     -1.767450     -4.124764
  H       0.360794     -2.289477     -0.634306
  H      -3.839341     -1.305361      0.675472
26
Coordinates from ORCA-job my_molecule_MEP_ALL E -1757.225318928921
  O      -1.698823      0.021951      1.547599
  Si     -0.461119      0.592587      2.589921
  Si     -3.189065     -0.750840      1.866073
  C       1.149901      1.382805      1.891773
  C       2.232055      0.729837      1.479111
  H       1.233246      2.491565      2.022027
  H       3.108432      1.209784      0.966226
  H       2.328765     -0.384796      1.513536
  Si      0.735969     -0.643475     -0.813094
  O      -0.477155     -0.244499     -1.844928
  O       2.191845     -0.949043     -1.607498
  Si      3.023750     -0.784532     -3.058720
  Si     -1.929243      0.524837     -1.992431
  H       0.637150      1.028715     -0.053690
  H      -4.227815      0.242842      2.324074
  H      -1.101860      1.615241      3.482296
  H      -3.035566     -1.821163      2.917408
  H       0.013027     -0.604479      3.356293
  H      -1.933395      0.861311     -3.445019
  H      -2.985847     -0.468457     -1.610824
  H      -2.129432      1.786695     -1.178970
  H       2.756412      0.551692     -3.701207
  H       4.484018     -0.924603     -2.732014
  H       2.625246     -1.855733     -4.041684
  H       0.394680     -2.165185     -0.527656
  H      -3.745177     -1.443055      0.651398
26
Coordinates from ORCA-job my_molecule_MEP_ALL E -1757.244339103152
  O      -1.721435      0.019768      1.547359
  Si     -0.469968      0.603830      2.555083
  Si     -3.200925     -0.751854      1.869950
  C       0.964060      1.422934      1.577884
  C       2.170044      0.583136      1.236913
  H       1.219452      2.435407      2.011796
  H       3.054684      1.159568      0.879562
  H       2.391260     -0.389947      1.648195
  Si      0.850449     -0.796102     -0.744941
  O      -0.390484     -0.167184     -1.698850
  O       2.214215     -0.987158     -1.659544
  Si      3.037737     -0.786311     -3.084412
  Si     -1.896075      0.526002     -1.963539
  H       0.619219      1.392377      0.381991
  H      -4.235525      0.242815      2.331897
  H      -1.094277      1.614868      3.484336
  H      -3.040635     -1.824844      2.915261
  H       0.025439     -0.581884      3.344970
  H      -1.910160      0.851622     -3.426975
  H      -2.963958     -0.469010     -1.607845
  H      -2.126613      1.790449     -1.175695
  H       2.756007      0.558374     -3.700946
  H       4.491509     -0.918164     -2.739546
  H       2.636405     -1.850101     -4.066814
  H       0.373600     -2.241887     -0.566917
  H      -3.754026     -1.436704      0.650827
26
Coordinates from ORCA-job my_molecule_MEP_ALL E -1757.330867536618
  O      -1.705310     -0.021410      1.525988
  Si     -0.505392      0.640979      2.535713
  Si     -3.154800     -0.843669      1.824861
  C       0.914577      1.415672      1.529464
  C       1.983854      0.442032      1.015427
  H       1.283733      2.321846      2.084676
  H       2.900876      1.032417      0.709282
  H       2.345271     -0.356327      1.690337
  Si      0.960298     -0.718153     -0.633493
  O      -0.274666      0.019170     -1.526732
  O       2.252042     -0.951740     -1.635988
  Si      3.001694     -0.851236     -3.108558
  Si     -1.811038      0.595910     -1.897841
  H       0.532901      1.721410      0.526448
  H      -4.240412      0.126178      2.206869
  H      -1.157552      1.663678      3.430787
  H      -2.990692     -1.863426      2.919817
  H       0.015640     -0.489710      3.388974
  H      -1.838375      0.922079     -3.368167
  H      -2.870001     -0.432241     -1.598000
  H      -2.131581      1.850122     -1.129930
  H       2.727371      0.471479     -3.772188
  H       4.461898     -1.018896     -2.816331
  H       2.517451     -1.948740     -4.011265
  H       0.385391     -2.139421     -0.493170
  H      -3.603180     -1.588002      0.603019
26
Coordinates from ORCA-job my_molecule_MEP_ALL E -1757.381892156518
  O      -1.533588     -0.169092      1.457680
  Si     -0.662552      0.780409      2.552915
  Si     -2.725751     -1.356877      1.520396
  C       0.806280      1.522011      1.636424
  C       1.735042      0.522107      0.917198
  H       1.372332      2.112796      2.392885
  H       2.637148      1.043669      0.527098
  H       2.122235     -0.248496      1.620946
  Si      1.016752     -0.370273     -0.584234
  O      -0.003363      0.656294     -1.424711
  O       2.325463     -0.723672     -1.567393
  Si      2.663800     -1.300409     -3.104198
  Si     -1.593072      1.075874     -1.733132
  H       0.407004      2.267806      0.914761
  H      -4.088263     -0.724903      1.438314
  H      -1.542776      1.873051      3.102031
  H      -2.619431     -2.128878      2.809969
  H      -0.208965     -0.095850      3.694911
  H      -1.671040      1.587493     -3.143998
  H      -2.513236     -0.108392     -1.595319
  H      -2.040149      2.165903     -0.797832
  H       2.442920     -0.229546     -4.137600
  H       4.104489     -1.722873     -3.130687
  H       1.793661     -2.485275     -3.437916
  H       0.303621     -1.658032     -0.287164
  H      -2.528562     -2.284845      0.358655
26
Coordinates from ORCA-job my_molecule_MEP_ALL E -1757.328557421627
  O      -1.845706      0.529372      1.580749
  Si     -0.340506      0.389943      2.325301
  Si     -3.470566      0.551388      1.998738
  C       0.909653      1.476454      1.453733
  C       2.144539      1.054214      1.112262
  H       0.641324      2.531734      1.255479
  H       2.890276      1.724486      0.649950
  H       2.472343      0.013198      1.284131
  Si      0.908505     -1.997946     -1.356688
  O      -0.432876     -1.131278     -0.878286
  O       1.860444     -1.113469     -2.400156
  Si      2.996650      0.104653     -2.566457
  Si     -1.848984     -0.505833     -1.539255
  H       1.677416     -2.327971     -0.112517
  H      -3.656991      1.235870      3.328365
  H      -0.505750      0.847380      3.755385
  H      -4.017915     -0.847344      2.090754
  H       0.137438     -1.035406      2.318523
  H      -1.978320     -0.963651     -2.970224
  H      -3.032398     -1.018605     -0.770411
  H      -1.815201      0.993246     -1.507057
  H       2.340649      1.455571     -2.484937
  H       4.047325      0.002807     -1.491416
  H       3.649507     -0.050373     -3.909342
  H       0.484582     -3.226418     -2.103731
  H      -4.215440      1.307978      0.937107
26
Coordinates from ORCA-job my_molecule_MEP_ALL E -1757.325690491124
  O      -1.846050      0.454223      1.599466
  Si     -0.371260      0.496990      2.429270
  Si     -3.460797      0.193593      2.000172
  C       0.930805      1.506929      1.526351
  C       2.142834      1.046041      1.152802
  H       0.707023      2.572766      1.326041
  H       2.869902      1.680186      0.611115
  H       2.480843      0.016199      1.369408
  Si      0.827246     -1.848274     -1.198535
  O      -0.406822     -0.764560     -0.960345
  O       1.925822     -1.205848     -2.259264
  Si      3.071808     -0.102509     -2.749442
  Si     -1.810995     -0.151663     -1.641146
  H       1.454624     -2.112313      0.138788
  H      -3.822170      0.954351      3.247807
  H      -0.650595      1.137767      3.765126
  H      -3.735639     -1.270107      2.226530
  H       0.147377     -0.898208      2.647256
  H      -1.853663     -0.396241     -3.130117
  H      -2.987347     -0.853505     -1.028804
  H      -1.857985      1.326338     -1.400213
  H       2.514733      1.296658     -2.795059
  H       4.237967     -0.149492     -1.799906
  H       3.506918     -0.504703     -4.127010
  H       0.320377     -3.107261     -1.832608
  H      -4.334957      0.682644      0.882320
26
Coordinates from ORCA-job my_molecule_MEP_ALL E -1757.320419175368
  O      -1.840668      0.352539      1.611440
  Si     -0.412350      0.573886      2.510527
  Si     -3.424183     -0.097689      1.995954
  C       0.951736      1.516077      1.603687
  C       2.154449      1.034953      1.229826
  H       0.762460      2.588294      1.392087
  H       2.865121      1.641963      0.631271
  H       2.515437      0.020660      1.488837
  Si      0.768242     -1.682408     -1.101234
  O      -0.367349     -0.478557     -1.096868
  O       2.004741     -1.227931     -2.094739
  Si      3.111599     -0.290789     -2.899573
  Si     -1.789581      0.131220     -1.725657
  H       1.264709     -1.858537      0.301501
  H      -3.965839      0.761911      3.104493
  H      -0.809086      1.365161      3.728504
  H      -3.494537     -1.542963      2.414822
  H       0.124309     -0.765455      2.934266
  H      -1.795619      0.087223     -3.233472
  H      -2.935542     -0.709306     -1.244396
  H      -1.909078      1.558287     -1.287131
  H       2.637186      1.130014     -3.070376
  H       4.386775     -0.317686     -2.105897
  H       3.320340     -0.900021     -4.254320
  H       0.214418     -2.962676     -1.649259
  H      -4.337690      0.071832      0.815708
26
Coordinates from ORCA-job my_molecule_MEP_ALL E -1757.314937720296
  O      -1.819925      0.250294      1.630210
  Si     -0.450309      0.624275      2.587377
  Si     -3.361805     -0.369715      1.979381
  C       0.996603      1.510967      1.725177
  C       2.199255      1.017341      1.365118
  H       0.848798      2.591942      1.523096
  H       2.911579      1.611508      0.752511
  H       2.569239      0.006233      1.626456
  Si      0.727460     -1.463289     -1.054229
  O      -0.357840     -0.274471     -1.392505
  O       2.102718     -1.196738     -1.924774
  Si      3.118678     -0.495423     -3.035120
  Si     -1.816650      0.379461     -1.835391
  H       1.056817     -1.343905      0.387234
  H      -4.141269      0.579334      2.848202
  H      -0.957437      1.534329      3.674517
  H      -3.274259     -1.708652      2.663595
  H       0.067657     -0.655317      3.179155
  H      -1.837321      0.542649     -3.328802
  H      -2.926573     -0.548446     -1.434827
  H      -1.950257      1.719983     -1.178325
  H       2.721198      0.923388     -3.352405
  H       4.490475     -0.529564     -2.428095
  H       3.084598     -1.298758     -4.302809
  H       0.191098     -2.813019     -1.419918
  H      -4.192528     -0.594407      0.745171
26
Coordinates from ORCA-job my_molecule_MEP_ALL E -1757.303168209223
  O      -1.784445      0.175028      1.641112
  Si     -0.457942      0.628041      2.636537
  Si     -3.290510     -0.561923      1.948568
  C       1.077456      1.496281      1.880128
  C       2.258115      0.958735      1.510397
  H       1.001659      2.595592      1.755854
  H       3.026832      1.539511      0.954005
  H       2.545841     -0.099555      1.669123
  Si      0.696608     -1.169005     -1.028516
  O      -0.426754     -0.289436     -1.847069
  O       2.164119     -1.144297     -1.799202
  Si      3.095910     -0.664292     -3.096446
  Si     -1.887539      0.492433     -1.966220
  H       0.840297     -0.409057      0.226664
  H      -4.253476      0.402177      2.593057
  H      -1.033169      1.593340      3.637757
  H      -3.140729     -1.775080      2.831139
  H       0.030386     -0.632307      3.289132
  H      -1.969598      0.825840     -3.420490
  H      -2.982010     -0.449119     -1.550131
  H      -1.969081      1.751473     -1.140820
  H       2.755229      0.732042     -3.546298
  H       4.521231     -0.723823     -2.631153
  H       2.885410     -1.599001     -4.252977
  H       0.272937     -2.608116     -0.998605
  H      -3.976776     -1.065484      0.704453
26
Coordinates from ORCA-job my_molecule_MEP_ALL E -1757.283171846253
  O      -1.721385      0.080551      1.590033
  Si     -0.450028      0.599465      2.627172
  Si     -3.218905     -0.683201      1.899058
  C       1.145229      1.439767      1.961949
  C       2.266423      0.824741      1.537872
  H       1.160964      2.548637      1.958783
  H       3.107108      1.353549      1.037189
  H       2.399412     -0.276726      1.555495
  Si      0.693814     -0.804612     -0.930740
  O      -0.502198     -0.332219     -1.963831
  O       2.180280     -1.012059     -1.664513
  Si      3.050467     -0.748490     -3.068568
  Si     -1.936026      0.503582     -2.019420
  H       0.709483      0.466470     -0.096880
  H      -4.241042      0.296643      2.419676
  H      -1.075234      1.598467      3.558203
  H      -3.067401     -1.805720      2.894715
  H       0.022808     -0.639485      3.326065
  H      -1.988235      0.876090     -3.461275
  H      -3.016519     -0.449471     -1.600149
  H      -2.047898      1.752828     -1.170146
  H       2.760517      0.611060     -3.646423
  H       4.501405     -0.855464     -2.699320
  H       2.717921     -1.775981     -4.115894
  H       0.367639     -2.255563     -0.598473
  H      -3.818600     -1.312860      0.669421
26
Coordinates from ORCA-job my_molecule_MEP_ALL E -1757.229114401608
  O      -1.693809      0.017648      1.545842
  Si     -0.462331      0.589957      2.591018
  Si     -3.183244     -0.754447      1.864428
  C       1.133676      1.384183      1.877756
  C       2.230242      0.714672      1.469159
  H       1.225725      2.482416      2.005679
  H       3.098900      1.199966      0.968919
  H       2.324717     -0.391422      1.521960
  Si      0.739139     -0.616861     -0.808459
  O      -0.474504     -0.238130     -1.851681
  O       2.192491     -0.933909     -1.605681
  Si      3.023034     -0.784252     -3.058504
  Si     -1.930761      0.524387     -1.997062
  H       0.640826      0.995212     -0.037277
  H      -4.222435      0.239212      2.320259
  H      -1.102232      1.616853      3.480907
  H      -3.029119     -1.819542      2.920601
  H       0.012666     -0.604490      3.362015
  H      -1.943053      0.865712     -3.449072
  H      -2.990109     -0.467124     -1.613946
  H      -2.127056      1.783854     -1.178931
  H       2.757689      0.550801     -3.702540
  H       4.484878     -0.924609     -2.737528
  H       2.622456     -1.858643     -4.037752
  H       0.403485     -2.126182     -0.496779
  H      -3.731272     -1.445261      0.646670
26
Coordinates from ORCA-job my_molecule_MEP_ALL E -1757.243576130637
  O      -1.714864      0.016144      1.545952
  Si     -0.469175      0.599634      2.560061
  Si     -3.194981     -0.752607      1.869472
  C       0.961713      1.414689      1.577778
  C       2.167475      0.581550      1.241250
  H       1.212479      2.435870      1.999319
  H       3.057483      1.158720      0.893872
  H       2.384503     -0.400191      1.644524
  Si      0.850219     -0.770599     -0.746993
  O      -0.395325     -0.171145     -1.717757
  O       2.214271     -0.975695     -1.657605
  Si      3.038249     -0.784891     -3.083332
  Si     -1.903036      0.524056     -1.971500
  H       0.618948      1.358773      0.380017
  H      -4.229430      0.242220      2.331303
  H      -1.093724      1.614245      3.484141
  H      -3.035407     -1.822246      2.918222
  H       0.024087     -0.587256      3.350131
  H      -1.922563      0.854400     -3.433775
  H      -2.972239     -0.468988     -1.611387
  H      -2.124456      1.785931     -1.176962
  H       2.757808      0.559149     -3.700086
  H       4.493085     -0.915967     -2.742433
  H       2.636465     -1.851034     -4.063364
  H       0.382058     -2.210133     -0.538294
  H      -3.743643     -1.434632      0.647447
26
Coordinates from ORCA-job my_molecule_MEP_ALL E -1757.328950990072
  O      -1.709878     -0.014421      1.530429
  Si     -0.498585      0.629992      2.539532
  Si     -3.167117     -0.820687      1.837616
  C       0.915896      1.408461      1.528674
  C       2.002385      0.446190      1.030742
  H       1.266387      2.338899      2.056517
  H       2.918319      1.042676      0.734279
  H       2.355339     -0.365142      1.692235
  Si      0.954745     -0.726375     -0.645169
  O      -0.290772     -0.016730     -1.551017
  O       2.247799     -0.960026     -1.644960
  Si      3.015713     -0.831914     -3.106400
  Si     -1.825972      0.574293     -1.911181
  H       0.532210      1.668472      0.509831
  H      -4.237918      0.157432      2.243085
  H      -1.139738      1.650988      3.445067
  H      -3.000965     -1.852557      2.921341
  H       0.021223     -0.513189      3.377823
  H      -1.856355      0.899695     -3.381653
  H      -2.892471     -0.444171     -1.601526
  H      -2.129007      1.832167     -1.141969
  H       2.737410      0.498409     -3.752723
  H       4.475306     -0.986851     -2.802371
  H       2.553106     -1.921471     -4.031298
  H       0.393290     -2.148817     -0.489033
  H      -3.640349     -1.545323      0.612129
26
Coordinates from ORCA-job my_molecule_MEP_ALL E -1757.381892156518
  O      -1.533375     -0.170415      1.457751
  Si     -0.663132      0.779885      2.552925
  Si     -2.724484     -1.359254      1.520548
  C       0.805004      1.522765      1.636352
  C       1.734620      0.523667      0.917110
  H       1.370565      2.114070      2.392774
  H       2.636247      1.046018      0.526957
  H       2.122527     -0.246577      1.620860
  Si      1.017055     -0.369387     -0.584269
  O      -0.004007      0.656256     -1.424727
  O       2.326036     -0.721650     -1.567477
  Si      2.664817     -1.298126     -3.104283
  Si     -1.594101      1.074421     -1.733089
  H       0.405035      2.268189      0.914688
  H      -4.087560     -0.728489      1.438510
  H      -1.544300      1.871761      3.102052
  H      -2.617424     -2.131130      2.810135
  H      -0.208719     -0.095945      3.694923
  H      -1.672583      1.585937     -3.143964
  H      -2.513210     -0.110657     -1.595207
  H      -2.042103      2.164077     -0.797796
  H       2.442944     -0.227484     -4.137701
  H       4.105879     -1.719315     -3.130823
  H       1.795712     -2.483771     -3.437933
  H       0.305077     -1.657770     -0.287137
  H      -2.526523     -2.287076      0.358821
26
Coordinates from ORCA-job my_molecule_MEP_ALL E -1757.328557421627
  O      -1.845706      0.529372      1.580749
  Si     -0.340506      0.389943      2.325301
  Si     -3.470566      0.551388      1.998738
  C       0.909653      1.476454      1.453733
  C       2.144539      1.054214      1.112262
  H       0.641324      2.531734      1.255479
  H       2.890276      1.724486      0.649950
  H       2.472343      0.013198      1.284131
  Si      0.908505     -1.997946     -1.356688
  O      -0.432876     -1.131278     -0.878286
  O       1.860444     -1.113469     -2.400156
  Si      2.996650      0.104653     -2.566457
  Si     -1.848984     -0.505833     -1.539255
  H       1.677416     -2.327971     -0.112517
  H      -3.656991      1.235870      3.328365
  H      -0.505750      0.847380      3.755385
  H      -4.017915     -0.847344      2.090754
  H       0.137438     -1.035406      2.318523
  H      -1.978320     -0.963651     -2.970224
  H      -3.032398     -1.018605     -0.770411
  H      -1.815201      0.993246     -1.507057
  H       2.340649      1.455571     -2.484937
  H       4.047325      0.002807     -1.491416
  H       3.649507     -0.050373     -3.909342
  H       0.484582     -3.226418     -2.103731
  H      -4.215440      1.307978      0.937107
26
Coordinates from ORCA-job my_molecule_MEP_ALL E -1757.325979655328
  O      -1.845327      0.454735      1.600839
  Si     -0.371150      0.498437      2.431467
  Si     -3.459313      0.190407      2.000892
  C       0.925653      1.509182      1.527658
  C       2.145327      1.044708      1.154139
  H       0.703793      2.570871      1.320990
  H       2.869370      1.680573      0.618013
  H       2.476039      0.015139      1.367230
  Si      0.825771     -1.847046     -1.198598
  O      -0.408093     -0.761498     -0.961130
  O       1.929180     -1.209185     -2.258647
  Si      3.073909     -0.106153     -2.751918
  Si     -1.811778     -0.147822     -1.640913
  H       1.452473     -2.107847      0.139008
  H      -3.822695      0.951287      3.248144
  H      -0.652333      1.140951      3.766788
  H      -3.730079     -1.273755      2.228812
  H       0.147242     -0.896992      2.649765
  H      -1.849399     -0.390599     -3.130231
  H      -2.990637     -0.849078     -1.031760
  H      -1.861280      1.329955     -1.397661
  H       2.516424      1.292822     -2.797668
  H       4.243051     -0.148335     -1.805487
  H       3.508266     -0.507981     -4.130202
  H       0.317026     -3.107275     -1.828845
  H      -4.331440      0.674500      0.879315
26
Coordinates from ORCA-job my_molecule_MEP_ALL E -1757.321441138710
  O      -1.838006      0.350178      1.613984
  Si     -0.411360      0.575919      2.514355
  Si     -3.419629     -0.105505      1.997146
  C       0.936392      1.522872      1.609204
  C       2.167104      1.029358      1.232344
  H       0.757195      2.582849      1.385459
  H       2.864433      1.642709      0.649191
  H       2.505962      0.020090      1.486193
  Si      0.766392     -1.676900     -1.101037
  O      -0.369564     -0.471799     -1.105423
  O       2.012164     -1.231552     -2.089632
  Si      3.114185     -0.298627     -2.904243
  Si     -1.792124      0.138791     -1.728397
  H       1.258323     -1.842416      0.303199
  H      -3.968831      0.756287      3.100388
  H      -0.813200      1.371513      3.729690
  H      -3.483057     -1.548370      2.424065
  H       0.122637     -0.764042      2.940696
  H      -1.793189      0.101005     -3.236122
  H      -2.940048     -0.701869     -1.250525
  H      -1.914865      1.563744     -1.283209
  H       2.640012      1.121862     -3.077123
  H       4.395352     -0.318976     -2.119852
  H       3.317605     -0.910652     -4.258849
  H       0.210495     -2.959433     -1.640958
  H      -4.324379      0.052965      0.809455
26
Coordinates from ORCA-job my_molecule_MEP_ALL E -1757.316199928413
  O      -1.813067      0.243959      1.631890
  Si     -0.447589      0.623431      2.591881
  Si     -3.352573     -0.380559      1.979490
  C       0.976941      1.518954      1.734810
  C       2.216756      1.007240      1.370578
  H       0.846160      2.586539      1.522771
  H       2.915225      1.611740      0.783824
  H       2.552172      0.000142      1.621542
  Si      0.726085     -1.447999     -1.051486
  O      -0.363531     -0.269705     -1.422379
  O       2.112583     -1.195726     -1.916496
  Si      3.119248     -0.506705     -3.038801
  Si     -1.823907      0.386541     -1.845259
  H       1.047347     -1.298492      0.387485
  H      -4.143529      0.569837      2.836895
  H      -0.960526      1.538543      3.674498
  H      -3.259436     -1.711753      2.677370
  H       0.065941     -0.657281      3.186553
  H      -1.848191      0.561391     -3.337457
  H      -2.934603     -0.540968     -1.442450
  H      -1.957209      1.722353     -1.177206
  H       2.723450      0.911416     -3.361713
  H       4.497604     -0.535944     -2.445550
  H       3.076584     -1.315904     -4.303407
  H       0.194171     -2.803630     -1.394679
  H      -4.166104     -0.617419      0.737297
26
Coordinates from ORCA-job my_molecule_MEP_ALL E -1757.304871032470
  O      -1.773253      0.166006      1.637157
  Si     -0.453835      0.623611      2.638514
  Si     -3.278077     -0.569254      1.946347
  C       1.055136      1.503881      1.888159
  C       2.273776      0.942546      1.509409
  H       1.000246      2.589536      1.758215
  H       3.027132      1.532606      0.982236
  H       2.521383     -0.108313      1.657459
  Si      0.696220     -1.148844     -1.024315
  O      -0.438150     -0.286949     -1.874452
  O       2.170053     -1.130845     -1.791764
  Si      3.093594     -0.670279     -3.094311
  Si     -1.890887      0.490736     -1.976743
  H       0.835533     -0.373931      0.220008
  H      -4.245510      0.395527      2.583448
  H      -1.034360      1.592493      3.635527
  H      -3.128267     -1.774078      2.839642
  H       0.030217     -0.636387      3.296142
  H      -1.985573      0.836168     -3.429132
  H      -2.989353     -0.447189     -1.556487
  H      -1.972527      1.747351     -1.144204
  H       2.756157      0.725051     -3.551292
  H       4.523404     -0.729266     -2.640477
  H       2.876787     -1.611486     -4.246013
  H       0.279755     -2.582997     -0.959847
  H      -3.949603     -1.075693      0.696773
26
Coordinates from ORCA-job my_molecule_MEP_ALL E -1757.286728400844
  O      -1.710025      0.072875      1.585650
  Si     -0.447955      0.595547      2.630196
  Si     -3.206778     -0.689262      1.895719
  C       1.123317      1.445801      1.966989
  C       2.277470      0.805725      1.532145
  H       1.156941      2.539682      1.953525
  H       3.100700      1.343325      1.053719
  H       2.383222     -0.282590      1.551408
  Si      0.693613     -0.785686     -0.935041
  O      -0.506638     -0.327254     -1.982223
  O       2.182768     -0.992205     -1.660553
  Si      3.049135     -0.749680     -3.068013
  Si     -1.939623      0.502320     -2.028633
  H       0.710881      0.464234     -0.093792
  H      -4.231136      0.291192      2.410527
  H      -1.078251      1.599147      3.555416
  H      -3.056235     -1.803473      2.900401
  H       0.020541     -0.641056      3.336987
  H      -2.004528      0.883659     -3.468996
  H      -3.023433     -0.447983     -1.606355
  H      -2.047480      1.748346     -1.172270
  H       2.761960      0.607938     -3.651156
  H       4.502095     -0.859210     -2.706112
  H       2.709449     -1.784790     -4.106311
  H       0.374448     -2.216297     -0.555390
  H      -3.794457     -1.320307      0.662163
26
Coordinates from ORCA-job my_molecule_MEP_ALL E -1757.236567301577
  O      -1.690318      0.015656      1.546240
  Si     -0.460742      0.587470      2.591397
  Si     -3.178926     -0.755172      1.864519
  C       1.094782      1.396397      1.866219
  C       2.249205      0.689502      1.448709
  H       1.211248      2.470250      1.977811
  H       3.082613      1.190569      0.974984
  H       2.323796     -0.391490      1.537901
  Si      0.742819     -0.602564     -0.808670
  O      -0.467887     -0.232536     -1.860292
  O       2.193357     -0.919277     -1.607916
  Si      3.024478     -0.780468     -3.060072
  Si     -1.932365      0.523349     -2.003125
  H       0.645439      0.942635     -0.008682
  H      -4.216770      0.238499      2.321806
  H      -1.099871      1.616993      3.483385
  H      -3.023385     -1.817293      2.922904
  H       0.013243     -0.605797      3.366839
  H      -1.957669      0.870810     -3.454073
  H      -2.995620     -0.464490     -1.617677
  H      -2.120417      1.778670     -1.178692
  H       2.759780      0.554422     -3.702174
  H       4.487044     -0.920177     -2.742380
  H       2.624770     -1.856632     -4.037712
  H       0.411407     -2.088807     -0.463208
  H      -3.720012     -1.440517      0.641956
26
Coordinates from ORCA-job my_molecule_MEP_ALL E -1757.240789621254
  O      -1.706426      0.010783      1.544090
  Si     -0.467959      0.595053      2.565738
  Si     -3.186827     -0.755569      1.867953
  C       0.958881      1.404703      1.578858
  C       2.165329      0.575421      1.246691
  H       1.202712      2.432346      1.981683
  H       3.057892      1.153935      0.909420
  H       2.374715     -0.411351      1.639996
  Si      0.851030     -0.735040     -0.749437
  O      -0.399608     -0.172217     -1.740037
  O       2.214643     -0.957061     -1.654609
  Si      3.038035     -0.782686     -3.082537
  Si     -1.910100      0.523069     -1.981187
  H       0.619102      1.310223      0.377738
  H      -4.221073      0.239809      2.328182
  H      -1.094237      1.613840      3.484190
  H      -3.027561     -1.819886      2.921894
  H       0.022152     -0.592561      3.358163
  H      -1.939523      0.860091     -3.441956
  H      -2.981372     -0.467475     -1.616508
  H      -2.121968      1.781056     -1.178109
  H       2.759833      0.559829     -3.701359
  H       4.494102     -0.914838     -2.747281
  H       2.633814     -1.853128     -4.057235
  H       0.392242     -2.163122     -0.496618
  H      -3.727825     -1.435226      0.642281
26
Coordinates from ORCA-job my_molecule_MEP_ALL E -1757.322289268693
  O      -1.710671     -0.012051      1.533130
  Si     -0.494543      0.619877      2.543661
  Si     -3.173380     -0.805770      1.846289
  C       0.908820      1.399525      1.515830
  C       2.004689      0.435802      1.026277
  H       1.251663      2.345023      2.030534
  H       2.924619      1.041285      0.749802
  H       2.359588     -0.374843      1.698064
  Si      0.959873     -0.721762     -0.648194
  O      -0.297150     -0.037168     -1.565605
  O       2.247069     -0.961413     -1.653597
  Si      3.026678     -0.817055     -3.106603
  Si     -1.835297      0.558275     -1.921587
  H       0.523647      1.634906      0.512742
  H      -4.232474      0.178326      2.268480
  H      -1.126483      1.640996      3.455390
  H      -3.005373     -1.844290      2.923612
  H       0.024923     -0.530862      3.372203
  H      -1.873844      0.884715     -3.392552
  H      -2.909598     -0.452040     -1.606071
  H      -2.126074      1.817672     -1.150466
  H       2.745241      0.518650     -3.739318
  H       4.486045     -0.962667     -2.795516
  H       2.578729     -1.901564     -4.044736
  H       0.403698     -2.139341     -0.468599
  H      -3.660396     -1.514226      0.616828
26
Coordinates from ORCA-job my_molecule_MEP_ALL E -1757.381892156518
  O      -1.533134     -0.172382      1.457774
  Si     -0.663819      0.778517      2.553164
  Si     -2.723017     -1.362462      1.520304
  C       0.803512      1.523151      1.636725
  C       1.734122      0.525202      0.917173
  H       1.368500      2.114834      2.393282
  H       2.635194      1.048584      0.527121
  H       2.122852     -0.244832      1.620699
  Si      1.017408     -0.368184     -0.584414
  O      -0.004745      0.656635     -1.424551
  O       2.326706     -0.718838     -1.567774
  Si      2.666010     -1.294553     -3.104750
  Si     -1.595281      1.073249     -1.732728
  H       0.402746      2.268358      0.915280
  H      -4.086744     -0.733076      1.438496
  H      -1.546083      1.869339      3.102625
  H      -2.615106     -2.134574      2.809679
  H      -0.208454     -0.097153      3.694906
  H      -1.674353      1.585063     -3.143463
  H      -2.513167     -0.112810     -1.595125
  H      -2.044361      2.162192     -0.797122
  H       2.442990     -0.223861     -4.137871
  H       4.107503     -1.714253     -3.131469
  H       1.798109     -2.481000     -3.438681
  H       0.306768     -1.657379     -0.287597
  H      -2.524155     -2.289767      0.358318
26
Coordinates from ORCA-job my_molecule_MEP_ALL E -1757.328557421627
  O      -1.845706      0.529372      1.580749
  Si     -0.340506      0.389943      2.325301
  Si     -3.470566      0.551388      1.998738
  C       0.909653      1.476454      1.453733
  C       2.144539      1.054214      1.112262
  H       0.641324      2.531734      1.255479
  H       2.890276      1.724486      0.649950
  H       2.472343      0.013198      1.284131
  Si      0.908505     -1.997946     -1.356688
  O      -0.432876     -1.131278     -0.878286
  O       1.860444     -1.113469     -2.400156
  Si      2.996650      0.104653     -2.566457
  Si     -1.848984     -0.505833     -1.539255
  H       1.677416     -2.327971     -0.112517
  H      -3.656991      1.235870      3.328365
  H      -0.505750      0.847380      3.755385
  H      -4.017915     -0.847344      2.090754
  H       0.137438     -1.035406      2.318523
  H      -1.978320     -0.963651     -2.970224
  H      -3.032398     -1.018605     -0.770411
  H      -1.815201      0.993246     -1.507057
  H       2.340649      1.455571     -2.484937
  H       4.047325      0.002807     -1.491416
  H       3.649507     -0.050373     -3.909342
  H       0.484582     -3.226418     -2.103731
  H      -4.215440      1.307978      0.937107
26
Coordinates from ORCA-job my_molecule_MEP_ALL E -1757.326099116261
  O      -1.844560      0.455205      1.602328
  Si     -0.371349      0.499977      2.433965
  Si     -3.457689      0.186821      2.001655
  C       0.923857      1.509590      1.528023
  C       2.143662      1.044795      1.156911
  H       0.700199      2.569680      1.315600
  H       2.869484      1.681409      0.624914
  H       2.471280      0.013319      1.365204
  Si      0.824160     -1.845417     -1.198657
  O      -0.409134     -0.758248     -0.962069
  O       1.932595     -1.212900     -2.257757
  Si      3.076271     -0.110052     -2.754714
  Si     -1.812730     -0.143478     -1.640792
  H       1.450081     -2.102939      0.139401
  H      -3.823363      0.947904      3.248377
  H      -0.654237      1.144422      3.768512
  H      -3.723992     -1.277816      2.231385
  H       0.147112     -0.895570      2.652624
  H      -1.844855     -0.384274     -3.130420
  H      -2.994080     -0.844261     -1.035071
  H      -1.864817      1.333929     -1.394868
  H       2.518275      1.288601     -2.800620
  H       4.248546     -0.147245     -1.811644
  H       3.509579     -0.511739     -4.133651
  H       0.313383     -3.107175     -1.824737
  H      -4.327678      0.665462      0.876103
26
Coordinates from ORCA-job my_molecule_MEP_ALL E -1757.321167722324
  O      -1.835170      0.347519      1.616724
  Si     -0.411422      0.577920      2.518990
  Si     -3.414591     -0.114016      1.998395
  C       0.933095      1.522806      1.611539
  C       2.165192      1.029440      1.239785
  H       0.751103      2.579924      1.378198
  H       2.866174      1.645052      0.666570
  H       2.497298      0.016473      1.484297
  Si      0.764353     -1.670420     -1.100896
  O      -0.371351     -0.464834     -1.114813
  O       2.019706     -1.235628     -2.083737
  Si      3.117173     -0.306925     -2.909514
  Si     -1.795170      0.147210     -1.731578
  H       1.251389     -1.824799      0.305221
  H      -3.972157      0.750171      3.095776
  H      -0.817605      1.378199      3.730890
  H      -3.470652     -1.554295      2.434145
  H       0.120951     -0.762347      2.947702
  H      -1.790780      0.116078     -3.239088
  H      -2.944814     -0.693815     -1.257266
  H      -1.921072      1.569664     -1.278983
  H       2.643046      1.112994     -3.084517
  H       4.404560     -0.320581     -2.134975
  H       3.314492     -0.922334     -4.263678
  H       0.206340     -2.955850     -1.631912
  H      -4.310084      0.032394      0.802724
26
Coordinates from ORCA-job my_molecule_MEP_ALL E -1757.315568374096
  O      -1.805765      0.237129      1.633626
  Si     -0.446227      0.622334      2.597276
  Si     -3.342583     -0.392036      1.979534
  C       0.973032      1.517987      1.740445
  C       2.215113      1.004738      1.382305
  H       0.842805      2.584251      1.522209
  H       2.922225      1.613851      0.814719
  H       2.535920     -0.010362      1.617366
  Si      0.724866     -1.430896     -1.049195
  O      -0.368407     -0.265442     -1.454052
  O       2.121767     -1.195011     -1.906591
  Si      3.120424     -0.518262     -3.043315
  Si     -1.832281      0.394446     -1.856043
  H       1.037262     -1.250210      0.387915
  H      -4.145829      0.559755      2.824768
  H      -0.963773      1.542689      3.674487
  H      -3.243680     -1.715072      2.692013
  H       0.064291     -0.659225      3.194408
  H      -1.860007      0.581399     -3.346695
  H      -2.943059     -0.532978     -1.450712
  H      -1.964566      1.724823     -1.176087
  H       2.725853      0.898661     -3.371600
  H       4.505144     -0.542835     -2.464101
  H       3.068008     -1.334185     -4.303882
  H       0.197455     -2.793651     -1.367658
  H      -4.137985     -0.641900      0.728863
26
Coordinates from ORCA-job my_molecule_MEP_ALL E -1757.304323859417
  O      -1.761329      0.156652      1.633105
  Si     -0.451226      0.619070      2.641277
  Si     -3.265060     -0.576713      1.943966
  C       1.049291      1.501064      1.891250
  C       2.268601      0.935435      1.515450
  H       0.997933      2.586958      1.760153
  H       3.031076      1.527835      1.009396
  H       2.497578     -0.121705      1.646078
  Si      0.694570     -1.126262     -1.022243
  O      -0.445043     -0.287432     -1.901346
  O       2.174440     -1.117246     -1.782485
  Si      3.092298     -0.675844     -3.093535
  Si     -1.897034      0.490484     -1.988165
  H       0.830635     -0.338524      0.213653
  H      -4.236989      0.388747      2.573502
  H      -1.035626      1.591307      3.633386
  H      -3.115184     -1.772974      2.848507
  H       0.030189     -0.640545      3.303485
  H      -2.002683      0.847022     -3.438131
  H      -2.996942     -0.445061     -1.563323
  H      -1.975857      1.742779     -1.147881
  H       2.757222      0.717806     -3.556397
  H       4.525698     -0.734848     -2.650181
  H       2.867969     -1.624373     -4.238667
  H       0.286561     -2.557559     -0.919502
  H      -3.921086     -1.086075      0.688649
26
Coordinates from ORCA-job my_molecule_MEP_ALL E -1757.288882550240
  O      -1.698025      0.064788      1.581085
  Si     -0.447053      0.591683      2.633962
  Si     -3.193947     -0.695543      1.892174
  C       1.115558      1.440368      1.966235
  C       2.270133      0.795834      1.533876
  H       1.152325      2.534045      1.947678
  H       3.097580      1.334318      1.068791
  H       2.367232     -0.292743      1.547451
  Si      0.692173     -0.765435     -0.940646
  O      -0.508499     -0.323334     -2.000463
  O       2.185149     -0.971384     -1.656187
  Si      3.048129     -0.750718     -3.068065
  Si     -1.944740      0.501785     -2.038496
  H       0.712221      0.462189     -0.090005
  H      -4.220619      0.285519      2.400892
  H      -1.081473      1.599624      3.552576
  H      -3.044401     -1.801107      2.906396
  H       0.018273     -0.642587      3.348481
  H      -2.022004      0.891602     -3.477110
  H      -3.030637     -0.446363     -1.613057
  H      -2.046844      1.743379     -1.174662
  H       2.763577      0.604670     -3.656249
  H       4.502810     -0.863113     -2.713254
  H       2.700597     -1.794007     -4.096130
  H       0.381451     -2.175338     -0.509769
  H      -3.768966     -1.328132      0.654498
26
Coordinates from ORCA-job my_molecule_MEP_ALL E -1757.239009819118
  O      -1.686758      0.013506      1.546670
  Si     -0.461166      0.585088      2.592827
  Si     -3.174268     -0.755641      1.864734
  C       1.075727      1.389835      1.842582
  C       2.239244      0.678795      1.438494
  H       1.195926      2.463953      1.948847
  H       3.072586      1.183990      0.976843
  H       2.324440     -0.398227      1.555552
  Si      0.747025     -0.588755     -0.808429
  O      -0.461479     -0.226004     -1.869407
  O       2.194873     -0.904392     -1.610804
  Si      3.026262     -0.776324     -3.062042
  Si     -1.933117      0.521798     -2.009351
  H       0.649928      0.889754      0.024134
  H      -4.210787      0.237967      2.323687
  H      -1.097277      1.616701      3.486165
  H      -3.017400     -1.814917      2.925326
  H       0.014063     -0.607096      3.371654
  H      -1.973267      0.876044     -3.459396
  H      -3.001349     -0.461761     -1.621716
  H      -2.113340      1.773161     -1.178507
  H       2.762063      0.558497     -3.701849
  H       4.489485     -0.915335     -2.747415
  H       2.627459     -1.854378     -4.037868
  H       0.419439     -2.051033     -0.427724
  H      -3.708310     -1.435226      0.636993
26
Coordinates from ORCA-job my_molecule_MEP_ALL E -1757.236671743438
  O      -1.697690      0.005452      1.542298
  Si     -0.466431      0.590450      2.571603
  Si     -3.178363     -0.758371      1.866492
  C       0.951825      1.395604      1.579719
  C       2.166261      0.567484      1.250168
  H       1.191895      2.428575      1.962076
  H       3.057590      1.148717      0.925898
  H       2.364894     -0.422852      1.636481
  Si      0.852259     -0.699032     -0.752209
  O      -0.403424     -0.173244     -1.763238
  O       2.215243     -0.937524     -1.651952
  Si      3.038036     -0.780224     -3.081858
  Si     -1.917611      0.522034     -1.991537
  H       0.619461      1.258305      0.377499
  H      -4.212316      0.237644      2.325178
  H      -1.094600      1.613480      3.484418
  H      -3.019410     -1.817235      2.925733
  H       0.020119     -0.597896      3.366595
  H      -1.957744      0.865974     -3.450668
  H      -2.990923     -0.465818     -1.622000
  H      -2.119008      1.775721     -1.179455
  H       2.762090      0.560722     -3.702718
  H       4.495261     -0.913525     -2.752207
  H       2.631365     -1.855183     -4.050889
  H       0.402648     -2.113858     -0.452298
  H      -3.711427     -1.435401      0.636870
26
Coordinates from ORCA-job my_molecule_MEP_ALL E -1757.321825104447
  O      -1.711350     -0.009824      1.535906
  Si     -0.490231      0.609612      2.547677
  Si     -3.179436     -0.790488      1.855123
  C       0.903652      1.389043      1.507780
  C       2.007319      0.425059      1.022711
  H       1.235984      2.350092      2.002532
  H       2.930454      1.038975      0.765955
  H       2.362661     -0.384205      1.702835
  Si      0.965138     -0.715796     -0.651538
  O      -0.303754     -0.057916     -1.581065
  O       2.246337     -0.962196     -1.662160
  Si      3.038054     -0.801797     -3.106816
  Si     -1.844514      0.541632     -1.932487
  H       0.512760      1.600049      0.511234
  H      -4.226510      0.199802      2.294299
  H      -1.112947      1.630868      3.465966
  H      -3.009647     -1.835579      2.926100
  H       0.028615     -0.548940      3.366830
  H      -1.892379      0.869343     -3.404017
  H      -2.927270     -0.460070     -1.611016
  H      -2.122969      1.802583     -1.159365
  H       2.753410      0.539261     -3.725745
  H       4.497130     -0.938029     -2.788595
  H       2.604946     -1.881429     -4.058115
  H       0.414829     -2.127709     -0.445515
  H      -3.680282     -1.482342      0.621486
26
Coordinates from ORCA-job my_molecule_MEP_ALL E -1757.381892156518
  O      -1.532899     -0.174397      1.457784
  Si     -0.664591      0.777206      2.553364
  Si     -2.721476     -1.365797      1.520080
  C       0.801894      1.523660      1.637047
  C       1.733576      0.526895      0.917237
  H       1.366257      2.115789      2.393721
  H       2.634062      1.051355      0.527276
  H       2.123173     -0.242874      1.620574
  Si      1.017793     -0.366935     -0.584531
  O      -0.005511      0.656956     -1.424400
  O       2.327445     -0.715928     -1.568014
  Si      2.667332     -1.290920     -3.105132
  Si     -1.596515      1.071895     -1.732432
  H       0.400287      2.268591      0.915786
  H      -4.085896     -0.737887      1.438460
  H      -1.548035      1.866935      3.103101
  H      -2.612676     -2.138085      2.809276
  H      -0.208230     -0.098226      3.694891
  H      -1.676192      1.583945     -3.143047
  H      -2.513095     -0.115203     -1.595070
  H      -2.046759      2.160133     -0.796563
  H       2.443105     -0.220236     -4.138001
  H       4.109285     -1.709033     -3.131993
  H       1.800722     -2.478243     -3.439306
  H       0.308577     -1.656977     -0.287985
  H      -2.521633     -2.292619      0.357877
26
Coordinates from ORCA-job my_molecule_MEP_ALL E -1757.328557421627
  O      -1.845706      0.529372      1.580749
  Si     -0.340506      0.389943      2.325301
  Si     -3.470566      0.551388      1.998738
  C       0.909653      1.476454      1.453733
  C       2.144539      1.054214      1.112262
  H       0.641324      2.531734      1.255479
  H       2.890276      1.724486      0.649950
  H       2.472343      0.013198      1.284131
  Si      0.908505     -1.997946     -1.356688
  O      -0.432876     -1.131278     -0.878286
  O       1.860444     -1.113469     -2.400156
  Si      2.996650      0.104653     -2.566457
  Si     -1.848984     -0.505833     -1.539255
  H       1.677416     -2.327971     -0.112517
  H      -3.656991      1.235870      3.328365
  H      -0.505750      0.847380      3.755385
  H      -4.017915     -0.847344      2.090754
  H       0.137438     -1.035406      2.318523
  H      -1.978320     -0.963651     -2.970224
  H      -3.032398     -1.018605     -0.770411
  H      -1.815201      0.993246     -1.507057
  H       2.340649      1.455571     -2.484937
  H       4.047325      0.002807     -1.491416
  H       3.649507     -0.050373     -3.909342
  H       0.484582     -3.226418     -2.103731
  H      -4.215440      1.307978      0.937107
26
Coordinates from ORCA-job my_molecule_MEP_ALL E -1757.326262998914
  O      -1.844418      0.455235      1.602631
  Si     -0.371804      0.500216      2.434588
  Si     -3.457352      0.185956      2.001788
  C       0.927505      1.507456      1.526857
  C       2.138509      1.046394      1.158867
  H       0.699357      2.570443      1.314688
  H       2.870354      1.682093      0.625625
  H       2.470805      0.012226      1.365294
  Si      0.823868     -1.844667     -1.198679
  O      -0.408823     -0.757786     -0.962387
  O       1.932915     -1.213831     -2.257296
  Si      3.076894     -0.110719     -2.755425
  Si     -1.813095     -0.142388     -1.640962
  H       1.449568     -2.101900      0.139690
  H      -3.823613      0.947167      3.248250
  H      -0.654558      1.145077      3.768754
  H      -3.722682     -1.278740      2.232028
  H       0.147117     -0.895144      2.653359
  H      -1.844064     -0.382786     -3.130526
  H      -2.994624     -0.843260     -1.035872
  H      -1.865493      1.334751     -1.394268
  H       2.518613      1.287659     -2.801331
  H       4.249621     -0.147229     -1.813014
  H       3.509706     -0.512712     -4.134302
  H       0.312635     -3.106993     -1.823903
  H      -4.326942      0.663481      0.875546
26
Coordinates from ORCA-job my_molecule_MEP_ALL E -1757.321619190300
  O      -1.834607      0.346866      1.617219
  Si     -0.412961      0.577932      2.520612
  Si     -3.413404     -0.115883      1.998584
  C       0.947424      1.514532      1.607730
  C       2.146832      1.036197      1.246687
  H       0.749444      2.582785      1.376866
  H       2.869685      1.647504      0.667640
  H       2.497377      0.012192      1.485283
  Si      0.763957     -1.668297     -1.100903
  O      -0.370760     -0.463918     -1.117065
  O       2.020475     -1.236722     -2.081946
  Si      3.118111     -0.308343     -2.910938
  Si     -1.796279      0.149290     -1.732651
  H       1.249937     -1.820861      0.306018
  H      -3.972944      0.748882      3.094544
  H      -0.818320      1.379264      3.730984
  H      -3.468072     -1.555636      2.436393
  H       0.120814     -0.761710      2.949293
  H      -1.790753      0.119435     -3.239915
  H      -2.945628     -0.692158     -1.258866
  H      -1.922309      1.570886     -1.278165
  H       2.643575      1.111085     -3.086178
  H       4.406350     -0.321261     -2.138159
  H       3.313623     -0.925062     -4.264564
  H       0.205666     -2.954960     -1.629896
  H      -4.307235      0.027959      0.801394
26
Coordinates from ORCA-job my_molecule_MEP_ALL E -1757.316126587446
  O      -1.804411      0.235867      1.633769
  Si     -0.448119      0.621712      2.599040
  Si     -3.340568     -0.393972      1.979416
  C       0.992595      1.507038      1.735579
  C       2.190451      1.013733      1.391425
  H       0.841420      2.587858      1.522035
  H       2.927368      1.616616      0.817144
  H       2.535199     -0.016748      1.617954
  Si      0.725045     -1.426576     -1.049687
  O      -0.367260     -0.266061     -1.459493
  O       2.121277     -1.195353     -1.903126
  Si      3.121517     -0.519549     -3.044991
  Si     -1.834717      0.396337     -1.858427
  H       1.035504     -1.242186      0.388327
  H      -4.145867      0.558069      2.822511
  H      -0.964159      1.542858      3.674490
  H      -3.240858     -1.715622      2.694593
  H       0.064343     -0.659224      3.195881
  H      -1.862736      0.584921     -3.348395
  H      -2.944384     -0.531607     -1.452459
  H      -1.965852      1.725097     -1.176083
  H       2.726218      0.896444     -3.373293
  H       4.506384     -0.544174     -2.467334
  H       3.066452     -1.337459     -4.303647
  H       0.198085     -2.791940     -1.362559
  H      -4.132928     -0.646080      0.727333
26
Coordinates from ORCA-job my_molecule_MEP_ALL E -1757.305149186985
  O      -1.759226      0.155570      1.632685
  Si     -0.453319      0.618464      2.642753
  Si     -3.263124     -0.577484      1.943565
  C       1.069890      1.488371      1.884893
  C       2.241245      0.946230      1.525257
  H       0.996029      2.590986      1.759598
  H       3.036226      1.530674      1.010479
  H       2.496354     -0.128106      1.645664
  Si      0.692300     -1.120901     -1.025802
  O      -0.437950     -0.292461     -1.902427
  O       2.172113     -1.116035     -1.778868
  Si      3.093975     -0.675419     -3.095795
  Si     -1.901962      0.492649     -1.990596
  H       0.829947     -0.336294      0.213810
  H      -4.235286      0.388102      2.572312
  H      -1.035826      1.590704      3.633472
  H      -3.113062     -1.772682      2.849799
  H       0.030464     -0.640790      3.304706
  H      -2.006149      0.848540     -3.439383
  H      -2.997887     -0.444715     -1.564705
  H      -1.975784      1.741529     -1.148692
  H       2.757519      0.716981     -3.557019
  H       4.526121     -0.735340     -2.651520
  H       2.867142     -1.625930     -4.237506
  H       0.286917     -2.555589     -0.914034
  H      -3.916668     -1.087054      0.687354
26
Coordinates from ORCA-job my_molecule_MEP_ALL E -1757.291994456318
  O      -1.696110      0.063647      1.580564
  Si     -0.448796      0.591368      2.635464
  Si     -3.191819     -0.696361      1.891619
  C       1.133081      1.425787      1.958658
  C       2.245737      0.806597      1.543845
  H       1.150592      2.537614      1.945868
  H       3.101578      1.335410      1.068212
  H       2.366228     -0.298847      1.547765
  Si      0.689993     -0.762451     -0.943428
  O      -0.504266     -0.325003     -2.001726
  O       2.185118     -0.968311     -1.655424
  Si      3.048735     -0.750382     -3.069191
  Si     -1.947564      0.502751     -2.040461
  H       0.712079      0.462309     -0.088284
  H      -4.218750      0.284775      2.399471
  H      -1.082050      1.599359      3.552401
  H      -3.042310     -1.800720      2.907354
  H       0.018095     -0.642495      3.350403
  H      -2.025633      0.892651     -3.478408
  H      -3.031635     -0.446142     -1.614499
  H      -2.046235      1.741937     -1.175399
  H       2.764050      0.604330     -3.657340
  H       4.502970     -0.863461     -2.714308
  H       2.699527     -1.795240     -4.094384
  H       0.382181     -2.169842     -0.502071
  H      -3.764794     -1.329280      0.653301
26
Coordinates from ORCA-job my_molecule_MEP_ALL E -1757.243722196031
  O      -1.686221      0.012723      1.546566
  Si     -0.464399      0.584601      2.594330
  Si     -3.173168     -0.755666      1.864779
  C       1.099531      1.366125      1.823828
  C       2.200782      0.694984      1.450033
  H       1.193054      2.469904      1.944314
  H       3.080268      1.186648      0.971239
  H       2.326185     -0.408058      1.559370
  Si      0.748634     -0.588439     -0.807234
  O      -0.461070     -0.223590     -1.870413
  O       2.196349     -0.902670     -1.611876
  Si      3.027088     -0.775423     -3.063003
  Si     -1.931757      0.520800     -2.010126
  H       0.648871      0.890553      0.034639
  H      -4.209616      0.237985      2.323921
  H      -1.096794      1.616095      3.486503
  H      -3.016263     -1.814620      2.925873
  H       0.014400     -0.607005      3.372311
  H      -1.976121      0.876372     -3.460388
  H      -3.002001     -0.461676     -1.622767
  H      -2.112576      1.772184     -1.178800
  H       2.762621      0.559436     -3.702298
  H       4.490192     -0.914477     -2.748181
  H       2.627950     -1.854206     -4.037741
  H       0.420252     -2.047986     -0.420996
  H      -3.706189     -1.434594      0.636117
26
Coordinates from ORCA-job my_molecule_MEP_ALL E -1757.232316755105
  O      -1.696655      0.005244      1.542469
  Si     -0.465944      0.590149      2.572579
  Si     -3.177220     -0.758075      1.866643
  C       0.944775      1.394538      1.577062
  C       2.169159      0.565594      1.247613
  H       1.188345      2.428858      1.956332
  H       3.057936      1.148865      0.928784
  H       2.365074     -0.425272      1.639084
  Si      0.853029     -0.697093     -0.753964
  O      -0.402669     -0.173479     -1.766730
  O       2.215735     -0.934558     -1.652875
  Si      3.038662     -0.779162     -3.082211
  Si     -1.919036      0.521686     -1.993700
  H       0.620376      1.247781      0.383775
  H      -4.210956      0.238104      2.325549
  H      -1.094199      1.613250      3.485060
  H      -3.018339     -1.816576      2.926216
  H       0.019860     -0.598439      3.367816
  H      -1.961900      0.866698     -3.452461
  H      -2.992561     -0.465488     -1.623188
  H      -2.117765      1.774233     -1.180019
  H       2.762740      0.561643     -3.702904
  H       4.495673     -0.912629     -2.752440
  H       2.631972     -1.854784     -4.050219
  H       0.403396     -2.106785     -0.444394
  H      -3.709489     -1.434302      0.636121
26
Coordinates from ORCA-job my_molecule_MEP_ALL E -1757.320903673301
  O      -1.711013     -0.010244      1.536170
  Si     -0.489652      0.608727      2.547810
  Si     -3.179130     -0.789476      1.855761
  C       0.906281      1.385284      1.515528
  C       2.007439      0.423504      1.023242
  H       1.233552      2.347790      1.997335
  H       2.928812      1.036171      0.767204
  H       2.360145     -0.383997      1.701049
  Si      0.966235     -0.712415     -0.651875
  O      -0.303800     -0.058731     -1.582722
  O       2.246622     -0.960625     -1.662576
  Si      3.039392     -0.800149     -3.106996
  Si     -1.844423      0.539717     -1.933776
  H       0.506876      1.596591      0.503719
  H      -4.225017      0.201437      2.296096
  H      -1.111910      1.630044      3.466894
  H      -3.009286     -1.834542      2.926671
  H       0.028763     -0.550403      3.367229
  H      -1.895361      0.867925     -3.405473
  H      -2.928816     -0.460754     -1.612121
  H      -2.122537      1.800661     -1.160475
  H       2.754408      0.541036     -3.725030
  H       4.498358     -0.935882     -2.788484
  H       2.607207     -1.879979     -4.058505
  H       0.417119     -2.121953     -0.438167
  H      -3.680265     -1.479737      0.621491
26
Coordinates from ORCA-job my_molecule_MEP_ALL E -1757.381892156518
  O      -1.532880     -0.174719      1.457765
  Si     -0.664823      0.777137      2.553324
  Si     -2.721165     -1.366408      1.520086
  C       0.801494      1.523917      1.637004
  C       1.733432      0.527354      0.917246
  H       1.365699      2.116213      2.393664
  H       2.633795      1.052020      0.527280
  H       2.123206     -0.242293      1.620618
  Si      1.017893     -0.366707     -0.584501
  O      -0.005648      0.656901     -1.424425
  O       2.327646     -0.715416     -1.567949
  Si      2.667699     -1.290380     -3.105041
  Si     -1.596749      1.071440     -1.732498
  H       0.399716      2.268724      0.915708
  H      -4.085738     -0.738836      1.438421
  H      -1.548544      1.866670      3.103007
  H      -2.612198     -2.138622      2.809312
  H      -0.208266     -0.098140      3.694891
  H      -1.676529      1.583417     -3.143133
  H      -2.513040     -0.115878     -1.595106
  H      -2.047276      2.159601     -0.796676
  H       2.443226     -0.219790     -4.137953
  H       4.109755     -1.708141     -3.131862
  H       1.801385     -2.477929     -3.439185
  H       0.308988     -1.656912     -0.287919
  H      -2.521077     -2.293224      0.357921
26
Coordinates from ORCA-job my_molecule_MEP_ALL E -1757.328557421627
  O      -1.845706      0.529372      1.580749
  Si     -0.340506      0.389943      2.325301
  Si     -3.470566      0.551388      1.998738
  C       0.909653      1.476454      1.453733
  C       2.144539      1.054214      1.112262
  H       0.641324      2.531734      1.255479
  H       2.890276      1.724486      0.649950
  H       2.472343      0.013198      1.284131
  Si      0.908505     -1.997946     -1.356688
  O      -0.432876     -1.131278     -0.878286
  O       1.860444     -1.113469     -2.400156
  Si      2.996650      0.104653     -2.566457
  Si     -1.848984     -0.505833     -1.539255
  H       1.677416     -2.327971     -0.112517
  H      -3.656991      1.235870      3.328365
  H      -0.505750      0.847380      3.755385
  H      -4.017915     -0.847344      2.090754
  H       0.137438     -1.035406      2.318523
  H      -1.978320     -0.963651     -2.970224
  H      -3.032398     -1.018605     -0.770411
  H      -1.815201      0.993246     -1.507057
  H       2.340649      1.455571     -2.484937
  H       4.047325      0.002807     -1.491416
  H       3.649507     -0.050373     -3.909342
  H       0.484582     -3.226418     -2.103731
  H      -4.215440      1.307978      0.937107
26
Coordinates from ORCA-job my_molecule_MEP_ALL E -1757.326331894377
  O      -1.844322      0.455326      1.602829
  Si     -0.371870      0.500388      2.434896
  Si     -3.457137      0.185430      2.001893
  C       0.926314      1.507914      1.526985
  C       2.139118      1.046000      1.158901
  H       0.698902      2.570230      1.314123
  H       2.870347      1.682175      0.626571
  H       2.470108      0.012121      1.365220
  Si      0.823714     -1.844370     -1.198662
  O      -0.408846     -0.757396     -0.962595
  O       1.933301     -1.214370     -2.257157
  Si      3.077243     -0.111231     -2.755838
  Si     -1.813241     -0.141766     -1.641001
  H       1.449264     -2.101237      0.139823
  H      -3.823736      0.946701      3.248219
  H      -0.654717      1.145495      3.768955
  H      -3.721803     -1.279318      2.232425
  H       0.147110     -0.894902      2.653804
  H      -1.843503     -0.381885     -3.130571
  H      -2.995057     -0.842583     -1.036372
  H      -1.865974      1.335278     -1.393864
  H       2.518803      1.287039     -2.801745
  H       4.250365     -0.147144     -1.813899
  H       3.509889     -0.513270     -4.134748
  H       0.312128     -3.106898     -1.823352
  H      -4.326399      0.662272      0.875159
26
Coordinates from ORCA-job my_molecule_MEP_ALL E -1757.322401737307
  O      -1.834181      0.346500      1.617517
  Si     -0.413091      0.578022      2.521304
  Si     -3.412654     -0.117194      1.998736
  C       0.944167      1.516000      1.608456
  C       2.149298      1.034834      1.246854
  H       0.748766      2.582101      1.376357
  H       2.869887      1.647776      0.670114
  H       2.496043      0.011996      1.485406
  Si      0.763755     -1.667206     -1.100752
  O      -0.370828     -0.462933     -1.118702
  O       2.021394     -1.237310     -2.081002
  Si      3.118595     -0.309482     -2.911767
  Si     -1.796804      0.150581     -1.733311
  H       1.248941     -1.818182      0.306555
  H      -3.973428      0.748013      3.093752
  H      -0.818755      1.380099      3.731088
  H      -3.466226     -1.556551      2.437958
  H       0.120663     -0.761352      2.950455
  H      -1.790733      0.121724     -3.240505
  H      -2.946251     -0.691014     -1.259965
  H      -1.923221      1.571744     -1.277595
  H       2.643912      1.109785     -3.087293
  H       4.407651     -0.321661     -2.140386
  H       3.313088     -0.926918     -4.265230
  H       0.205182     -2.954337     -1.628493
  H      -4.305170      0.024966      0.800446
26
Coordinates from ORCA-job my_molecule_MEP_ALL E -1757.317644021657
  O      -1.803423      0.235045      1.633813
  Si     -0.448078      0.621322      2.599709
  Si     -3.339199     -0.395432      1.979351
  C       0.989175      1.508839      1.736500
  C       2.193212      1.011764      1.391995
  H       0.840941      2.587034      1.522426
  H       2.927965      1.616644      0.821178
  H       2.532838     -0.017389      1.617641
  Si      0.725018     -1.424193     -1.049436
  O      -0.367491     -0.265687     -1.463745
  O       2.122036     -1.195161     -1.901591
  Si      3.121792     -0.520789     -3.045622
  Si     -1.835830      0.397371     -1.859977
  H       1.034230     -1.236614      0.388615
  H      -4.145810      0.556884      2.820944
  H      -0.964371      1.543111      3.674517
  H      -3.238772     -1.715992      2.696453
  H       0.064301     -0.659309      3.197064
  H      -1.864773      0.587474     -3.349655
  H      -2.945380     -0.530632     -1.453707
  H      -1.966806      1.725336     -1.176053
  H       2.726449      0.894937     -3.374512
  H       4.507318     -0.545094     -2.469680
  H       3.065345     -1.339792     -4.303544
  H       0.198533     -2.790668     -1.358916
  H      -4.129221     -0.649010      0.726232
26
Coordinates from ORCA-job my_molecule_MEP_ALL E -1757.307374199402
  O      -1.757828      0.154725      1.632271
  Si     -0.453218      0.617858      2.643247
  Si     -3.261575     -0.578238      1.943272
  C       1.066471      1.490529      1.885756
  C       2.243645      0.943911      1.525247
  H       0.995186      2.589990      1.759734
  H       3.036178      1.530210      1.013819
  H       2.493745     -0.128505      1.644937
  Si      0.691699     -1.118238     -1.026382
  O      -0.437314     -0.293339     -1.905051
  O       2.171979     -1.114590     -1.777702
  Si      3.094217     -0.675579     -3.096160
  Si     -1.902967      0.492809     -1.992191
  H       0.829215     -0.334140      0.213487
  H      -4.233965      0.387540      2.571317
  H      -1.035949      1.590391      3.633533
  H      -3.111413     -1.772494      2.850757
  H       0.030544     -0.641080      3.305777
  H      -2.008744      0.849829     -3.440421
  H      -2.998710     -0.444456     -1.565757
  H      -1.975761      1.740802     -1.149163
  H       2.757726      0.716476     -3.557659
  H       4.526476     -0.735789     -2.652623
  H       2.866339     -1.627197     -4.236690
  H       0.287280     -2.553472     -0.909697
  H      -3.913253     -1.087952      0.686344
26
Coordinates from ORCA-job my_molecule_MEP_ALL E -1757.294079026223
  O      -1.694790      0.062865      1.580199
  Si     -0.448840      0.590807      2.636074
  Si     -3.190300     -0.697023      1.891219
  C       1.129819      1.427400      1.959309
  C       2.247664      0.803774      1.543288
  H       1.149379      2.536178      1.944542
  H       3.100680      1.334265      1.070050
  H       2.364604     -0.299368      1.548197
  Si      0.689530     -0.760639     -0.944434
  O      -0.503579     -0.325051     -2.003793
  O       2.185234     -0.966010     -1.655269
  Si      3.048929     -0.750104     -3.069630
  Si     -1.948269      0.502769     -2.041856
  H       0.711894      0.462150     -0.087109
  H      -4.217351      0.284247      2.398472
  H      -1.082386      1.599225      3.552385
  H      -3.040799     -1.800473      2.907954
  H       0.017840     -0.642590      3.351918
  H      -2.028332      0.893620     -3.479393
  H      -3.032424     -0.445888     -1.615590
  H      -2.045706      1.741036     -1.175807
  H       2.764429      0.604283     -3.658173
  H       4.503132     -0.863648     -2.715127
  H       2.698747     -1.796016     -4.093271
  H       0.382645     -2.165797     -0.496516
  H      -3.761749     -1.330012      0.652358
26
Coordinates from ORCA-job my_molecule_MEP_ALL E -1757.247619310308
  O      -1.685795      0.012265      1.546593
  Si     -0.464785      0.583799      2.594366
  Si     -3.172565     -0.755847      1.864759
  C       1.094275      1.368772      1.821280
  C       2.204135      0.690889      1.447899
  H       1.190456      2.467436      1.939777
  H       3.078510      1.185081      0.971665
  H       2.325814     -0.408790      1.561387
  Si      0.749238     -0.587437     -0.806854
  O      -0.460085     -0.222352     -1.871254
  O       2.197055     -0.901172     -1.612412
  Si      3.027657     -0.774616     -3.063694
  Si     -1.931423      0.520474     -2.010889
  H       0.648002      0.889144      0.040489
  H      -4.208693      0.237985      2.324128
  H      -1.096325      1.615861      3.486846
  H      -3.015409     -1.814443      2.926193
  H       0.014499     -0.607127      3.373013
  H      -1.978368      0.876834     -3.461090
  H      -3.002521     -0.461455     -1.623579
  H      -2.111937      1.771477     -1.178953
  H       2.763046      0.560275     -3.702638
  H       4.490683     -0.913771     -2.748792
  H       2.628275     -1.853910     -4.037697
  H       0.420870     -2.045313     -0.415991
  H      -3.704608     -1.434059      0.635448
26
Coordinates from ORCA-job my_molecule_MEP_ALL E -1757.233278099141
  O      -1.695920      0.004962      1.542606
  Si     -0.465977      0.589650      2.573486
  Si     -3.176367     -0.757914      1.866738
  C       0.943008      1.391814      1.573944
  C       2.167313      0.564998      1.247090
  H       1.185427      2.429153      1.952008
  H       3.059273      1.149432      0.930484
  H       2.365438     -0.427355      1.640984
  Si      0.853781     -0.695511     -0.755203
  O      -0.402356     -0.173404     -1.769260
  O       2.216150     -0.932487     -1.653702
  Si      3.039218     -0.778171     -3.082706
  Si     -1.919745      0.521367     -1.995194
  H       0.620653      1.241077      0.388953
  H      -4.209911      0.238367      2.325896
  H      -1.093847      1.612831      3.485679
  H      -3.017542     -1.816239      2.926497
  H       0.019724     -0.599032      3.368664
  H      -1.965036      0.867396     -3.453765
  H      -2.993812     -0.465179     -1.624109
  H      -2.116871      1.773226     -1.180339
  H       2.763225      0.562576     -3.703050
  H       4.496008     -0.911795     -2.752676
  H       2.632421     -1.854265     -4.049897
  H       0.403813     -2.102040     -0.438660
  H      -3.708068     -1.433457      0.635532
26
Coordinates from ORCA-job my_molecule_MEP_ALL E -1757.321417233815
  O      -1.710521     -0.010490      1.536360
  Si     -0.489271      0.607667      2.548508
  Si     -3.178914     -0.788751      1.856261
  C       0.906104      1.382761      1.516456
  C       2.007695      0.422899      1.023888
  H       1.232044      2.347104      1.994097
  H       2.928374      1.034637      0.768644
  H       2.358698     -0.384843      1.700029
  Si      0.966765     -0.709906     -0.652346
  O      -0.304015     -0.059554     -1.584573
  O       2.246785     -0.959234     -1.663047
  Si      3.040307     -0.798701     -3.107105
  Si     -1.844849      0.538518     -1.934949
  H       0.504410      1.591864      0.501924
  H      -4.223833      0.202659      2.297551
  H      -1.111036      1.629146      3.467716
  H      -3.009025     -1.833887      2.926997
  H       0.028793     -0.551849      3.367509
  H      -1.897831      0.867154     -3.406611
  H      -2.930132     -0.461103     -1.612993
  H      -2.122149      1.799250     -1.161216
  H       2.755148      0.542643     -3.724464
  H       4.499221     -0.934104     -2.788399
  H       2.608868     -1.878593     -4.058891
  H       0.418673     -2.117604     -0.432799
  H      -3.680309     -1.477683      0.621452
26
Coordinates from ORCA-job my_molecule_MEP_ALL E -1757.381892156518
  O      -1.532850     -0.175050      1.457756
  Si     -0.664954      0.776898      2.553363
  Si     -2.720935     -1.366942      1.520019
  C       0.801237      1.523970      1.637080
  C       1.733343      0.527600      0.917272
  H       1.365342      2.116324      2.393770
  H       2.633618      1.052438      0.527332
  H       2.123247     -0.242016      1.620606
  Si      1.017955     -0.366506     -0.584519
  O      -0.005759      0.656971     -1.424392
  O       2.327767     -0.714946     -1.567985
  Si      2.667917     -1.289777     -3.105105
  Si     -1.596930      1.071257     -1.732444
  H       0.399333      2.268745      0.915821
  H      -4.085614     -0.739596      1.438385
  H      -1.548858      1.866255      3.103100
  H      -2.611837     -2.139202      2.809206
  H      -0.208249     -0.098359      3.694886
  H      -1.676796      1.583291     -3.143054
  H      -2.513021     -0.116222     -1.595112
  H      -2.047640      2.159296     -0.796569
  H       2.443263     -0.219173     -4.137964
  H       4.110043     -1.707293     -3.131947
  H       1.801803     -2.477454     -3.439308
  H       0.309267     -1.656846     -0.288001
  H      -2.520690     -2.293666      0.357807
26
Coordinates from ORCA-job my_molecule_MEP_ALL E -1757.328557421627
  O      -1.845706      0.529372      1.580749
  Si     -0.340506      0.389943      2.325301
  Si     -3.470566      0.551388      1.998738
  C       0.909653      1.476454      1.453733
  C       2.144539      1.054214      1.112262
  H       0.641324      2.531734      1.255479
  H       2.890276      1.724486      0.649950
  H       2.472343      0.013198      1.284131
  Si      0.908505     -1.997946     -1.356688
  O      -0.432876     -1.131278     -0.878286
  O       1.860444     -1.113469     -2.400156
  Si      2.996650      0.104653     -2.566457
  Si     -1.848984     -0.505833     -1.539255
  H       1.677416     -2.327971     -0.112517
  H      -3.656991      1.235870      3.328365
  H      -0.505750      0.847380      3.755385
  H      -4.017915     -0.847344      2.090754
  H       0.137438     -1.035406      2.318523
  H      -1.978320     -0.963651     -2.970224
  H      -3.032398     -1.018605     -0.770411
  H      -1.815201      0.993246     -1.507057
  H       2.340649      1.455571     -2.484937
  H       4.047325      0.002807     -1.491416
  H       3.649507     -0.050373     -3.909342
  H       0.484582     -3.226418     -2.103731
  H      -4.215440      1.307978      0.937107
26
Coordinates from ORCA-job my_molecule_MEP_ALL E -1757.326360836582
  O      -1.843602      0.456069      1.604479
  Si     -0.372601      0.501808      2.437524
  Si     -3.455318      0.181109      2.002765
  C       0.920450      1.509635      1.526939
  C       2.139693      1.044541      1.160482
  H       0.694900      2.569187      1.309290
  H       2.870788      1.683141      0.634129
  H       2.464612      0.010544      1.364724
  Si      0.822430     -1.842035     -1.198502
  O      -0.409186     -0.754107     -0.964337
  O       1.936634     -1.218759     -2.256128
  Si      3.080066     -0.115523     -2.759212
  Si     -1.814361     -0.136672     -1.641271
  H       1.446783     -2.095765      0.140904
  H      -3.824747      0.942858      3.247997
  H      -0.655999      1.148898      3.770660
  H      -3.714518     -1.284093      2.235705
  H       0.147083     -0.892903      2.657448
  H      -1.838857     -0.374463     -3.130944
  H      -2.998677     -0.836961     -1.040505
  H      -1.869969      1.339635     -1.390505
  H       2.520343      1.281904     -2.805135
  H       4.256541     -0.146420     -1.821215
  H       3.511461     -0.517851     -4.138448
  H       0.307936     -3.106111     -1.818789
  H      -4.321885      0.652334      0.871946
26
Coordinates from ORCA-job my_molecule_MEP_ALL E -1757.322579112130
  O      -1.830806      0.343317      1.620018
  Si     -0.414755      0.578863      2.527276
  Si     -3.406335     -0.128111      1.999993
  C       0.930428      1.520822      1.611070
  C       2.154999      1.029962      1.252489
  H       0.742556      2.578908      1.371697
  H       2.873136      1.650842      0.689678
  H       2.486013      0.008005      1.486938
  Si      0.762007     -1.658183     -1.099410
  O      -0.371597     -0.454574     -1.132480
  O       2.029315     -1.242067     -2.073311
  Si      3.122470     -0.319111     -2.918587
  Si     -1.801036      0.161312     -1.738764
  H       1.240626     -1.795838      0.311077
  H      -3.977448      0.740764      3.087132
  H      -0.822403      1.386948      3.732076
  H      -3.450818     -1.564197      2.451025
  H       0.119520     -0.758378      2.960134
  H      -1.790651      0.140868     -3.245486
  H      -2.951440     -0.681470     -1.269158
  H      -1.930840      1.578908     -1.272847
  H       2.646708      1.098956     -3.096598
  H       4.418515     -0.325031     -2.158970
  H       3.308612     -0.942413     -4.270783
  H       0.201167     -2.949111     -1.616754
  H      -4.287944      0.000008      0.792546
26
Coordinates from ORCA-job my_molecule_MEP_ALL E -1757.317910178386
  O      -1.795334      0.228068      1.634146
  Si     -0.448316      0.618297      2.605487
  Si     -3.327730     -0.407566      1.978799
  C       0.975594      1.514796      1.740668
  C       2.199256      1.003381      1.401295
  H       0.836448      2.583330      1.525193
  H       2.934835      1.617774      0.853501
  H       2.514547     -0.025811      1.615702
  Si      0.724494     -1.404595     -1.047035
  O      -0.369761     -0.262338     -1.499406
  O       2.128993     -1.193271     -1.889317
  Si      3.123751     -0.531305     -3.050588
  Si     -1.844823      0.405881     -1.872816
  H       1.023544     -1.190274      0.390935
  H      -4.145271      0.547022      2.807869
  H      -0.966197      1.545061      3.674897
  H      -3.221382     -1.719075      2.711941
  H       0.064085     -0.660016      3.206910
  H      -1.881873      0.608818     -3.360202
  H      -2.953659     -0.522493     -1.464165
  H      -1.974712      1.727343     -1.175811
  H       2.728368      0.882422     -3.384686
  H       4.515110     -0.552796     -2.489215
  H       3.056082     -1.359248     -4.302652
  H       0.202273     -2.779986     -1.328500
  H      -4.098326     -0.673422      0.717048
26
Coordinates from ORCA-job my_molecule_MEP_ALL E -1757.307744063932
  O      -1.746315      0.147562      1.628753
  Si     -0.452757      0.613148      2.647610
  Si     -3.248529     -0.584506      1.940862
  C       1.052647      1.498011      1.889065
  C       2.246722      0.933498      1.530316
  H       0.987973      2.585300      1.760627
  H       3.037994      1.527188      1.040315
  H       2.473132     -0.135244      1.639239
  Si      0.687266     -1.097340     -1.030066
  O      -0.434511     -0.299092     -1.927989
  O       2.171805     -1.102226     -1.768954
  Si      3.095558     -0.677277     -3.098460
  Si     -1.910170      0.493509     -2.005272
  H       0.822968     -0.315817      0.210665
  H      -4.222895      0.382881      2.562972
  H      -1.037077      1.587640      3.634193
  H      -3.097630     -1.770915      2.858750
  H       0.031324     -0.643475      3.314681
  H      -2.030408      0.860639     -3.449140
  H      -3.005558     -0.442259     -1.574590
  H      -1.975477      1.734786     -1.153075
  H       2.759460      0.712320     -3.563164
  H       4.529426     -0.739632     -2.661889
  H       2.859505     -1.637826     -4.229891
  H       0.290306     -2.535355     -0.873487
  H      -3.884760     -1.095517      0.677927
26
Coordinates from ORCA-job my_molecule_MEP_ALL E -1757.294626117831
  O      -1.683810      0.056067      1.576984
  Si     -0.449635      0.586387      2.641236
  Si     -3.177547     -0.702755      1.887835
  C       1.115285      1.429874      1.959227
  C       2.248558      0.788655      1.544126
  H       1.139484      2.527201      1.933328
  H       3.095403      1.324720      1.083461
  H       2.351589     -0.307303      1.551899
  Si      0.686460     -0.744731     -0.951276
  O      -0.498992     -0.324286     -2.020899
  O       2.186361     -0.946622     -1.654117
  Si      3.050122     -0.747990     -3.073031
  Si     -1.953294      0.502624     -2.053175
  H       0.709900      0.463038     -0.076724
  H      -4.205591      0.279738      2.389880
  H      -1.085245      1.598025      3.552117
  H      -3.028083     -1.798460      2.913047
  H       0.015826     -0.643257      3.364584
  H      -2.050618      0.901701     -3.487483
  H      -3.038835     -0.443763     -1.624719
  H      -2.041547      1.733823     -1.179137
  H       2.767572      0.603764     -3.665504
  H       4.504408     -0.865504     -2.722227
  H       2.691791     -1.802754     -4.083903
  H       0.386588     -2.131671     -0.450012
  H      -3.736151     -1.336523      0.644481
26
Coordinates from ORCA-job my_molecule_MEP_ALL E -1757.247578607957
  O      -1.682442      0.008302      1.546712
  Si     -0.468240      0.577970      2.595082
  Si     -3.167555     -0.757203      1.864720
  C       1.068188      1.372236      1.791290
  C       2.208615      0.670238      1.437667
  H       1.169177      2.453025      1.902436
  H       3.068549      1.173557      0.972850
  H       2.324080     -0.419219      1.579032
  Si      0.754561     -0.579525     -0.803798
  O      -0.451255     -0.212189     -1.877832
  O       2.202608     -0.888880     -1.616978
  Si      3.032346     -0.767915     -3.069536
  Si     -1.929050      0.518002     -2.017251
  H       0.640611      0.878709      0.091189
  H      -4.200918      0.238190      2.325988
  H      -1.092369      1.613640      3.489865
  H      -3.008329     -1.812880      2.928889
  H       0.015488     -0.608214      3.378739
  H      -1.997214      0.880690     -3.466914
  H      -3.006843     -0.459519     -1.630360
  H      -2.106559      1.765600     -1.180261
  H       2.766597      0.567290     -3.705593
  H       4.494759     -0.907941     -2.753969
  H       2.630910     -1.851430     -4.037462
  H       0.425852     -2.023101     -0.374449
  H      -3.691566     -1.429433      0.629945
26
Coordinates from ORCA-job my_molecule_MEP_ALL E -1757.233995590156
  O      -1.689951      0.002638      1.543763
  Si     -0.466070      0.585281      2.580486
  Si     -3.169468     -0.756681      1.867475
  C       0.926766      1.373637      1.552324
  C       2.158018      0.555539      1.241240
  H       1.160744      2.428694      1.914851
  H       3.067020      1.151901      0.944738
  H       2.367603     -0.441421      1.655999
  Si      0.860153     -0.681680     -0.764818
  O      -0.399446     -0.172253     -1.789357
  O       2.219804     -0.915880     -1.660546
  Si      3.043965     -0.770132     -3.087242
  Si     -1.924784      0.518624     -2.007232
  H       0.620958      1.188153      0.430141
  H      -4.201210      0.240573      2.328672
  H      -1.090891      1.609692      3.490783
  H      -3.010863     -1.813370      2.928923
  H       0.018686     -0.603589      3.375831
  H      -1.990838      0.873145     -3.464348
  H      -3.003837     -0.462558     -1.631741
  H      -2.109450      1.765076     -1.182950
  H       2.767244      0.570154     -3.704583
  H       4.498874     -0.905167     -2.754881
  H       2.635924     -1.850326     -4.047347
  H       0.407121     -2.063554     -0.390857
  H      -3.696072     -1.426498      0.630677
26
Coordinates from ORCA-job my_molecule_MEP_ALL E -1757.321472761256
  O      -1.706258     -0.012353      1.537984
  Si     -0.486275      0.598737      2.554680
  Si     -3.177004     -0.782576      1.860461
  C       0.903060      1.362882      1.520284
  C       2.008677      0.417932      1.028101
  H       1.219296      2.342040      1.966994
  H       2.926041      1.022946      0.780679
  H       2.347473     -0.393288      1.692799
  Si      0.971503     -0.689303     -0.656046
  O      -0.305766     -0.066396     -1.600386
  O       2.248194     -0.947626     -1.667165
  Si      3.047821     -0.786839     -3.108019
  Si     -1.848837      0.528703     -1.944965
  H       0.485214      1.551245      0.490642
  H      -4.213938      0.212998      2.309625
  H      -1.103714      1.621873      3.474522
  H      -3.006792     -1.828298      2.929838
  H       0.028997     -0.563763      3.370045
  H      -1.918625      0.860770     -3.416199
  H      -2.941093     -0.463977     -1.620249
  H      -2.118787      1.787519     -1.167425
  H       2.761293      0.555824     -3.719954
  H       4.506330     -0.919568     -2.787678
  H       2.622523     -1.867318     -4.061932
  H       0.431221     -2.081599     -0.387814
  H      -3.680553     -1.460566      0.621178
26
Coordinates from ORCA-job my_molecule_MEP_ALL E -1757.381892156518
  O      -1.532592     -0.177736      1.457706
  Si     -0.666005      0.774997      2.553667
  Si     -2.719022     -1.371301      1.519523
  C       0.799139      1.524455      1.637655
  C       1.732621      0.529655      0.917456
  H       1.362430      2.117301      2.394566
  H       2.632163      1.055891      0.527708
  H       2.123600     -0.239690      1.620491
  Si      1.018457     -0.364869     -0.584670
  O      -0.006686      0.657509     -1.424140
  O       2.328742     -0.711114     -1.568283
  Si      2.669674     -1.284883     -3.105628
  Si     -1.598435      1.069704     -1.732017
  H       0.396194      2.268949      0.916686
  H      -4.084572     -0.745818      1.438144
  H      -1.551415      1.862916      3.103832
  H      -2.608839     -2.143904      2.808414
  H      -0.208074     -0.100064      3.694851
  H      -1.679027      1.582169     -3.142430
  H      -2.512877     -0.119099     -1.595130
  H      -2.050645      2.156759     -0.795719
  H       2.443523     -0.214195     -4.138074
  H       4.112379     -1.700388     -3.132645
  H       1.805205     -2.473635     -3.440277
  H       0.311563     -1.656306     -0.288639
  H      -2.517503     -2.297302      0.356954
26
Coordinates from ORCA-job my_molecule_MEP_ALL E -1757.328557421627
  O      -1.845706      0.529372      1.580749
  Si     -0.340506      0.389943      2.325301
  Si     -3.470566      0.551388      1.998738
  C       0.909653      1.476454      1.453733
  C       2.144539      1.054214      1.112262
  H       0.641324      2.531734      1.255479
  H       2.890276      1.724486      0.649950
  H       2.472343      0.013198      1.284131
  Si      0.908505     -1.997946     -1.356688
  O      -0.432876     -1.131278     -0.878286
  O       1.860444     -1.113469     -2.400156
  Si      2.996650      0.104653     -2.566457
  Si     -1.848984     -0.505833     -1.539255
  H       1.677416     -2.327971     -0.112517
  H      -3.656991      1.235870      3.328365
  H      -0.505750      0.847380      3.755385
  H      -4.017915     -0.847344      2.090754
  H       0.137438     -1.035406      2.318523
  H      -1.978320     -0.963651     -2.970224
  H      -3.032398     -1.018605     -0.770411
  H      -1.815201      0.993246     -1.507057
  H       2.340649      1.455571     -2.484937
  H       4.047325      0.002807     -1.491416
  H       3.649507     -0.050373     -3.909342
  H       0.484582     -3.226418     -2.103731
  H      -4.215440      1.307978      0.937107
26
Coordinates from ORCA-job my_molecule_MEP_ALL E -1757.326466996562
  O      -1.843651      0.456092      1.604750
  Si     -0.372856      0.502145      2.438080
  Si     -3.454940      0.180112      2.002930
  C       0.924073      1.507580      1.525673
  C       2.134802      1.046507      1.162196
  H       0.693967      2.569829      1.308396
  H       2.871254      1.683418      0.635287
  H       2.463950      0.009561      1.364968
  Si      0.822208     -1.841877     -1.198266
  O      -0.409721     -0.752957     -0.964887
  O       1.937715     -1.219260     -2.256124
  Si      3.080358     -0.116650     -2.759814
  Si     -1.814230     -0.135700     -1.641285
  H       1.446230     -2.094584      0.141233
  H      -3.825066      0.942051      3.247850
  H      -0.656263      1.149605      3.771008
  H      -3.712992     -1.285173      2.236476
  H       0.147116     -0.892474      2.658320
  H      -1.838064     -0.372758     -3.131153
  H      -2.999285     -0.835859     -1.041418
  H      -1.870712      1.340595     -1.389794
  H       2.520626      1.280860     -2.805945
  H       4.257768     -0.146461     -1.822769
  H       3.511634     -0.518997     -4.139237
  H       0.307147     -3.105770     -1.817808
  H      -4.321068      0.650164      0.871331
26
Coordinates from ORCA-job my_molecule_MEP_ALL E -1757.322736358405
  O      -1.830569      0.342476      1.620383
  Si     -0.415182      0.579392      2.528267
  Si     -3.405241     -0.130279      2.000190
  C       0.941503      1.513647      1.608381
  C       2.141715      1.036089      1.257262
  H       0.740838      2.581220      1.370548
  H       2.874715      1.651516      0.692756
  H       2.485136      0.005266      1.487900
  Si      0.761705     -1.656841     -1.098845
  O      -0.372543     -0.452350     -1.135604
  O       2.031609     -1.242399     -2.072390
  Si      3.122609     -0.321424     -2.919537
  Si     -1.801266      0.163161     -1.739708
  H       1.238990     -1.791495      0.312061
  H      -3.978171      0.739375      3.085739
  H      -0.823110      1.388123      3.732539
  H      -3.447831     -1.565629      2.453587
  H       0.119524     -0.757878      2.962107
  H      -1.791009      0.144660     -3.246634
  H      -2.952362     -0.679711     -1.271022
  H      -1.932285      1.580286     -1.271993
  H       2.647164      1.096929     -3.098450
  H       4.420546     -0.325832     -2.162547
  H       3.307645     -0.945504     -4.271798
  H       0.200558     -2.947981     -1.614329
  H      -4.284687     -0.004817      0.791140
26
Coordinates from ORCA-job my_molecule_MEP_ALL E -1757.318299532273
  O      -1.794182      0.226658      1.634022
  Si     -0.448109      0.618465      2.606223
  Si     -3.325733     -0.409771      1.978671
  C       0.986469      1.505877      1.738985
  C       2.185395      1.010570      1.406294
  H       0.835041      2.586809      1.525062
  H       2.937247      1.618140      0.858444
  H       2.512574     -0.030203      1.616249
  Si      0.723548     -1.402152     -1.045463
  O      -0.371562     -0.260855     -1.506520
  O       2.132361     -1.191922     -1.888917
  Si      3.122952     -0.533825     -3.050377
  Si     -1.845252      0.406811     -1.874839
  H       1.021387     -1.182489      0.391013
  H      -4.144882      0.545334      2.805499
  H      -0.966629      1.545210      3.675341
  H      -3.218195     -1.719535      2.714679
  H       0.064337     -0.660120      3.208806
  H      -1.885401      0.612678     -3.362207
  H      -2.955050     -0.521142     -1.466173
  H      -1.976010      1.727649     -1.175825
  H       2.728648      0.880355     -3.386583
  H       4.516484     -0.554245     -2.492666
  H       3.054340     -1.362751     -4.302335
  H       0.203015     -2.777791     -1.322868
  H      -4.092792     -0.677755      0.715487
26
Coordinates from ORCA-job my_molecule_MEP_ALL E -1757.308633223806
  O      -1.744659      0.146139      1.627974
  Si     -0.451935      0.613157      2.648237
  Si     -3.245915     -0.585752      1.940514
  C       1.062370      1.487456      1.887206
  C       2.233331      0.941054      1.535080
  H       0.986589      2.589516      1.760417
  H       3.039739      1.526616      1.044098
  H       2.470537     -0.139743      1.638932
  Si      0.688584     -1.098139     -1.026639
  O      -0.442608     -0.294846     -1.935645
  O       2.174970     -1.099014     -1.770737
  Si      3.093605     -0.678664     -3.096276
  Si     -1.907183      0.491140     -2.006967
  H       0.821299     -0.311708      0.209764
  H      -4.220708      0.382088      2.561355
  H      -1.037577      1.587070      3.634739
  H      -3.094976     -1.770599      2.860186
  H       0.031671     -0.643755      3.316422
  H      -2.034426      0.862549     -3.450931
  H      -3.006706     -0.441977     -1.576375
  H      -1.975148      1.733738     -1.153776
  H       2.759784      0.711835     -3.564700
  H       4.529964     -0.740458     -2.663692
  H       2.858012     -1.639869     -4.228659
  H       0.290943     -2.530655     -0.867017
  H      -3.879557     -1.097181      0.676488
26
Coordinates from ORCA-job my_molecule_MEP_ALL E -1757.297081427627
  O      -1.682026      0.053966      1.575894
  Si     -0.449710      0.585890      2.641249
  Si     -3.175196     -0.704818      1.886992
  C       1.122671      1.417635      1.952063
  C       2.235458      0.792595      1.547316
  H       1.138243      2.528371      1.930016
  H       3.095699      1.320186      1.082331
  H       2.349552     -0.314008      1.553616
  Si      0.689155     -0.739030     -0.946398
  O      -0.501861     -0.319822     -2.022986
  O       2.187125     -0.942352     -1.654299
  Si      3.049066     -0.748088     -3.072710
  Si     -1.951009      0.501385     -2.054128
  H       0.707552      0.471394     -0.072063
  H      -4.203276      0.278347      2.387409
  H      -1.085853      1.597880      3.551418
  H      -3.025398     -1.798421      2.914174
  H       0.015680     -0.642809      3.367097
  H      -2.053685      0.902825     -3.488474
  H      -3.039241     -0.443630     -1.626514
  H      -2.041814      1.733473     -1.179522
  H       2.768147      0.603429     -3.668122
  H       4.504512     -0.866540     -2.724346
  H       2.689287     -1.804680     -4.081901
  H       0.387838     -2.123897     -0.441066
  H      -3.730918     -1.339278      0.642954
26
Coordinates from ORCA-job my_molecule_MEP_ALL E -1757.243397294287
  O      -1.682107      0.007549      1.546739
  Si     -0.467212      0.578396      2.595338
  Si     -3.166884     -0.757315      1.864964
  C       1.078733      1.352060      1.784623
  C       2.193165      0.679854      1.445347
  H       1.165605      2.459444      1.894769
  H       3.071706      1.173292      0.972653
  H       2.324534     -0.423522      1.581921
  Si      0.753455     -0.576120     -0.804899
  O      -0.449236     -0.212403     -1.880517
  O       2.202013     -0.886296     -1.616919
  Si      3.032846     -0.766445     -3.070179
  Si     -1.930184      0.518125     -2.018981
  H       0.638742      0.870961      0.095610
  H      -4.199297      0.238600      2.326606
  H      -1.091561      1.612990      3.490805
  H      -3.007060     -1.812450      2.929355
  H       0.015783     -0.608706      3.379813
  H      -2.001372      0.881434     -3.468106
  H      -3.007735     -0.459063     -1.631715
  H      -2.105369      1.764351     -1.180657
  H       2.767333      0.568762     -3.706468
  H       4.495444     -0.906782     -2.754894
  H       2.631333     -1.850739     -4.037422
  H       0.426807     -2.017625     -0.366952
  H      -3.689482     -1.428354      0.629166
26
Coordinates from ORCA-job my_molecule_MEP_ALL E -1757.238057630165
  O      -1.689626      0.001842      1.543876
  Si     -0.466066      0.584121      2.580164
  Si     -3.168936     -0.757303      1.867436
  C       0.925089      1.377788      1.560285
  C       2.164498      0.544639      1.235074
  H       1.155540      2.421525      1.905746
  H       3.059464      1.145743      0.945238
  H       2.366287     -0.436631      1.657755
  Si      0.863314     -0.677940     -0.763228
  O      -0.396938     -0.169592     -1.787886
  O       2.221310     -0.915305     -1.661934
  Si      3.045459     -0.769061     -3.089657
  Si     -1.922508      0.517797     -2.007620
  H       0.612165      1.192892      0.431205
  H      -4.199780      0.240436      2.328779
  H      -1.090524      1.609855      3.491537
  H      -3.009402     -1.813159      2.929541
  H       0.018970     -0.603119      3.377268
  H      -1.993972      0.873542     -3.464953
  H      -3.003840     -0.462325     -1.633004
  H      -2.108511      1.764262     -1.183190
  H       2.767877      0.571356     -3.705945
  H       4.499939     -0.904400     -2.756202
  H       2.636073     -1.850440     -4.047629
  H       0.407453     -2.060483     -0.382568
  H      -3.693335     -1.426040      0.629912
26
Coordinates from ORCA-job my_molecule_MEP_ALL E -1757.321356561181
  O      -1.705064     -0.012417      1.538367
  Si     -0.486498      0.596698      2.556876
  Si     -3.176306     -0.781643      1.861120
  C       0.896690      1.363335      1.508808
  C       2.005369      0.415994      1.023758
  H       1.216270      2.342592      1.961968
  H       2.928939      1.023950      0.782435
  H       2.348039     -0.398813      1.695756
  Si      0.973915     -0.686619     -0.655533
  O      -0.305220     -0.066897     -1.603493
  O       2.248867     -0.945344     -1.668600
  Si      3.048959     -0.784952     -3.108499
  Si     -1.850613      0.527686     -1.947238
  H       0.485221      1.541993      0.501165
  H      -4.212158      0.214625      2.311378
  H      -1.102554      1.620955      3.475650
  H      -3.006048     -1.827480      2.930533
  H       0.028909     -0.565476      3.371178
  H      -1.922750      0.859983     -3.417944
  H      -2.942608     -0.464423     -1.621564
  H      -2.117910      1.785630     -1.168390
  H       2.762299      0.557936     -3.719924
  H       4.507459     -0.917437     -2.787693
  H       2.624355     -1.865795     -4.062055
  H       0.432302     -2.075956     -0.379078
  H      -3.679861     -1.458127      0.621021
26
Coordinates from ORCA-job my_molecule_MEP_ALL E -1757.381892156518
  O      -1.532517     -0.178222      1.457725
  Si     -0.666152      0.774660      2.553731
  Si     -2.718641     -1.372094      1.519489
  C       0.798783      1.524553      1.637739
  C       1.732504      0.530037      0.917456
  H       1.361938      2.117494      2.394677
  H       2.631904      1.056529      0.527724
  H       2.123693     -0.239253      1.620432
  Si      1.018539     -0.364571     -0.584714
  O      -0.006883      0.657600     -1.424097
  O       2.328893     -0.710417     -1.568376
  Si      2.669940     -1.284000     -3.105764
  Si     -1.598743      1.069409     -1.731915
  H       0.395633      2.268990      0.916826
  H      -4.084353     -0.746954      1.438177
  H      -1.551829      1.862318      3.103984
  H      -2.608235     -2.144752      2.808326
  H      -0.207974     -0.100358      3.694848
  H      -1.679494      1.581944     -3.142293
  H      -2.512878     -0.119637     -1.595087
  H      -2.051212      2.156287     -0.795538
  H       2.443495     -0.213302     -4.138136
  H       4.112751     -1.699134     -3.132838
  H       1.805768     -2.472950     -3.440474
  H       0.311981     -1.656208     -0.288753
  H      -2.516909     -2.297968      0.356855
26
Coordinates from ORCA-job my_molecule_MEP_ALL E -1757.328557421627
  O      -1.845706      0.529372      1.580749
  Si     -0.340506      0.389943      2.325301
  Si     -3.470566      0.551388      1.998738
  C       0.909653      1.476454      1.453733
  C       2.144539      1.054214      1.112262
  H       0.641324      2.531734      1.255479
  H       2.890276      1.724486      0.649950
  H       2.472343      0.013198      1.284131
  Si      0.908505     -1.997946     -1.356688
  O      -0.432876     -1.131278     -0.878286
  O       1.860444     -1.113469     -2.400156
  Si      2.996650      0.104653     -2.566457
  Si     -1.848984     -0.505833     -1.539255
  H       1.677416     -2.327971     -0.112517
  H      -3.656991      1.235870      3.328365
  H      -0.505750      0.847380      3.755385
  H      -4.017915     -0.847344      2.090754
  H       0.137438     -1.035406      2.318523
  H      -1.978320     -0.963651     -2.970224
  H      -3.032398     -1.018605     -0.770411
  H      -1.815201      0.993246     -1.507057
  H       2.340649      1.455571     -2.484937
  H       4.047325      0.002807     -1.491416
  H       3.649507     -0.050373     -3.909342
  H       0.484582     -3.226418     -2.103731
  H      -4.215440      1.307978      0.937107
26
Coordinates from ORCA-job my_molecule_MEP_ALL E -1757.326489216280
  O      -1.843595      0.456138      1.604992
  Si     -0.372882      0.502479      2.438446
  Si     -3.454663      0.179197      2.003078
  C       0.923059      1.507972      1.525659
  C       2.135109      1.046269      1.162400
  H       0.693340      2.569600      1.307751
  H       2.871142      1.683352      0.636648
  H       2.463001      0.009515      1.365088
  Si      0.822010     -1.841518     -1.198131
  O      -0.409908     -0.752089     -0.965341
  O       1.938433     -1.219907     -2.255934
  Si      3.080767     -0.117537     -2.760430
  Si     -1.814277     -0.134734     -1.641389
  H       1.445729     -2.093509      0.141556
  H      -3.825363      0.941318      3.247706
  H      -0.656492      1.150279      3.771300
  H      -3.711606     -1.286158      2.237181
  H       0.147120     -0.892096      2.659136
  H      -1.837355     -0.371199     -3.131342
  H      -2.999814     -0.834863     -1.042256
  H      -1.871378      1.341453     -1.389153
  H       2.520886      1.279899     -2.806687
  H       4.258868     -0.146513     -1.824182
  H       3.511779     -0.520050     -4.139939
  H       0.306428     -3.105481     -1.816931
  H      -4.320336      0.648184      0.870777
26
Coordinates from ORCA-job my_molecule_MEP_ALL E -1757.322842777937
  O      -1.830137      0.341818      1.620710
  Si     -0.415003      0.579785      2.528864
  Si     -3.404347     -0.132272      2.000368
  C       0.939315      1.514273      1.608888
  C       2.143173      1.035326      1.257969
  H       0.739856      2.580695      1.370081
  H       2.874728      1.651377      0.696436
  H       2.483284      0.005289      1.488341
  Si      0.761495     -1.655335     -1.098502
  O      -0.372892     -0.450656     -1.138312
  O       2.033160     -1.242985     -2.071152
  Si      3.123035     -0.323263     -2.920610
  Si     -1.801792      0.164976     -1.740733
  H       1.237504     -1.787542      0.312969
  H      -3.978829      0.738123      3.084459
  H      -0.823697      1.389261      3.732868
  H      -3.445130     -1.566923      2.455905
  H       0.119441     -0.757424      2.963949
  H      -1.791358      0.148100     -3.247661
  H      -2.953159     -0.678118     -1.272727
  H      -1.933580      1.581511     -1.271236
  H       2.647583      1.095056     -3.100125
  H       4.422346     -0.326580     -2.165788
  H       3.306755     -0.948313     -4.272683
  H       0.200013     -2.946981     -1.612139
  H      -4.281765     -0.009197      0.789863
26
Coordinates from ORCA-job my_molecule_MEP_ALL E -1757.318477992249
  O      -1.792923      0.225524      1.633928
  Si     -0.447516      0.618323      2.606706
  Si     -3.324022     -0.411770      1.978538
  C       0.983993      1.506179      1.740068
  C       2.186766      1.009595      1.407480
  H       0.834231      2.586706      1.525593
  H       2.937984      1.617825      0.863729
  H       2.509644     -0.031094      1.616238
  Si      0.723183     -1.399393     -1.044774
  O      -0.372254     -0.260174     -1.512597
  O       2.133982     -1.191198     -1.887404
  Si      3.122856     -0.535663     -3.050829
  Si     -1.846236      0.407948     -1.876873
  H       1.019454     -1.175513      0.391167
  H      -4.144530      0.543836      2.803359
  H      -0.966944      1.545403      3.675644
  H      -3.215353     -1.719946      2.717105
  H       0.064463     -0.660196      3.210549
  H      -1.888568      0.616142     -3.363957
  H      -2.956240     -0.519916     -1.468001
  H      -1.977138      1.727884     -1.175859
  H       2.728927      0.878455     -3.388257
  H       4.517666     -0.555546     -2.495759
  H       3.052789     -1.365862     -4.302001
  H       0.203641     -2.775917     -1.317860
  H      -4.087855     -0.681631      0.714067
26
Coordinates from ORCA-job my_molecule_MEP_ALL E -1757.309051372997
  O      -1.742750      0.144965      1.627324
  Si     -0.451171      0.612726      2.648662
  Si     -3.243756     -0.587009      1.940051
  C       1.059762      1.487408      1.888375
  C       2.234369      0.939616      1.535720
  H       0.985645      2.589456      1.760792
  H       3.039848      1.525395      1.048322
  H       2.467266     -0.140738      1.638460
  Si      0.688481     -1.096299     -1.025998
  O      -0.444779     -0.294261     -1.940384
  O       2.175825     -1.096499     -1.770353
  Si      3.092994     -0.679369     -3.095812
  Si     -1.907179      0.490541     -2.008861
  H       0.819691     -0.307343      0.208846
  H      -4.218761      0.381282      2.559705
  H      -1.038003      1.586631      3.635041
  H      -3.092568     -1.770366      2.861468
  H       0.031852     -0.643986      3.318073
  H      -2.038031      0.864269     -3.452431
  H      -3.007655     -0.441677     -1.578084
  H      -1.974872      1.732662     -1.154527
  H       2.760157      0.711165     -3.566036
  H       4.530332     -0.741281     -2.665288
  H       2.856610     -1.641750     -4.227283
  H       0.291484     -2.526660     -0.860922
  H      -3.874789     -1.098877      0.675140
26
Coordinates from ORCA-job my_molecule_MEP_ALL E -1757.297197670236
  O      -1.680320      0.052315      1.575048
  Si     -0.449571      0.585153      2.641185
  Si     -3.173267     -0.706563      1.886201
  C       1.119511      1.415978      1.949947
  C       2.235571      0.788767      1.546227
  H       1.136872      2.526435      1.926993
  H       3.094369      1.316021      1.082565
  H       2.347310     -0.316916      1.555221
  Si      0.690162     -0.733732     -0.943644
  O      -0.501644     -0.317503     -2.023950
  O       2.187314     -0.938657     -1.653888
  Si      3.048607     -0.747963     -3.072882
  Si     -1.950533      0.501076     -2.055257
  H       0.705580      0.477276     -0.068751
  H      -4.201291      0.277180      2.385292
  H      -1.086357      1.597806      3.550832
  H      -3.023094     -1.798384      2.915087
  H       0.015425     -0.642452      3.369361
  H      -2.056529      0.903773     -3.489394
  H      -3.039590     -0.443519     -1.628185
  H      -2.041853      1.732914     -1.180001
  H       2.768762      0.603180     -3.670244
  H       4.504643     -0.867266     -2.726011
  H       2.687379     -1.806197     -4.080096
  H       0.388933     -2.117186     -0.433226
  H      -3.726391     -1.341538      0.641567
26
Coordinates from ORCA-job my_molecule_MEP_ALL E -1757.245595183565
  O      -1.681584      0.007094      1.546894
  Si     -0.466390      0.577729      2.595352
  Si     -3.166300     -0.757519      1.865103
  C       1.075776      1.350788      1.785461
  C       2.196845      0.676969      1.447112
  H       1.161644      2.458158      1.887023
  H       3.071015      1.171855      0.974207
  H       2.324076     -0.423382      1.583946
  Si      0.752748     -0.573141     -0.805380
  O      -0.448452     -0.212184     -1.883416
  O       2.201701     -0.883869     -1.616924
  Si      3.033246     -0.765119     -3.070494
  Si     -1.930446      0.517841     -2.020480
  H       0.636520      0.863750      0.097630
  H      -4.197939      0.238864      2.327031
  H      -1.090824      1.612629      3.491460
  H      -3.005940     -1.812137      2.929737
  H       0.015876     -0.608998      3.380890
  H      -2.004987      0.882032     -3.469224
  H      -3.008437     -0.458774     -1.632975
  H      -2.104322      1.763254     -1.181031
  H       2.768065      0.570082     -3.707248
  H       4.496121     -0.905689     -2.755633
  H       2.631810     -1.850120     -4.037282
  H       0.427745     -2.012587     -0.360154
  H      -3.687567     -1.427524      0.628394
26
Coordinates from ORCA-job my_molecule_MEP_ALL E -1757.240423420473
  O      -1.689248      0.001104      1.543865
  Si     -0.466197      0.583476      2.580525
  Si     -3.168408     -0.757881      1.867411
  C       0.926237      1.374733      1.564006
  C       2.163191      0.540950      1.231257
  H       1.151818      2.419053      1.898890
  H       3.055429      1.141678      0.945128
  H       2.365800     -0.435845      1.660309
  Si      0.865800     -0.674322     -0.761904
  O      -0.394656     -0.167658     -1.787153
  O       2.222336     -0.914444     -1.662862
  Si      3.046620     -0.768046     -3.091343
  Si     -1.921042      0.517271     -2.008147
  H       0.605317      1.194760      0.432029
  H      -4.198564      0.240247      2.328809
  H      -1.090293      1.609770      3.492145
  H      -3.008128     -1.813041      2.930011
  H       0.019131     -0.602852      3.378517
  H      -1.996732      0.873872     -3.465503
  H      -3.003739     -0.462139     -1.634204
  H      -2.107628      1.763438     -1.183462
  H       2.768524      0.572519     -3.707128
  H       4.500958     -0.903590     -2.757310
  H       2.636337     -1.850422     -4.047816
  H       0.408061     -2.056901     -0.375166
  H      -3.690924     -1.425731      0.629094
26
Coordinates from ORCA-job my_molecule_MEP_ALL E -1757.322041155844
  O      -1.704254     -0.012628      1.538721
  Si     -0.486394      0.595221      2.558197
  Si     -3.175697     -0.780879      1.861621
  C       0.893591      1.363060      1.505562
  C       2.004465      0.413509      1.021026
  H       1.212950      2.342283      1.956657
  H       2.930335      1.024176      0.784391
  H       2.347686     -0.401883      1.697114
  Si      0.975766     -0.683988     -0.655385
  O      -0.304811     -0.067397     -1.606257
  O       2.249424     -0.943359     -1.669655
  Si      3.050141     -0.783177     -3.109012
  Si     -1.851675      0.526564     -1.949195
  H       0.482831      1.534893      0.505069
  H      -4.210600      0.215983      2.312835
  H      -1.101643      1.620169      3.476730
  H      -3.005382     -1.826791      2.931095
  H       0.028866     -0.566991      3.372266
  H      -1.926467      0.859273     -3.419626
  H      -2.943980     -0.464914     -1.622806
  H      -2.117168      1.783953     -1.169290
  H       2.763273      0.559850     -3.719902
  H       4.508542     -0.915468     -2.787626
  H       2.626078     -1.864441     -4.062114
  H       0.433299     -2.070979     -0.371243
  H      -3.679176     -1.456039      0.620827
26
Coordinates from ORCA-job my_molecule_MEP_ALL E -1757.381892156518
  O      -1.532474     -0.178669      1.457715
  Si     -0.666362      0.774406      2.553754
  Si     -2.718285     -1.372854      1.519439
  C       0.798379      1.524711      1.637788
  C       1.732363      0.530463      0.917477
  H       1.361377      2.117776      2.394746
  H       2.631626      1.057202      0.527763
  H       2.123752     -0.238747      1.620430
  Si      1.018636     -0.364286     -0.584723
  O      -0.007051      0.657643     -1.424077
  O       2.329083     -0.709758     -1.568392
  Si      2.670284     -1.283204     -3.105798
  Si     -1.599019      1.069044     -1.731886
  H       0.395036      2.269065      0.916898
  H      -4.084161     -0.748069      1.438144
  H      -1.552324      1.861814      3.104038
  H      -2.607680     -2.145523      2.808253
  H      -0.207957     -0.100527      3.694845
  H      -1.679901      1.581602     -3.142248
  H      -2.512843     -0.120245     -1.595097
  H      -2.051775      2.155775     -0.795476
  H       2.443561     -0.212533     -4.138137
  H       4.113203     -1.697959     -3.132881
  H       1.806424     -2.472370     -3.440546
  H       0.312415     -1.656117     -0.288804
  H      -2.516308     -2.298639      0.356777
26
Coordinates from ORCA-job my_molecule_MEP_ALL E -1757.328557421627
  O      -1.845706      0.529372      1.580749
  Si     -0.340506      0.389943      2.325301
  Si     -3.470566      0.551388      1.998738
  C       0.909653      1.476454      1.453733
  C       2.144539      1.054214      1.112262
  H       0.641324      2.531734      1.255479
  H       2.890276      1.724486      0.649950
  H       2.472343      0.013198      1.284131
  Si      0.908505     -1.997946     -1.356688
  O      -0.432876     -1.131278     -0.878286
  O       1.860444     -1.113469     -2.400156
  Si      2.996650      0.104653     -2.566457
  Si     -1.848984     -0.505833     -1.539255
  H       1.677416     -2.327971     -0.112517
  H      -3.656991      1.235870      3.328365
  H      -0.505750      0.847380      3.755385
  H      -4.017915     -0.847344      2.090754
  H       0.137438     -1.035406      2.318523
  H      -1.978320     -0.963651     -2.970224
  H      -3.032398     -1.018605     -0.770411
  H      -1.815201      0.993246     -1.507057
  H       2.340649      1.455571     -2.484937
  H       4.047325      0.002807     -1.491416
  H       3.649507     -0.050373     -3.909342
  H       0.484582     -3.226418     -2.103731
  H      -4.215440      1.307978      0.937107
26
Coordinates from ORCA-job my_molecule_MEP_ALL E -1757.326519679571
  O      -1.843097      0.456442      1.606676
  Si     -0.373298      0.504695      2.440956
  Si     -3.452774      0.173042      2.004079
  C       0.918523      1.509346      1.524968
  C       2.134164      1.045483      1.164778
  H       0.688964      2.568585      1.303313
  H       2.871034      1.683357      0.645394
  H       2.456801      0.008726      1.366038
  Si      0.820594     -1.838601     -1.197358
  O      -0.410463     -0.746689     -0.968310
  O       1.942774     -1.224670     -2.254348
  Si      3.083818     -0.123247     -2.764745
  Si     -1.814989     -0.128024     -1.642275
  H       1.442378     -2.086273      0.143774
  H      -3.827388      0.936393      3.246747
  H      -0.657953      1.154753      3.773226
  H      -3.702251     -1.292828      2.241953
  H       0.147164     -0.889518      2.664614
  H      -1.832601     -0.360679     -3.132630
  H      -3.003347     -0.828133     -1.047943
  H      -1.875860      1.347211     -1.384840
  H       2.522613      1.273383     -2.811671
  H       4.266283     -0.146890     -1.833715
  H       3.512776     -0.527147     -4.144656
  H       0.301561     -3.103593     -1.811059
  H      -4.315427      0.634876      0.867030
26
Coordinates from ORCA-job my_molecule_MEP_ALL E -1757.323009227609
  O      -1.826875      0.337324      1.623045
  Si     -0.414758      0.582029      2.533431
  Si     -3.398025     -0.145844      2.001582
  C       0.931032      1.516003      1.610375
  C       2.144552      1.032569      1.265744
  H       0.733102      2.577764      1.367009
  H       2.876704      1.651705      0.720065
  H       2.471521      0.003874      1.491798
  Si      0.759919     -1.644310     -1.096374
  O      -0.374070     -0.439849     -1.156696
  O       2.042826     -1.247459     -2.061947
  Si      3.126507     -0.335302     -2.928357
  Si     -1.806084      0.177712     -1.748095
  H       1.227316     -1.760475      0.319226
  H      -3.983393      0.729601      3.075646
  H      -0.827563      1.396819      3.734856
  H      -3.426761     -1.575814      2.471752
  H       0.118893     -0.754098      2.976463
  H      -1.793925      0.171693     -3.254728
  H      -2.958458     -0.667242     -1.284475
  H      -1.942355      1.589841     -1.266128
  H       2.650458      1.082182     -3.111584
  H       4.434503     -0.331823     -2.187917
  H       3.300576     -0.967576     -4.278626
  H       0.196369     -2.940166     -1.597151
  H      -4.262009     -0.039159      0.781088
26
Coordinates from ORCA-job my_molecule_MEP_ALL E -1757.318684473509
  O      -1.783998      0.217856      1.633379
  Si     -0.445036      0.616607      2.610831
  Si     -3.312090     -0.425296      1.977515
  C       0.974682      1.507324      1.744858
  C       2.187398      1.004646      1.418799
  H       0.828793      2.585354      1.529797
  H       2.944775      1.616847      0.898324
  H       2.490476     -0.038073      1.616505
  Si      0.721425     -1.379217     -1.041596
  O      -0.375024     -0.257045     -1.553594
  O       2.142325     -1.187070     -1.874802
  Si      3.123357     -0.547395     -3.055098
  Si     -1.854177      0.416367     -1.891202
  H       1.006085     -1.127571      0.392195
  H      -4.142195      0.533642      2.788588
  H      -0.969010      1.546470      3.677471
  H      -3.196074     -1.722796      2.733581
  H       0.065300     -0.660449      3.222333
  H      -1.910242      0.639855     -3.375810
  H      -2.964155     -0.511525     -1.480609
  H      -1.984583      1.729370     -1.176152
  H       2.730925      0.865338     -3.399705
  H       4.525504     -0.564600     -2.516820
  H       3.042076     -1.387166     -4.299507
  H       0.207838     -2.763214     -1.283603
  H      -4.054376     -0.708257      0.704320
26
Coordinates from ORCA-job my_molecule_MEP_ALL E -1757.309283974946
  O      -1.729100      0.136850      1.622931
  Si     -0.448038      0.609082      2.652364
  Si     -3.228932     -0.595710      1.936509
  C       1.049908      1.486965      1.893453
  C       2.232578      0.931021      1.543418
  H       0.979529      2.587061      1.764170
  H       3.042578      1.517685      1.075669
  H       2.445471     -0.148843      1.635431
  Si      0.685198     -1.077259     -1.026143
  O      -0.449181     -0.296957     -1.968228
  O       2.177385     -1.080122     -1.763315
  Si      3.091243     -0.683025     -3.095944
  Si     -1.912584      0.489647     -2.022622
  H       0.808264     -0.275043      0.201731
  H      -4.205578      0.375556      2.547800
  H      -1.040971      1.583489      3.636589
  H      -3.076098     -1.768941      2.870241
  H       0.032989     -0.645330      3.329372
  H      -2.062456      0.875941     -3.462360
  H      -3.014018     -0.439634     -1.589975
  H      -1.973051      1.725207     -1.159864
  H       2.762914      0.705861     -3.575289
  H       4.532440     -0.747347     -2.676161
  H       2.846589     -1.654991     -4.217186
  H       0.295047     -2.499909     -0.818418
  H      -3.842124     -1.111253      0.665828
26
Coordinates from ORCA-job my_molecule_MEP_ALL E -1757.297344506266
  O      -1.668775      0.042028      1.569867
  Si     -0.449736      0.580101      2.642141
  Si     -3.160371     -0.717256      1.881135
  C       1.105335      1.405399      1.937358
  C       2.230780      0.767108      1.544367
  H       1.126438      2.513436      1.905843
  H       3.087362      1.291291      1.084967
  H       2.332941     -0.335093      1.565723
  Si      0.693010     -0.699496     -0.930177
  O      -0.495103     -0.306553     -2.030151
  O       2.187177     -0.914330     -1.649927
  Si      3.046471     -0.746575     -3.074858
  Si     -1.950775      0.500450     -2.063819
  H       0.693109      0.508689     -0.051011
  H      -4.188116      0.270072      2.371908
  H      -1.089511      1.597140      3.547463
  H      -3.007920     -1.797858      2.921061
  H       0.013668     -0.640233      3.384418
  H      -2.076498      0.909961     -3.495865
  H      -3.042201     -0.442816     -1.639490
  H      -2.041053      1.728271     -1.183597
  H       2.773139      0.601697     -3.683875
  H       4.505536     -0.871453     -2.736492
  H       2.675723     -1.815681     -4.068228
  H       0.396065     -2.072834     -0.381176
  H      -3.696693     -1.355463      0.632418
26
Coordinates from ORCA-job my_molecule_MEP_ALL E -1757.247257717545
  O      -1.677900      0.004084      1.547800
  Si     -0.463606      0.572510      2.596868
  Si     -3.162088     -0.758722      1.865988
  C       1.065557      1.340628      1.782680
  C       2.206067      0.660724      1.455143
  H       1.134223      2.445935      1.835144
  H       3.066548      1.161268      0.982207
  H       2.323291     -0.425660      1.600889
  Si      0.752453     -0.557530     -0.806177
  O      -0.442331     -0.208509     -1.899807
  O       2.200807     -0.868433     -1.618580
  Si      3.036321     -0.756537     -3.072990
  Si     -1.930692      0.515337     -2.029992
  H       0.618548      0.828313      0.117976
  H      -4.189042      0.240651      2.329613
  H      -1.085911      1.610190      3.495343
  H      -2.998496     -1.810091      2.932427
  H       0.016479     -0.610325      3.388206
  H      -2.028700      0.885447     -3.476638
  H      -3.012479     -0.457245     -1.641595
  H      -2.097301      1.755932     -1.183790
  H       2.773201      0.578656     -3.712685
  H       4.500857     -0.898457     -2.760535
  H       2.635219     -1.846285     -4.036285
  H       0.433569     -1.979683     -0.314323
  H      -3.674593     -1.422197      0.623114
26
Coordinates from ORCA-job my_molecule_MEP_ALL E -1757.241727799907
  O      -1.685801     -0.003227      1.543846
  Si     -0.467086      0.579235      2.585178
  Si     -3.164451     -0.761368      1.867455
  C       0.931666      1.347973      1.581448
  C       2.148144      0.521900      1.213218
  H       1.129153      2.410165      1.855131
  H       3.036026      1.119586      0.943969
  H       2.362758     -0.434833      1.677176
  Si      0.880659     -0.649735     -0.753628
  O      -0.380979     -0.156592     -1.786402
  O       2.227801     -0.907031     -1.667965
  Si      3.053069     -0.761421     -3.100122
  Si     -1.913436      0.514289     -2.012717
  H       0.563710      1.193700      0.435781
  H      -4.190449      0.239367      2.329040
  H      -1.088647      1.609038      3.495827
  H      -2.999685     -1.812023      2.933156
  H       0.019769     -0.601572      3.387112
  H      -2.015593      0.875963     -3.469455
  H      -3.003001     -0.460931     -1.642425
  H      -2.101339      1.757578     -1.185548
  H       2.773161      0.580169     -3.715106
  H       4.507744     -0.898104     -2.764579
  H       2.638370     -1.850137     -4.048639
  H       0.413410     -2.028381     -0.325118
  H      -3.674974     -1.423605      0.623366
26
Coordinates from ORCA-job my_molecule_MEP_ALL E -1757.322205929907
  O      -1.699424     -0.014365      1.540998
  Si     -0.485036      0.586834      2.565721
  Si     -3.171894     -0.776108      1.864904
  C       0.881618      1.353635      1.501120
  C       2.000758      0.396641      1.005114
  H       1.190516      2.340108      1.919790
  H       2.934264      1.021518      0.796725
  H       2.342813     -0.416917      1.702829
  Si      0.988033     -0.665610     -0.654137
  O      -0.300915     -0.069957     -1.622488
  O       2.253254     -0.930887     -1.676099
  Si      3.058518     -0.771584     -3.112940
  Si     -1.856139      0.518408     -1.961346
  H       0.457612      1.494431      0.515404
  H      -4.200225      0.224888      2.322080
  H      -1.095899      1.615363      3.483889
  H      -3.000805     -1.822009      2.934906
  H       0.028750     -0.576252      3.379825
  H      -1.950916      0.854156     -3.430804
  H      -2.952467     -0.468505     -1.631223
  H      -2.112288      1.772937     -1.175443
  H       2.769980      0.572223     -3.720297
  H       4.516097     -0.902668     -2.787423
  H       2.637534     -1.856139     -4.062472
  H       0.440323     -2.037638     -0.318059
  H      -3.674062     -1.442504      0.619424
26
Coordinates from ORCA-job my_molecule_MEP_ALL E -1757.381892156518
  O      -1.532234     -0.181519      1.457619
  Si     -0.667932      0.773109      2.553737
  Si     -2.715862     -1.377877      1.519237
  C       0.795490      1.526123      1.637881
  C       1.731337      0.533607      0.917595
  H       1.357356      2.120196      2.394891
  H       2.629659      1.062004      0.527951
  H       2.124093     -0.234907      1.620549
  Si      1.019337     -0.362403     -0.584674
  O      -0.008171      0.657673     -1.424058
  O       2.330476     -0.705446     -1.568276
  Si      2.672819     -1.278221     -3.105678
  Si     -1.600873      1.066168     -1.731949
  H       0.390827      2.269761      0.916989
  H      -4.082877     -0.755591      1.437879
  H      -1.555919      1.858878      3.104002
  H      -2.603919     -2.150383      2.808034
  H      -0.207993     -0.101019      3.694829
  H      -1.682609      1.578621     -3.142300
  H      -2.512527     -0.124798     -1.595250
  H      -2.055675      2.152042     -0.795533
  H       2.444197     -0.207934     -4.137999
  H       4.116499     -1.690333     -3.132688
  H       1.811156     -2.468959     -3.440514
  H       0.315465     -1.655537     -0.288836
  H      -2.512121     -2.303257      0.356559
26
Coordinates from ORCA-job my_molecule_MEP_ALL E -1757.328557421627
  O      -1.845706      0.529372      1.580749
  Si     -0.340506      0.389943      2.325301
  Si     -3.470566      0.551388      1.998738
  C       0.909653      1.476454      1.453733
  C       2.144539      1.054214      1.112262
  H       0.641324      2.531734      1.255479
  H       2.890276      1.724486      0.649950
  H       2.472343      0.013198      1.284131
  Si      0.908505     -1.997946     -1.356688
  O      -0.432876     -1.131278     -0.878286
  O       1.860444     -1.113469     -2.400156
  Si      2.996650      0.104653     -2.566457
  Si     -1.848984     -0.505833     -1.539255
  H       1.677416     -2.327971     -0.112517
  H      -3.656991      1.235870      3.328365
  H      -0.505750      0.847380      3.755385
  H      -4.017915     -0.847344      2.090754
  H       0.137438     -1.035406      2.318523
  H      -1.978320     -0.963651     -2.970224
  H      -3.032398     -1.018605     -0.770411
  H      -1.815201      0.993246     -1.507057
  H       2.340649      1.455571     -2.484937
  H       4.047325      0.002807     -1.491416
  H       3.649507     -0.050373     -3.909342
  H       0.484582     -3.226418     -2.103731
  H      -4.215440      1.307978      0.937107
26
Coordinates from ORCA-job my_molecule_MEP_ALL E -1757.326627048538
  O      -1.842625      0.456414      1.607380
  Si     -0.373914      0.505378      2.442072
  Si     -3.451989      0.170420      2.004434
  C       0.917299      1.509298      1.524782
  C       2.132338      1.045320      1.166376
  H       0.687387      2.568877      1.301850
  H       2.871903      1.683924      0.647841
  H       2.454836      0.007912      1.367070
  Si      0.819937     -1.836464     -1.197007
  O      -0.409399     -0.745021     -0.969555
  O       1.943710     -1.226995     -2.253052
  Si      3.085346     -0.125196     -2.766763
  Si     -1.815833     -0.124916     -1.643108
  H       1.440962     -2.083295      0.144911
  H      -3.828457      0.934437      3.246177
  H      -0.658364      1.156497      3.773613
  H      -3.698538     -1.295673      2.244044
  H       0.147194     -0.888279      2.666944
  H      -1.831080     -0.356130     -3.133395
  H      -3.004355     -0.825598     -1.050387
  H      -1.877438      1.349523     -1.383157
  H       2.523250      1.270769     -2.813849
  H       4.269077     -0.147431     -1.837564
  H       3.512845     -0.530345     -4.146486
  H       0.299721     -3.102793     -1.808782
  H      -4.313812      0.629365      0.865610
26
Coordinates from ORCA-job my_molecule_MEP_ALL E -1757.323426625833
  O      -1.824805      0.335567      1.624158
  Si     -0.416489      0.581729      2.536277
  Si     -3.394825     -0.151051      2.001946
  C       0.928642      1.517341      1.610687
  C       2.140873      1.032089      1.270563
  H       0.731060      2.576867      1.366620
  H       2.880405      1.653811      0.726468
  H       2.468422      0.000732      1.494528
  Si      0.759076     -1.638900     -1.095474
  O      -0.372596     -0.436667     -1.164148
  O       2.045237     -1.249584     -2.057190
  Si      3.128601     -0.339187     -2.931892
  Si     -1.808764      0.183158     -1.751756
  H       1.223123     -1.749610      0.321721
  H      -3.985354      0.726367      3.071896
  H      -0.828460      1.399122      3.734630
  H      -3.419831     -1.579370      2.478013
  H       0.118770     -0.751989      2.981230
  H      -1.795846      0.181230     -3.257813
  H      -2.960007     -0.663200     -1.289399
  H      -1.945514      1.592964     -1.264405
  H       2.651505      1.077003     -3.116204
  H       4.438696     -0.334405     -2.196521
  H       3.297732     -0.975469     -4.280614
  H       0.195373     -2.937435     -1.591010
  H      -4.255024     -0.051111      0.777689
26
Coordinates from ORCA-job my_molecule_MEP_ALL E -1757.319317623708
  O      -1.779927      0.215145      1.633322
  Si     -0.447289      0.614296      2.614239
  Si     -3.306559     -0.430104      1.976710
  C       0.975185      1.511780      1.744660
  C       2.183334      1.002610      1.425297
  H       0.827391      2.582590      1.533060
  H       2.949058      1.617548      0.909039
  H       2.484637     -0.041429      1.617806
  Si      0.721473     -1.369389     -1.043038
  O      -0.373285     -0.258598     -1.568443
  O       2.141535     -1.186064     -1.866910
  Si      3.124915     -0.550582     -3.057882
  Si     -1.858511      0.420109     -1.897444
  H       1.000228     -1.108767      0.391963
  H      -4.141286      0.529895      2.782526
  H      -0.969488      1.546179      3.677427
  H      -3.189044     -1.723896      2.739546
  H       0.065740     -0.659519      3.226587
  H      -1.918954      0.648755     -3.380030
  H      -2.966472     -0.508713     -1.485743
  H      -1.986496      1.729419     -1.176507
  H       2.731789      0.860139     -3.404295
  H       4.527624     -0.568540     -2.524530
  H       3.037512     -1.395571     -4.297853
  H       0.209320     -2.758345     -1.270293
  H      -4.042430     -0.718948      0.700787
26
Coordinates from ORCA-job my_molecule_MEP_ALL E -1757.310203392532
  O      -1.723112      0.133025      1.621115
  Si     -0.450869      0.606233      2.655608
  Si     -3.222090     -0.599700      1.934135
  C       1.052209      1.492211      1.892888
  C       2.226893      0.925684      1.548680
  H       0.978852      2.580651      1.767550
  H       3.045555      1.513393      1.083195
  H       2.437922     -0.154566      1.635358
  Si      0.679684     -1.055711     -1.031599
  O      -0.436478     -0.307779     -1.971419
  O       2.171650     -1.074337     -1.753650
  Si      3.093846     -0.682647     -3.100667
  Si     -1.920978      0.493085     -2.029649
  H       0.801765     -0.253733      0.195300
  H      -4.200794      0.372431      2.541059
  H      -1.042443      1.582104      3.635585
  H      -3.069405     -1.768990      2.873751
  H       0.033265     -0.644870      3.334144
  H      -2.071145      0.879770     -3.465433
  H      -3.016431     -0.439603     -1.595088
  H      -1.972658      1.722552     -1.162168
  H       2.764465      0.702035     -3.580150
  H       4.532104     -0.751090     -2.680444
  H       2.840869     -1.661767     -4.211434
  H       0.296505     -2.489133     -0.798811
  H      -3.829183     -1.119247      0.662143
26
Coordinates from ORCA-job my_molecule_MEP_ALL E -1757.298003876685
  O      -1.664955      0.040938      1.569628
  Si     -0.451634      0.578439      2.646874
  Si     -3.155726     -0.717779      1.880352
  C       1.110179      1.409594      1.944431
  C       2.227499      0.767176      1.554420
  H       1.119891      2.509214      1.896619
  H       3.088109      1.291460      1.089850
  H       2.329680     -0.335706      1.568761
  Si      0.685516     -0.696787     -0.939086
  O      -0.487257     -0.313006     -2.035312
  O       2.184045     -0.907177     -1.646860
  Si      3.046813     -0.744690     -3.075689
  Si     -1.956171      0.501671     -2.069354
  H       0.691182      0.496607     -0.060087
  H      -4.184107      0.269794      2.370016
  H      -1.089942      1.596375      3.548241
  H      -3.003583     -1.796958      2.922550
  H       0.013018     -0.640154      3.389218
  H      -2.085711      0.911371     -3.498932
  H      -3.043995     -0.443128     -1.643358
  H      -2.037539      1.724352     -1.185687
  H       2.775244      0.601745     -3.686971
  H       4.505487     -0.870687     -2.738013
  H       2.675064     -1.816574     -4.065140
  H       0.397782     -2.059495     -0.366573
  H      -3.688888     -1.356595      0.630104
26
Coordinates from ORCA-job my_molecule_MEP_ALL E -1757.253358633374
  O      -1.676021      0.003127      1.547885
  Si     -0.469003      0.569394      2.601331
  Si     -3.159746     -0.759208      1.865979
  C       1.070607      1.339317      1.771206
  C       2.187287      0.656412      1.439196
  H       1.124987      2.434108      1.818939
  H       3.060404      1.152268      0.977298
  H       2.327802     -0.434934      1.615666
  Si      0.761805     -0.561003     -0.799492
  O      -0.435374     -0.201626     -1.893617
  O       2.204815     -0.866695     -1.623176
  Si      3.038753     -0.754598     -3.076005
  Si     -1.925780      0.512911     -2.030831
  H       0.599919      0.855761      0.134534
  H      -4.186873      0.240569      2.329489
  H      -1.084830      1.609851      3.495007
  H      -2.995850     -1.810011      2.933960
  H       0.016874     -0.608930      3.391585
  H      -2.034066      0.884214     -3.477873
  H      -3.010685     -0.458466     -1.644635
  H      -2.095292      1.753808     -1.185267
  H       2.775334      0.580370     -3.715741
  H       4.502912     -0.896306     -2.762564
  H       2.636598     -1.846180     -4.035868
  H       0.434889     -1.972037     -0.298371
  H      -3.669467     -1.422114      0.621365
26
Coordinates from ORCA-job my_molecule_MEP_ALL E -1757.247317655111
  O      -1.681655     -0.002518      1.544846
  Si     -0.468181      0.576618      2.593443
  Si     -3.161132     -0.760967      1.868071
  C       0.917655      1.341630      1.560965
  C       2.139116      0.525538      1.230830
  H       1.126588      2.419668      1.844350
  H       3.051161      1.127792      0.944364
  H       2.361952     -0.444427      1.680128
  Si      0.879534     -0.644270     -0.753088
  O      -0.382562     -0.159059     -1.800496
  O       2.224112     -0.898103     -1.665779
  Si      3.050235     -0.759475     -3.094415
  Si     -1.918561      0.515211     -2.017774
  H       0.566726      1.146506      0.437040
  H      -4.187965      0.240307      2.329576
  H      -1.087397      1.608307      3.495854
  H      -2.997270     -1.811305      2.934201
  H       0.018681     -0.603633      3.391046
  H      -2.023029      0.876496     -3.471743
  H      -3.002781     -0.460948     -1.645388
  H      -2.098167      1.754868     -1.186790
  H       2.775594      0.581957     -3.717629
  H       4.508936     -0.895699     -2.766576
  H       2.639893     -1.848506     -4.047219
  H       0.419360     -2.003230     -0.308790
  H      -3.670841     -1.422759      0.620972
26
Coordinates from ORCA-job my_molecule_MEP_ALL E -1757.323321452059
  O      -1.698481     -0.015543      1.541475
  Si     -0.483577      0.586949      2.567652
  Si     -3.171511     -0.776331      1.866002
  C       0.895344      1.327884      1.524897
  C       2.003869      0.394833      1.010767
  H       1.185576      2.343303      1.907204
  H       2.920009      1.007998      0.796831
  H       2.334897     -0.407160      1.694091
  Si      0.990737     -0.658995     -0.652976
  O      -0.295678     -0.067802     -1.620077
  O       2.254662     -0.929176     -1.676520
  Si      3.061756     -0.768650     -3.115069
  Si     -1.849653      0.514533     -1.961872
  H       0.428162      1.497772      0.489960
  H      -4.197057      0.226468      2.323439
  H      -1.095105      1.614766      3.485796
  H      -2.998704     -1.820592      2.936149
  H       0.028932     -0.576470      3.383044
  H      -1.957070      0.851756     -3.433233
  H      -2.952058     -0.470313     -1.634124
  H      -2.111012      1.770235     -1.177508
  H       2.772531      0.575255     -3.722796
  H       4.519396     -0.899445     -2.788874
  H       2.640478     -1.855464     -4.063028
  H       0.444069     -2.025587     -0.299791
  H      -3.670510     -1.440225      0.618562
26
Coordinates from ORCA-job my_molecule_MEP_ALL E -1757.381892156518
  O      -1.532193     -0.182251      1.457571
  Si     -0.668758      0.773484      2.553408
  Si     -2.714842     -1.379560      1.519533
  C       0.794112      1.527370      1.637388
  C       1.730829      0.535363      0.917531
  H       1.355434      2.122178      2.394224
  H       2.628745      1.064357      0.527762
  H       2.124164     -0.232574      1.620792
  Si      1.019679     -0.361777     -0.584467
  O      -0.008605      0.657150     -1.424296
  O       2.331172     -0.704097     -1.567847
  Si      2.674101     -1.277146     -3.105017
  Si     -1.601620      1.064225     -1.732454
  H       0.388892      2.270413      0.916197
  H      -4.082361     -0.758427      1.437849
  H      -1.557678      1.858722      3.103213
  H      -2.602359     -2.151507      2.808619
  H      -0.208186     -0.099853      3.694850
  H      -1.683672      1.576100     -3.142996
  H      -2.512305     -0.127442     -1.595391
  H      -2.057384      2.150063     -0.796465
  H       2.444676     -0.207422     -4.137741
  H       4.118122     -1.688081     -3.131770
  H       1.813443     -2.468714     -3.439485
  H       0.316847     -1.655381     -0.288213
  H      -2.510253     -2.305193      0.357206
26
Coordinates from ORCA-job my_molecule_MEP_ALL E -1757.328557421627
  O      -1.845706      0.529372      1.580749
  Si     -0.340506      0.389943      2.325301
  Si     -3.470566      0.551388      1.998738
  C       0.909653      1.476454      1.453733
  C       2.144539      1.054214      1.112262
  H       0.641324      2.531734      1.255479
  H       2.890276      1.724486      0.649950
  H       2.472343      0.013198      1.284131
  Si      0.908505     -1.997946     -1.356688
  O      -0.432876     -1.131278     -0.878286
  O       1.860444     -1.113469     -2.400156
  Si      2.996650      0.104653     -2.566457
  Si     -1.848984     -0.505833     -1.539255
  H       1.677416     -2.327971     -0.112517
  H      -3.656991      1.235870      3.328365
  H      -0.505750      0.847380      3.755385
  H      -4.017915     -0.847344      2.090754
  H       0.137438     -1.035406      2.318523
  H      -1.978320     -0.963651     -2.970224
  H      -3.032398     -1.018605     -0.770411
  H      -1.815201      0.993246     -1.507057
  H       2.340649      1.455571     -2.484937
  H       4.047325      0.002807     -1.491416
  H       3.649507     -0.050373     -3.909342
  H       0.484582     -3.226418     -2.103731
  H      -4.215440      1.307978      0.937107
26
Coordinates from ORCA-job my_molecule_MEP_ALL E -1757.326645058280
  O      -1.842502      0.456370      1.607932
  Si     -0.374227      0.505981      2.443070
  Si     -3.451240      0.168108      2.004749
  C       0.915421      1.509865      1.524757
  C       2.132188      1.045242      1.167162
  H       0.686026      2.568826      1.300623
  H       2.872034      1.683906      0.650437
  H       2.452965      0.007406      1.368005
  Si      0.819541     -1.835554     -1.196424
  O      -0.409822     -0.742627     -0.970881
  O       1.945475     -1.228342     -2.252564
  Si      3.086168     -0.127418     -2.768271
  Si     -1.815795     -0.122542     -1.643533
  H       1.439706     -2.080651      0.145874
  H      -3.829402      0.932705      3.245675
  H      -0.658708      1.158053      3.774028
  H      -3.695227     -1.298189      2.245901
  H       0.147238     -0.887217      2.669007
  H      -1.829773     -0.352096     -3.134126
  H      -3.005289     -0.823395     -1.052525
  H      -1.878834      1.351636     -1.381645
  H       2.523776      1.268493     -2.815785
  H       4.271579     -0.147905     -1.840967
  H       3.512932     -0.533189     -4.148179
  H       0.298146     -3.101960     -1.806693
  H      -4.312374      0.624494      0.864374
26
Coordinates from ORCA-job my_molecule_MEP_ALL E -1757.323495687300
  O      -1.823559      0.333833      1.624907
  Si     -0.417015      0.582043      2.538422
  Si     -3.392177     -0.155736      2.002212
  C       0.925261      1.517506      1.611864
  C       2.141235      1.031987      1.273181
  H       0.729050      2.577034      1.366070
  H       2.881789      1.654096      0.733508
  H       2.465117     -0.000973      1.496872
  Si      0.758588     -1.635372     -1.094195
  O      -0.373496     -0.432275     -1.171365
  O       2.048995     -1.250507     -2.054204
  Si      3.129369     -0.343518     -2.934276
  Si     -1.809805      0.187396     -1.754547
  H       1.219374     -1.739982      0.323973
  H      -3.986995      0.723483      3.068551
  H      -0.829348      1.401246      3.734770
  H      -3.413604     -1.582473      2.483585
  H       0.118798     -0.750342      2.985550
  H      -1.797687      0.189730     -3.260673
  H      -2.961456     -0.659710     -1.293747
  H      -1.948342      1.595811     -1.262852
  H       2.652365      1.072563     -3.120356
  H       4.442537     -0.336681     -2.204139
  H       3.295185     -0.982503     -4.282468
  H       0.194530     -2.934927     -1.585470
  H      -4.248707     -0.061731      0.774827
26
Coordinates from ORCA-job my_molecule_MEP_ALL E -1757.319367162081
  O      -1.776880      0.212455      1.632944
  Si     -0.446971      0.613659      2.616210
  Si     -3.301889     -0.434684      1.975990
  C       0.972294      1.511324      1.747256
  C       2.184297      1.002338      1.428854
  H       0.826089      2.583716      1.535302
  H       2.951248      1.616461      0.919769
  H       2.479104     -0.044520      1.619196
  Si      0.720257     -1.362857     -1.041556
  O      -0.375716     -0.257211     -1.583312
  O       2.145517     -1.183388     -1.863778
  Si      3.124099     -0.554841     -3.058248
  Si     -1.860091      0.422280     -1.902414
  H       0.994696     -1.091542      0.391231
  H      -4.140302      0.526419      2.776966
  H      -0.970196      1.546071      3.677821
  H      -3.182595     -1.724832      2.744932
  H       0.066306     -0.658998      3.230640
  H      -1.926944      0.656861     -3.384015
  H      -2.968664     -0.506292     -1.490336
  H      -1.988142      1.729561     -1.176716
  H       2.732461      0.855676     -3.408634
  H       4.529642     -0.572179     -2.531434
  H       3.033176     -1.403261     -4.296377
  H       0.210761     -2.753487     -1.258105
  H      -4.031555     -0.728729      0.697813
26
Coordinates from ORCA-job my_molecule_MEP_ALL E -1757.309830720438
  O      -1.718977      0.129883      1.619412
  Si     -0.449975      0.605297      2.657391
  Si     -3.216322     -0.602979      1.932595
  C       1.049448      1.490213      1.895609
  C       2.227619      0.923546      1.550954
  H       0.977781      2.581147      1.769023
  H       3.046096      1.508754      1.090931
  H       2.431393     -0.159021      1.635837
  Si      0.679914     -1.048647     -1.027532
  O      -0.444228     -0.305476     -1.982799
  O       2.173936     -1.068020     -1.753022
  Si      3.091652     -0.684296     -3.098906
  Si     -1.919101      0.490782     -2.034281
  H       0.796317     -0.238260      0.190766
  H      -4.196423      0.370176      2.536039
  H      -1.043787      1.580953      3.635785
  H      -3.063662     -1.768809      2.876574
  H       0.033774     -0.644815      3.338314
  H      -2.078773      0.883251     -3.468654
  H      -3.018585     -0.439600     -1.599338
  H      -1.971827      1.720575     -1.163793
  H       2.765601      0.700040     -3.584564
  H       4.532329     -0.753788     -2.684142
  H       2.836357     -1.667080     -4.207651
  H       0.297778     -2.478701     -0.783756
  H      -3.818336     -1.125123      0.659207
26
Coordinates from ORCA-job my_molecule_MEP_ALL E -1757.299435614681
  O      -1.661934      0.038909      1.568816
  Si     -0.451136      0.577344      2.649017
  Si     -3.151879     -0.719615      1.879484
  C       1.107325      1.407323      1.947246
  C       2.229674      0.762991      1.556446
  H       1.115061      2.506872      1.886704
  H       3.086150      1.285893      1.092073
  H       2.326709     -0.339187      1.573472
  Si      0.686045     -0.693741     -0.939049
  O      -0.489925     -0.310650     -2.041125
  O       2.183926     -0.899897     -1.646615
  Si      3.045382     -0.743514     -3.074701
  Si     -1.954637      0.500155     -2.072433
  H       0.686580      0.499338     -0.060313
  H      -4.180376      0.268770      2.367502
  H      -1.090315      1.595910      3.548292
  H      -2.999496     -1.796593      2.923995
  H       0.012687     -0.639949      3.393670
  H      -2.092484      0.912611     -3.501218
  H      -3.044829     -0.443461     -1.646717
  H      -2.035857      1.722402     -1.186955
  H       2.776909      0.601763     -3.690829
  H       4.505196     -0.870685     -2.740413
  H       2.672952     -1.817842     -4.062168
  H       0.399728     -2.046074     -0.352144
  H      -3.681456     -1.359073      0.627961
26
Coordinates from ORCA-job my_molecule_MEP_ALL E -1757.246630956810
  O      -1.674484      0.002183      1.548336
  Si     -0.468987      0.567973      2.603553
  Si     -3.157909     -0.759797      1.866065
  C       1.059909      1.335195      1.768473
  C       2.190015      0.645945      1.434119
  H       1.118870      2.432259      1.804520
  H       3.056690      1.145895      0.973559
  H       2.328482     -0.438349      1.624436
  Si      0.763380     -0.555749     -0.796227
  O      -0.430353     -0.198686     -1.892487
  O       2.206022     -0.864175     -1.624217
  Si      3.040244     -0.752453     -3.078217
  Si     -1.923347      0.511949     -2.032029
  H       0.586789      0.862600      0.139861
  H      -4.184592      0.240583      2.329760
  H      -1.083905      1.609723      3.495631
  H      -2.993403     -1.809866      2.935118
  H       0.017260     -0.609127      3.395071
  H      -2.039132      0.883821     -3.478684
  H      -3.009252     -0.459014     -1.647154
  H      -2.093323      1.752110     -1.186198
  H       2.777090      0.582152     -3.718577
  H       4.504393     -0.894299     -2.764857
  H       2.637404     -1.845569     -4.035767
  H       0.437175     -1.963568     -0.284024
  H      -3.665035     -1.421737      0.619937
26
Coordinates from ORCA-job my_molecule_MEP_ALL E -1757.243166334606
  O      -1.679391     -0.002974      1.546089
  Si     -0.468969      0.574771      2.597351
  Si     -3.158405     -0.760798      1.868085
  C       0.906539      1.345445      1.552580
  C       2.145339      0.524835      1.232579
  H       1.120723      2.416365      1.831124
  H       3.050632      1.125331      0.946641
  H       2.361019     -0.449685      1.684571
  Si      0.880390     -0.638651     -0.752853
  O      -0.381288     -0.158964     -1.806675
  O       2.223216     -0.892323     -1.665592
  Si      3.049832     -0.757161     -3.093562
  Si     -1.919242      0.515006     -2.020738
  H       0.562539      1.123472      0.440686
  H      -4.185522      0.240710      2.330122
  H      -1.086544      1.608089      3.496958
  H      -2.994949     -1.811004      2.935244
  H       0.018512     -0.605458      3.394958
  H      -2.029352      0.877178     -3.473799
  H      -3.002735     -0.461292     -1.647716
  H      -2.095784      1.753234     -1.187425
  H       2.777491      0.583253     -3.719734
  H       4.509380     -0.893522     -2.768626
  H       2.640842     -1.846856     -4.046073
  H       0.422526     -1.987065     -0.293671
  H      -3.666800     -1.421936      0.619474
26
Coordinates from ORCA-job my_molecule_MEP_ALL E -1757.324295025189
  O      -1.696123     -0.015769      1.542462
  Si     -0.483568      0.583532      2.572856
  Si     -3.170142     -0.775911      1.866979
  C       0.890953      1.322416      1.514491
  C       2.002530      0.395291      1.015640
  H       1.180371      2.344057      1.895569
  H       2.918943      1.004371      0.799073
  H       2.332682     -0.408639      1.692152
  Si      0.992074     -0.653837     -0.653029
  O      -0.293690     -0.067634     -1.623782
  O       2.255021     -0.926086     -1.677549
  Si      3.063104     -0.765841     -3.115467
  Si     -1.848679      0.512747     -1.964319
  H       0.419593      1.482816      0.495396
  H      -4.194054      0.228148      2.325113
  H      -1.093734      1.613742      3.487627
  H      -2.996823     -1.819635      2.937185
  H       0.028447     -0.578219      3.386307
  H      -1.963776      0.850884     -3.435342
  H      -2.952209     -0.470910     -1.636852
  H      -2.109128      1.767579     -1.179176
  H       2.774724      0.578419     -3.724980
  H       4.521680     -0.896331     -2.790201
  H       2.642689     -1.853894     -4.063484
  H       0.446642     -2.013529     -0.284359
  H      -3.667529     -1.437766      0.617688
26
Coordinates from ORCA-job my_molecule_MEP_ALL E -1757.381892156518
  O      -1.532074     -0.183123      1.457587
  Si     -0.669185      0.773129      2.553403
  Si     -2.714026     -1.381118      1.519575
  C       0.793239      1.527854      1.637361
  C       1.730526      0.536382      0.917509
  H       1.354221      2.122999      2.394184
  H       2.628131      1.065893      0.527725
  H       2.124314     -0.231317      1.620777
  Si      1.019884     -0.361192     -0.584471
  O      -0.009000      0.657126     -1.424305
  O       2.331568     -0.702763     -1.567858
  Si      2.674816     -1.275633     -3.105023
  Si     -1.602254      1.063270     -1.732454
  H       0.387580      2.270652      0.916163
  H      -4.081908     -0.760782      1.437895
  H      -1.558732      1.857858      3.103202
  H      -2.601083     -2.152983      2.808670
  H      -0.208095     -0.099925      3.694854
  H      -1.684617      1.575078     -3.143003
  H      -2.512245     -0.128924     -1.595368
  H      -2.058642      2.148856     -0.796476
  H       2.444760     -0.206056     -4.137760
  H       4.119076     -1.685729     -3.131783
  H       1.814848     -2.467705     -3.439468
  H       0.317808     -1.655201     -0.288193
  H      -2.508909     -2.306648      0.357259
26
Coordinates from ORCA-job my_molecule_MEP_ALL E -1757.328557421627
  O      -1.845706      0.529372      1.580749
  Si     -0.340506      0.389943      2.325301
  Si     -3.470566      0.551388      1.998738
  C       0.909653      1.476454      1.453733
  C       2.144539      1.054214      1.112262
  H       0.641324      2.531734      1.255479
  H       2.890276      1.724486      0.649950
  H       2.472343      0.013198      1.284131
  Si      0.908505     -1.997946     -1.356688
  O      -0.432876     -1.131278     -0.878286
  O       1.860444     -1.113469     -2.400156
  Si      2.996650      0.104653     -2.566457
  Si     -1.848984     -0.505833     -1.539255
  H       1.677416     -2.327971     -0.112517
  H      -3.656991      1.235870      3.328365
  H      -0.505750      0.847380      3.755385
  H      -4.017915     -0.847344      2.090754
  H       0.137438     -1.035406      2.318523
  H      -1.978320     -0.963651     -2.970224
  H      -3.032398     -1.018605     -0.770411
  H      -1.815201      0.993246     -1.507057
  H       2.340649      1.455571     -2.484937
  H       4.047325      0.002807     -1.491416
  H       3.649507     -0.050373     -3.909342
  H       0.484582     -3.226418     -2.103731
  H      -4.215440      1.307978      0.937107
26
Coordinates from ORCA-job my_molecule_MEP_ALL E -1757.326665679778
  O      -1.842119      0.456201      1.609562
  Si     -0.375205      0.507841      2.445993
  Si     -3.449165      0.161209      2.005677
  C       0.912063      1.510602      1.524091
  C       2.129529      1.045554      1.170266
  H       0.681887      2.568971      1.296989
  H       2.872616      1.683948      0.657978
  H       2.447481      0.005961      1.370847
  Si      0.818309     -1.832438     -1.194926
  O      -0.410484     -0.735856     -0.974760
  O       1.950213     -1.232726     -2.250748
  Si      3.088872     -0.133752     -2.772886
  Si     -1.815995     -0.115298     -1.644993
  H       1.435987     -2.072787      0.148834
  H      -3.832232      0.927556      3.244145
  H      -0.659729      1.162680      3.775338
  H      -3.685374     -1.305662      2.251443
  H       0.147407     -0.884124      2.675149
  H      -1.825945     -0.340046     -3.136321
  H      -3.007995     -0.816870     -1.058913
  H      -1.882949      1.357898     -1.377164
  H       2.525342      1.261688     -2.821562
  H       4.278972     -0.149366     -1.851096
  H       3.513150     -0.541689     -4.153204
  H       0.293487     -3.099482     -1.800483
  H      -4.308122      0.609985      0.860746
26
Coordinates from ORCA-job my_molecule_MEP_ALL E -1757.323572457299
  O      -1.819858      0.328640      1.627038
  Si     -0.418523      0.583067      2.544578
  Si     -3.384757     -0.169684      2.002947
  C       0.919734      1.516648      1.614027
  C       2.138221      1.032255      1.282488
  H       0.722931      2.577648      1.364594
  H       2.886048      1.654986      0.754178
  H       2.455309     -0.005354      1.503781
  Si      0.757114     -1.624048     -1.090975
  O      -0.374990     -0.420104     -1.192563
  O       2.059182     -1.253732     -2.044578
  Si      3.132014     -0.356025     -2.941706
  Si     -1.813506      0.200307     -1.763173
  H       1.208250     -1.711474      0.330815
  H      -3.991774      0.714950      3.058558
  H      -0.832075      1.407579      3.735514
  H      -3.395164     -1.591571      2.500045
  H       0.119004     -0.745670      2.998405
  H      -1.803291      0.214978     -3.269196
  H      -2.965666     -0.649399     -1.306700
  H      -1.956675      1.604190     -1.258329
  H       2.654910      1.059397     -3.132638
  H       4.453888     -0.343483     -2.226667
  H       3.287600     -1.003344     -4.287866
  H       0.192038     -2.927589     -1.569059
  H      -4.229963     -0.093169      0.766480
26
Coordinates from ORCA-job my_molecule_MEP_ALL E -1757.319511849578
  O      -1.767578      0.204640      1.631734
  Si     -0.445985      0.611772      2.621842
  Si     -3.288673     -0.448218      1.973834
  C       0.967910      1.509185      1.753614
  C       2.182047      1.001350      1.441445
  H       0.822080      2.586708      1.542038
  H       2.958765      1.614066      0.950526
  H       2.462962     -0.053042      1.623379
  Si      0.717114     -1.342635     -1.038643
  O      -0.380607     -0.254627     -1.626292
  O       2.154744     -1.176304     -1.852477
  Si      3.122753     -0.566673     -3.060710
  Si     -1.866151      0.429427     -1.917419
  H       0.978359     -1.041194      0.389378
  H      -4.137213      0.516291      2.760550
  H      -0.972437      1.545738      3.679311
  H      -3.163645     -1.727494      2.760597
  H       0.068052     -0.657632      3.242622
  H      -1.950487      0.680736     -3.395735
  H      -2.974953     -0.499163     -1.503957
  H      -1.992796      1.729902     -1.177411
  H       2.734509      0.842566     -3.421298
  H       4.535540     -0.582892     -2.551611
  H       3.020440     -1.425725     -4.291822
  H       0.214829     -2.739469     -1.222569
  H      -3.999576     -0.757316      0.689076
26
Coordinates from ORCA-job my_molecule_MEP_ALL E -1757.310380486429
  O      -1.705782      0.121162      1.614636
  Si     -0.447921      0.602306      2.662640
  Si     -3.200358     -0.612744      1.927958
  C       1.045432      1.484141      1.902375
  C       2.224284      0.916941      1.560167
  H       0.974270      2.581894      1.773256
  H       3.049254      1.496491      1.112820
  H       2.412610     -0.171216      1.637679
  Si      0.677710     -1.026771     -1.021504
  O      -0.457736     -0.304308     -2.012403
  O       2.177260     -1.050099     -1.748248
  Si      3.086869     -0.688582     -3.096266
  Si     -1.918775      0.486883     -2.048020
  H       0.780358     -0.192824      0.178562
  H      -4.183482      0.363696      2.521297
  H      -1.047913      1.577617      3.636745
  H      -3.046837     -1.768184      2.884680
  H       0.035245     -0.644706      3.350621
  H      -2.101213      0.893505     -3.478073
  H      -3.024480     -0.439297     -1.612102
  H      -1.968985      1.714227     -1.168964
  H       2.769107      0.694145     -3.597340
  H       4.532864     -0.761593     -2.694793
  H       2.823371     -1.682254     -4.196284
  H       0.301370     -2.448351     -0.740086
  H      -3.786521     -1.142082      0.650650
26
Coordinates from ORCA-job my_molecule_MEP_ALL E -1757.300162853459
  O      -1.652619      0.032452      1.566331
  Si     -0.450436      0.573528      2.654312
  Si     -3.141166     -0.725976      1.876508
  C       1.103324      1.395423      1.948384
  C       2.227016      0.750080      1.562615
  H       1.100894      2.498661      1.855878
  H       3.081593      1.267237      1.094655
  H       2.318760     -0.352566      1.589357
  Si      0.687022     -0.678788     -0.937069
  O      -0.491625     -0.303657     -2.052952
  O       2.184156     -0.878427     -1.645128
  Si      3.042183     -0.740006     -3.073559
  Si     -1.952146      0.497421     -2.080664
  H       0.670190      0.516657     -0.056253
  H      -4.169510      0.265129      2.359269
  H      -1.091558      1.594840      3.547710
  H      -2.987478     -1.795881      2.928273
  H       0.011745     -0.639031      3.406953
  H      -2.111079      0.915767     -3.507344
  H      -3.046114     -0.444544     -1.656776
  H      -2.031883      1.717253     -1.190776
  H       2.781902      0.601507     -3.702631
  H       4.504223     -0.871033     -2.747787
  H       2.666048     -1.821798     -4.052722
  H       0.405876     -2.006714     -0.308089
  H      -3.659316     -1.367537      0.621506
26
Coordinates from ORCA-job my_molecule_MEP_ALL E -1757.245022880118
  O      -1.669916     -0.000623      1.550115
  Si     -0.469749      0.563312      2.610644
  Si     -3.152442     -0.761425      1.866295
  C       1.043884      1.316438      1.753777
  C       2.184534      0.628039      1.431137
  H       1.100747      2.426273      1.761959
  H       3.048955      1.128836      0.962077
  H       2.330338     -0.451764      1.649097
  Si      0.766785     -0.537945     -0.788105
  O      -0.418352     -0.191370     -1.893446
  O       2.207703     -0.855487     -1.625376
  Si      3.043877     -0.745944     -3.083171
  Si     -1.917018      0.509521     -2.036016
  H       0.550597      0.873156      0.152837
  H      -4.177808      0.240660      2.330479
  H      -1.081458      1.609394      3.497993
  H      -2.986377     -1.809355      2.938210
  H       0.018130     -0.610494      3.405684
  H      -2.053856      0.882922     -3.481258
  H      -3.004948     -0.460608     -1.654577
  H      -2.087269      1.747271     -1.188839
  H       2.782472      0.587413     -3.726823
  H       4.508623     -0.888268     -2.771591
  H       2.639872     -1.843392     -4.035288
  H       0.444809     -1.936079     -0.241443
  H      -3.652133     -1.420480      0.615628
26
Coordinates from ORCA-job my_molecule_MEP_ALL E -1757.242644177229
  O      -1.673752     -0.005062      1.549471
  Si     -0.469902      0.570915      2.606524
  Si     -3.151432     -0.760828      1.868049
  C       0.880940      1.344874      1.532496
  C       2.154171      0.516713      1.233008
  H       1.101985      2.408704      1.791079
  H       3.048553      1.116535      0.951122
  H       2.358291     -0.460879      1.698684
  Si      0.885475     -0.620274     -0.751710
  O      -0.374957     -0.156901     -1.819372
  O       2.222636     -0.877622     -1.666467
  Si      3.050474     -0.750306     -3.093748
  Si     -1.918492      0.513744     -2.028309
  H       0.543800      1.072907      0.452273
  H      -4.178243      0.241663      2.331358
  H      -1.084693      1.607793      3.500973
  H      -2.988223     -1.810024      2.938096
  H       0.018300     -0.610120      3.406478
  H      -2.047124      0.878845     -3.479680
  H      -3.002020     -0.462598     -1.654624
  H      -2.088935      1.748730     -1.189391
  H       2.783120      0.587018     -3.725994
  H       4.510845     -0.887266     -2.774507
  H       2.643561     -1.842412     -4.042840
  H       0.430242     -1.944676     -0.248261
  H      -3.654623     -1.419474      0.615293
26
Coordinates from ORCA-job my_molecule_MEP_ALL E -1757.324851820718
  O      -1.689519     -0.016533      1.546029
  Si     -0.482544      0.574288      2.586331
  Si     -3.165172     -0.773908      1.869290
  C       0.874505      1.315678      1.491186
  C       2.001645      0.397645      1.026632
  H       1.162269      2.343084      1.858173
  H       2.921036      0.998236      0.808529
  H       2.327944     -0.418114      1.690950
  Si      0.995497     -0.638336     -0.653967
  O      -0.289887     -0.068707     -1.639067
  O       2.255280     -0.915976     -1.680175
  Si      3.066664     -0.757556     -3.116156
  Si     -1.848362      0.508166     -1.973177
  H       0.397302      1.429932      0.508871
  H      -4.185224      0.233317      2.329896
  H      -1.089723      1.610986      3.493407
  H      -2.991358     -1.816807      2.940240
  H       0.027001     -0.584696      3.397040
  H      -1.984238      0.848924     -3.442116
  H      -2.953138     -0.472528     -1.645045
  H      -2.103031      1.759731     -1.184130
  H       2.781440      0.587155     -3.731099
  H       4.527691     -0.887259     -2.793696
  H       2.649198     -1.848870     -4.063957
  H       0.453394     -1.977505     -0.239050
  H      -3.658669     -1.430347      0.615064
26
Coordinates from ORCA-job my_molecule_MEP_ALL E -1757.381892156518
  O      -1.531770     -0.185651      1.457590
  Si     -0.670505      0.772119      2.553364
  Si     -2.711692     -1.385649      1.519632
  C       0.790643      1.529280      1.637290
  C       1.729615      0.539361      0.917490
  H       1.350614      2.125413      2.394087
  H       2.626324      1.070377      0.527684
  H       2.124703     -0.227636      1.620796
  Si      1.020500     -0.359491     -0.584450
  O      -0.010110      0.657043     -1.424337
  O       2.332767     -0.698885     -1.567815
  Si      2.676993     -1.271248     -3.104951
  Si     -1.604053      1.060470     -1.732512
  H       0.383726      2.271356      0.916055
  H      -4.080626     -0.767636      1.437916
  H      -1.561895      1.855366      3.103107
  H      -2.597444     -2.157261      2.808764
  H      -0.207938     -0.100099      3.694858
  H      -1.687279      1.572072     -3.143086
  H      -2.512024     -0.133262     -1.595372
  H      -2.062285      2.145329     -0.796587
  H       2.445126     -0.202110     -4.137741
  H       4.121949     -1.678896     -3.131686
  H       1.819046     -2.464796     -3.439342
  H       0.320616     -1.654678     -0.288112
  H      -2.505001     -2.310888      0.357360
26
Coordinates from ORCA-job my_molecule_MEP_ALL E -1757.328557421627
  O      -1.845706      0.529372      1.580749
  Si     -0.340506      0.389943      2.325301
  Si     -3.470566      0.551388      1.998738
  C       0.909653      1.476454      1.453733
  C       2.144539      1.054214      1.112262
  H       0.641324      2.531734      1.255479
  H       2.890276      1.724486      0.649950
  H       2.472343      0.013198      1.284131
  Si      0.908505     -1.997946     -1.356688
  O      -0.432876     -1.131278     -0.878286
  O       1.860444     -1.113469     -2.400156
  Si      2.996650      0.104653     -2.566457
  Si     -1.848984     -0.505833     -1.539255
  H       1.677416     -2.327971     -0.112517
  H      -3.656991      1.235870      3.328365
  H      -0.505750      0.847380      3.755385
  H      -4.017915     -0.847344      2.090754
  H       0.137438     -1.035406      2.318523
  H      -1.978320     -0.963651     -2.970224
  H      -3.032398     -1.018605     -0.770411
  H      -1.815201      0.993246     -1.507057
  H       2.340649      1.455571     -2.484937
  H       4.047325      0.002807     -1.491416
  H       3.649507     -0.050373     -3.909342
  H       0.484582     -3.226418     -2.103731
  H      -4.215440      1.307978      0.937107
26
Coordinates from ORCA-job my_molecule_MEP_ALL E -1757.326703070845
  O      -1.842046      0.455957      1.610020
  Si     -0.375231      0.508780      2.446507
  Si     -3.449008      0.158792      2.005939
  C       0.912382      1.510835      1.523552
  C       2.128350      1.045226      1.171664
  H       0.680623      2.568856      1.296210
  H       2.872291      1.683434      0.660435
  H       2.445591      0.006788      1.372023
  Si      0.817732     -1.830554     -1.194868
  O      -0.409363     -0.734239     -0.976035
  O       1.950726     -1.234844     -2.249342
  Si      3.090238     -0.135283     -2.774668
  Si     -1.816654     -0.112458     -1.646029
  H       1.434752     -2.070147      0.150135
  H      -3.833299      0.925850      3.243425
  H      -0.660078      1.164299      3.776031
  H      -3.682123     -1.308089      2.253374
  H       0.147586     -0.883363      2.677283
  H      -1.825046     -0.335779     -3.137220
  H      -3.008526     -0.814914     -1.061146
  H      -1.884108      1.359930     -1.375769
  H       2.525853      1.259360     -2.823605
  H       4.281182     -0.150149     -1.854474
  H       3.512952     -0.544762     -4.154834
  H       0.292127     -3.098549     -1.798393
  H      -4.306904      0.605022      0.859786
26
Coordinates from ORCA-job my_molecule_MEP_ALL E -1757.323719311490
  O      -1.818898      0.326726      1.627268
  Si     -0.417599      0.584090      2.545092
  Si     -3.384007     -0.174450      2.002970
  C       0.922371      1.517322      1.613228
  C       2.136487      1.030628      1.286475
  H       0.721125      2.576399      1.365283
  H       2.885477      1.653594      0.761336
  H       2.451553     -0.002544      1.505835
  Si      0.756610     -1.618521     -1.091222
  O      -0.372928     -0.418103     -1.199165
  O       2.060494     -1.255387     -2.039916
  Si      3.133243     -0.359557     -2.944628
  Si     -1.815819      0.205100     -1.766812
  H       1.204545     -1.702369      0.333352
  H      -3.992962      0.712236      3.054905
  H      -0.833350      1.409886      3.737006
  H      -3.389426     -1.593950      2.505054
  H       0.119562     -0.745000      3.002793
  H      -1.805875      0.223166     -3.272167
  H      -2.966575     -0.646473     -1.311034
  H      -1.959035      1.606580     -1.257252
  H       2.655632      1.055276     -3.136577
  H       4.457143     -0.345992     -2.233571
  H       3.284854     -1.010067     -4.289115
  H       0.191478     -2.925433     -1.563700
  H      -4.224097     -0.103157      0.764562
26
Coordinates from ORCA-job my_molecule_MEP_ALL E -1757.319671972308
  O      -1.764016      0.202540      1.630957
  Si     -0.444240      0.611729      2.622284
  Si     -3.286311     -0.452791      1.972993
  C       0.969555      1.511159      1.754752
  C       2.178424      0.997777      1.447630
  H       0.821234      2.585317      1.545198
  H       2.961580      1.613593      0.958351
  H       2.458393     -0.052166      1.625208
  Si      0.716303     -1.334557     -1.040928
  O      -0.377371     -0.257463     -1.637444
  O       2.152431     -1.175094     -1.844948
  Si      3.124116     -0.569086     -3.064369
  Si     -1.870642      0.432809     -1.922802
  H       0.972663     -1.025730      0.388572
  H      -4.135708      0.513307      2.754994
  H      -0.973998      1.546022      3.680859
  H      -3.157990     -1.727909      2.764748
  H       0.068910     -0.657593      3.246647
  H      -1.957789      0.687735     -3.399268
  H      -2.976301     -0.497502     -1.508362
  H      -1.993236      1.729501     -1.177909
  H       2.735242      0.838646     -3.425254
  H       4.536912     -0.586453     -2.557089
  H       3.016199     -1.432437     -4.289461
  H       0.215842     -2.735273     -1.212268
  H      -3.990200     -0.766080      0.686910
26
Coordinates from ORCA-job my_molecule_MEP_ALL E -1757.310648766806
  O      -1.700075      0.120578      1.614187
  Si     -0.447306      0.601445      2.663802
  Si     -3.198665     -0.615341      1.926813
  C       1.046906      1.487083      1.903712
  C       2.219078      0.912623      1.566110
  H       0.971898      2.579534      1.773333
  H       3.051721      1.496422      1.117345
  H       2.409110     -0.169617      1.640516
  Si      0.671916     -1.023648     -1.032351
  O      -0.442244     -0.315533     -2.013267
  O       2.170854     -1.047103     -1.741483
  Si      3.088931     -0.688730     -3.101207
  Si     -1.930966      0.492147     -2.051524
  H       0.775998     -0.183694      0.178187
  H      -4.179682      0.362735      2.518003
  H      -1.049686      1.577212      3.638800
  H      -3.042436     -1.767570      2.886168
  H       0.035825     -0.644572      3.354190
  H      -2.107262      0.895631     -3.480523
  H      -3.024674     -0.438935     -1.616113
  H      -1.966574      1.710734     -1.171509
  H       2.770396      0.692924     -3.600263
  H       4.532637     -0.762712     -2.696756
  H       2.821269     -1.684501     -4.193101
  H       0.301718     -2.441908     -0.732022
  H      -3.778686     -1.145203      0.648953
26
Coordinates from ORCA-job my_molecule_MEP_ALL E -1757.301196511967
  O      -1.649616      0.028853      1.565667
  Si     -0.451279      0.570557      2.651763
  Si     -3.140113     -0.730972      1.874692
  C       1.098697      1.386346      1.927029
  C       2.216734      0.735170      1.555917
  H       1.097359      2.487351      1.840189
  H       3.079286      1.251049      1.081624
  H       2.319542     -0.365429      1.602381
  Si      0.689545     -0.652484     -0.923686
  O      -0.476657     -0.298696     -2.040391
  O       2.186401     -0.872808     -1.642443
  Si      3.044517     -0.738755     -3.078886
  Si     -1.955273      0.500800     -2.079341
  H       0.653520      0.554482     -0.039236
  H      -4.167214      0.261844      2.354674
  H      -1.092142      1.596144      3.544963
  H      -2.984315     -1.797093      2.929657
  H       0.011869     -0.637670      3.411463
  H      -2.110759      0.913830     -3.506489
  H      -3.041767     -0.446103     -1.659608
  H      -2.034601      1.718247     -1.191862
  H       2.783344      0.600790     -3.707803
  H       4.503997     -0.871798     -2.751091
  H       2.661990     -1.823505     -4.048331
  H       0.409802     -1.996184     -0.290565
  H      -3.652868     -1.373967      0.619711
26
Coordinates from ORCA-job my_molecule_MEP_ALL E -1757.242600428591
  O      -1.668669     -0.001484      1.552711
  Si     -0.467891      0.561100      2.611780
  Si     -3.151166     -0.761972      1.866422
  C       1.054432      1.317748      1.747683
  C       2.191310      0.637348      1.463661
  H       1.094917      2.417033      1.748012
  H       3.050024      1.127834      0.963737
  H       2.325977     -0.452085      1.647739
  Si      0.758236     -0.521990     -0.793876
  O      -0.425152     -0.197013     -1.911824
  O       2.201094     -0.846702     -1.618064
  Si      3.041188     -0.743142     -3.077749
  Si     -1.920145      0.510580     -2.039547
  H       0.550703      0.831244      0.136546
  H      -4.175403      0.240511      2.330579
  H      -1.081717      1.610155      3.500888
  H      -2.984766     -1.808914      2.938019
  H       0.017443     -0.613905      3.410486
  H      -2.057618      0.883539     -3.482890
  H      -3.003738     -0.461529     -1.656191
  H      -2.084766      1.746435     -1.188984
  H       2.784398      0.588720     -3.728658
  H       4.508620     -0.885842     -2.773304
  H       2.640661     -1.840987     -4.033794
  H       0.450966     -1.916881     -0.228031
  H      -3.648936     -1.419802      0.614648
26
Coordinates from ORCA-job my_molecule_MEP_ALL E -1757.242145503811
  O      -1.675552     -0.008363      1.549915
  Si     -0.466747      0.573796      2.601326
  Si     -3.153277     -0.763498      1.868296
  C       0.900928      1.311998      1.547879
  C       2.127623      0.495283      1.208718
  H       1.089795      2.407164      1.773970
  H       3.040272      1.105095      0.945083
  H       2.358366     -0.449781      1.707597
  Si      0.899106     -0.611255     -0.747595
  O      -0.364437     -0.148632     -1.801836
  O       2.230504     -0.882380     -1.672810
  Si      3.057341     -0.747983     -3.103801
  Si     -1.908116      0.510412     -2.025763
  H       0.511772      1.126114      0.457718
  H      -4.175911      0.240350      2.330581
  H      -1.086553      1.608950      3.504895
  H      -2.986363     -1.809918      2.938264
  H       0.019513     -0.607790      3.409439
  H      -2.048637      0.877155     -3.480081
  H      -2.999041     -0.464788     -1.656484
  H      -2.088070      1.748149     -1.190359
  H       2.784419      0.588689     -3.728501
  H       4.512283     -0.885292     -2.775803
  H       2.644032     -1.842626     -4.043055
  H       0.426817     -1.951422     -0.232935
  H      -3.650068     -1.419425      0.615341
26
Coordinates from ORCA-job my_molecule_MEP_ALL E -1757.323996399071
  O      -1.688796     -0.017706      1.549283
  Si     -0.479994      0.576130      2.583171
  Si     -3.161400     -0.772277      1.868217
  C       0.861374      1.335172      1.507993
  C       2.003135      0.393704      1.009971
  H       1.149964      2.336607      1.840777
  H       2.936366      1.009981      0.815222
  H       2.331210     -0.433929      1.706107
  Si      0.999940     -0.632222     -0.652577
  O      -0.291674     -0.071133     -1.650410
  O       2.254603     -0.910853     -1.680759
  Si      3.066808     -0.755243     -3.116044
  Si     -1.854701      0.509113     -1.979153
  H       0.392242      1.400472      0.503434
  H      -4.183085      0.234017      2.330306
  H      -1.089350      1.611178      3.496135
  H      -2.989744     -1.816739      2.941144
  H       0.027291     -0.589707      3.403595
  H      -1.989714      0.849281     -3.444591
  H      -2.952999     -0.473780     -1.647080
  H      -2.100252      1.758159     -1.185017
  H       2.783757      0.587085     -3.731951
  H       4.526689     -0.884703     -2.794226
  H       2.650877     -1.845977     -4.061315
  H       0.452863     -1.967456     -0.226659
  H      -3.655411     -1.429175      0.614428
26
Coordinates from ORCA-job my_molecule_MEP_ALL E -1757.381892156518
  O      -1.531772     -0.186377      1.457494
  Si     -0.671159      0.772035      2.553217
  Si     -2.710990     -1.387065      1.519592
  C       0.789613      1.529947      1.637164
  C       1.729225      0.540495      0.917557
  H       1.349173      2.126504      2.393931
  H       2.625651      1.071993      0.527755
  H       2.124712     -0.226183      1.620988
  Si      1.020757     -0.358959     -0.584327
  O      -0.010388      0.656863     -1.424418
  O       2.333301     -0.697699     -1.567550
  Si      2.677983     -1.270047     -3.104589
  Si     -1.604546      1.059310     -1.732765
  H       0.382314      2.271694      0.915806
  H      -4.080283     -0.769871      1.437695
  H      -1.563230      1.854823      3.102759
  H      -2.596386     -2.158451      2.808828
  H      -0.208164     -0.099770      3.694854
  H      -1.687965      1.570690     -3.143409
  H      -2.511821     -0.134941     -1.595549
  H      -2.063491      2.144012     -0.797009
  H       2.445564     -0.201172     -4.137528
  H       4.123182     -1.676844     -3.131163
  H       1.820768     -2.464143     -3.438900
  H       0.321616     -1.654523     -0.287885
  H      -2.503663     -2.312324      0.357450
26
Coordinates from ORCA-job my_molecule_MEP_ALL E -1757.328557421627
  O      -1.845706      0.529372      1.580749
  Si     -0.340506      0.389943      2.325301
  Si     -3.470566      0.551388      1.998738
  C       0.909653      1.476454      1.453733
  C       2.144539      1.054214      1.112262
  H       0.641324      2.531734      1.255479
  H       2.890276      1.724486      0.649950
  H       2.472343      0.013198      1.284131
  Si      0.908505     -1.997946     -1.356688
  O      -0.432876     -1.131278     -0.878286
  O       1.860444     -1.113469     -2.400156
  Si      2.996650      0.104653     -2.566457
  Si     -1.848984     -0.505833     -1.539255
  H       1.677416     -2.327971     -0.112517
  H      -3.656991      1.235870      3.328365
  H      -0.505750      0.847380      3.755385
  H      -4.017915     -0.847344      2.090754
  H       0.137438     -1.035406      2.318523
  H      -1.978320     -0.963651     -2.970224
  H      -3.032398     -1.018605     -0.770411
  H      -1.815201      0.993246     -1.507057
  H       2.340649      1.455571     -2.484937
  H       4.047325      0.002807     -1.491416
  H       3.649507     -0.050373     -3.909342
  H       0.484582     -3.226418     -2.103731
  H      -4.215440      1.307978      0.937107
26
Coordinates from ORCA-job my_molecule_MEP_ALL E -1757.326704260514
  O      -1.842065      0.455669      1.610401
  Si     -0.375230      0.509453      2.447057
  Si     -3.448541      0.156711      2.006171
  C       0.911001      1.511409      1.523775
  C       2.128685      1.045306      1.172226
  H       0.679824      2.568767      1.295649
  H       2.872090      1.683013      0.662319
  H       2.444349      0.006726      1.373196
  Si      0.817405     -1.829890     -1.194132
  O      -0.409853     -0.731845     -0.977441
  O       1.952420     -1.235509     -2.248962
  Si      3.090591     -0.137322     -2.775844
  Si     -1.816373     -0.110477     -1.646532
  H       1.433564     -2.067831      0.151118
  H      -3.834269      0.924407      3.242749
  H      -0.660439      1.165695      3.776391
  H      -3.679465     -1.310202      2.255051
  H       0.147672     -0.882551      2.679132
  H      -1.824394     -0.332106     -3.138089
  H      -3.008897     -0.813352     -1.063015
  H      -1.885033      1.361734     -1.374616
  H       2.526306      1.257532     -2.825421
  H       4.283030     -0.150898     -1.857288
  H       3.512598     -0.547476     -4.156209
  H       0.291041     -3.097677     -1.796608
  H      -4.306017      0.600715      0.858922
26
Coordinates from ORCA-job my_molecule_MEP_ALL E -1757.323741039784
  O      -1.818181      0.325105      1.627612
  Si     -0.417044      0.584818      2.545863
  Si     -3.382277     -0.178200      2.003107
  C       0.920047      1.517849      1.614578
  C       2.137947      1.031147      1.288035
  H       0.720179      2.576218      1.365721
  H       2.885537      1.652610      0.766672
  H       2.449421     -0.003151      1.508201
  Si      0.756222     -1.616199     -1.089857
  O      -0.374388     -0.414153     -1.205551
  O       2.063872     -1.255287     -2.037974
  Si      3.133197     -0.363171     -2.946076
  Si     -1.816026      0.208065     -1.769052
  H       1.201356     -1.694588      0.334970
  H      -3.994143      0.710000      3.051880
  H      -0.834270      1.411562      3.737571
  H      -3.384869     -1.596085      2.509230
  H       0.119883     -0.744021      3.006268
  H      -1.808092      0.229908     -3.274686
  H      -2.967271     -0.644168     -1.314515
  H      -1.960838      1.608644     -1.256297
  H       2.656218      1.051945     -3.139968
  H       4.459632     -0.348192     -2.239192
  H       3.282368     -1.015746     -4.290170
  H       0.191216     -2.923336     -1.559129
  H      -4.219695     -0.111572      0.762757
26
Coordinates from ORCA-job my_molecule_MEP_ALL E -1757.319611405529
  O      -1.762003      0.200509      1.630474
  Si     -0.443132      0.611776      2.623233
  Si     -3.282826     -0.456113      1.972313
  C       0.967535      1.511263      1.757593
  C       2.180790      0.999197      1.449484
  H       0.821106      2.585996      1.547567
  H       2.961922      1.611252      0.965651
  H       2.455302     -0.054465      1.627256
  Si      0.714881     -1.330963     -1.039055
  O      -0.381203     -0.255547     -1.648717
  O       2.156448     -1.171953     -1.844153
  Si      3.122388     -0.572549     -3.063651
  Si     -1.870480      0.433488     -1.926199
  H       0.967803     -1.012532      0.387006
  H      -4.134801      0.510851      2.750544
  H      -0.975040      1.545995      3.681574
  H      -3.153491     -1.728488      2.768252
  H       0.069587     -0.657224      3.249741
  H      -1.963656      0.693374     -3.402235
  H      -2.977584     -0.496318     -1.511769
  H      -1.993497      1.729332     -1.178113
  H       2.735726      0.835663     -3.428803
  H       4.537901     -0.589461     -2.561544
  H       3.012453     -1.438244     -4.287969
  H       0.216837     -2.731252     -1.203564
  H      -3.982965     -0.773586      0.685086
26
Coordinates from ORCA-job my_molecule_MEP_ALL E -1757.310431535425
  O      -1.698261      0.118354      1.613198
  Si     -0.445499      0.601397      2.665090
  Si     -3.194245     -0.617195      1.925882
  C       1.044510      1.485800      1.906706
  C       2.221964      0.913320      1.566955
  H       0.971554      2.579472      1.773452
  H       3.050534      1.491643      1.121908
  H       2.405972     -0.173247      1.642785
  Si      0.673036     -1.020344     -1.026202
  O      -0.453357     -0.311077     -2.023004
  O       2.174455     -1.042535     -1.743648
  Si      3.085847     -0.690242     -3.098370
  Si     -1.926114      0.488542     -2.054114
  H       0.771216     -0.173304      0.173396
  H      -4.176893      0.361381      2.514573
  H      -1.050975      1.576672      3.639496
  H      -3.038713     -1.767495      2.887724
  H       0.036284     -0.644440      3.357285
  H      -2.111830      0.897536     -3.482833
  H      -3.026018     -0.439379     -1.618917
  H      -1.965509      1.709583     -1.172532
  H       2.771265      0.691670     -3.603734
  H       4.532351     -0.764431     -2.698930
  H       2.818072     -1.687771     -4.190675
  H       0.302497     -2.434499     -0.722757
  H      -3.772143     -1.149410      0.647264
26
Coordinates from ORCA-job my_molecule_MEP_ALL E -1757.299277257519
  O      -1.648572      0.026862      1.565478
  Si     -0.450242      0.569890      2.652351
  Si     -3.137522     -0.732525      1.874170
  C       1.093820      1.383682      1.924124
  C       2.220974      0.730982      1.554990
  H       1.094866      2.483252      1.830761
  H       3.075658      1.242781      1.079112
  H       2.318679     -0.371088      1.608712
  Si      0.692592     -0.643281     -0.916061
  O      -0.480783     -0.294874     -2.043386
  O       2.186286     -0.867874     -1.641447
  Si      3.043292     -0.737937     -3.078087
  Si     -1.951735      0.499026     -2.080118
  H       0.646731      0.563030     -0.039605
  H      -4.165191      0.260703      2.352682
  H      -1.092340      1.596460      3.544511
  H      -2.981981     -1.797222      2.930530
  H       0.011886     -0.637564      3.414905
  H      -2.112936      0.913493     -3.507261
  H      -3.040891     -0.447300     -1.661285
  H      -2.034570      1.718306     -1.192344
  H       2.784289      0.600947     -3.711253
  H       4.504116     -0.871857     -2.752878
  H       2.659863     -1.824571     -4.046402
  H       0.412272     -1.986755     -0.280889
  H      -3.648561     -1.376565      0.618689
26
Coordinates from ORCA-job my_molecule_MEP_ALL E -1757.254170238319
  O      -1.668048     -0.002311      1.553904
  Si     -0.464215      0.561959      2.611516
  Si     -3.150567     -0.762461      1.866843
  C       1.047300      1.313245      1.749111
  C       2.200250      0.630056      1.464346
  H       1.090464      2.417275      1.736840
  H       3.048693      1.124762      0.966024
  H       2.324369     -0.448961      1.650866
  Si      0.757121     -0.519263     -0.796322
  O      -0.423929     -0.198688     -1.916613
  O       2.200320     -0.841664     -1.617812
  Si      3.040142     -0.741568     -3.076134
  Si     -1.921946      0.510923     -2.041588
  H       0.546651      0.821630      0.134985
  H      -4.173594      0.240577      2.330788
  H      -1.081432      1.610343      3.502537
  H      -2.983441     -1.808555      2.938378
  H       0.017397     -0.614813      3.413487
  H      -2.060653      0.883784     -3.484335
  H      -3.003087     -0.462511     -1.657098
  H      -2.083107      1.745836     -1.189188
  H       2.785424      0.589240     -3.729999
  H       4.508151     -0.884374     -2.774333
  H       2.640828     -1.839629     -4.032388
  H       0.453317     -1.905555     -0.218160
  H      -3.646406     -1.419276      0.614348
26
Coordinates from ORCA-job my_molecule_MEP_ALL E -1757.253564639476
  O      -1.674692     -0.008871      1.551047
  Si     -0.468044      0.570789      2.603317
  Si     -3.152893     -0.764580      1.868905
  C       0.909367      1.314216      1.559266
  C       2.130710      0.493176      1.203828
  H       1.083982      2.396673      1.762045
  H       3.029434      1.094883      0.943042
  H       2.356687     -0.448411      1.711178
  Si      0.901756     -0.605977     -0.742253
  O      -0.362451     -0.145682     -1.800345
  O       2.231655     -0.881561     -1.672891
  Si      3.058440     -0.746844     -3.105334
  Si     -1.905345      0.509470     -2.025533
  H       0.495437      1.133648      0.446200
  H      -4.174570      0.240027      2.330503
  H      -1.086179      1.609351      3.505697
  H      -2.984987     -1.809910      2.938835
  H       0.019707     -0.606163      3.411508
  H      -2.049786      0.875962     -3.479540
  H      -2.996220     -0.465746     -1.657714
  H      -2.086886      1.747305     -1.191033
  H       2.785310      0.590334     -3.731097
  H       4.513914     -0.884017     -2.777305
  H       2.644085     -1.842905     -4.043504
  H       0.428835     -1.945533     -0.223651
  H      -3.647266     -1.419635      0.614827
26
Coordinates from ORCA-job my_molecule_MEP_ALL E -1757.322106911570
  O      -1.687277     -0.018261      1.550384
  Si     -0.480693      0.576200      2.585823
  Si     -3.161244     -0.772991      1.868953
  C       0.856916      1.321494      1.498003
  C       1.997318      0.384759      1.001159
  H       1.148141      2.344513      1.836000
  H       2.933942      1.007277      0.812805
  H       2.328341     -0.432023      1.706737
  Si      1.006425     -0.627979     -0.647910
  O      -0.287081     -0.068150     -1.646479
  O       2.256677     -0.909953     -1.682380
  Si      3.068105     -0.754093     -3.117623
  Si     -1.852319      0.508357     -1.979029
  H       0.380797      1.402695      0.508943
  H      -4.181496      0.234144      2.330539
  H      -1.089142      1.611089      3.497415
  H      -2.988634     -1.816414      2.941704
  H       0.027545     -0.589549      3.406033
  H      -1.990836      0.848002     -3.445234
  H      -2.950966     -0.475555     -1.647893
  H      -2.099342      1.757838     -1.185398
  H       2.785020      0.587361     -3.733349
  H       4.527114     -0.883118     -2.795699
  H       2.651880     -1.845090     -4.060981
  H       0.453858     -1.961792     -0.216726
  H      -3.653048     -1.428759      0.614202
26
Coordinates from ORCA-job my_molecule_MEP_ALL E -1757.381892156518
  O      -1.531705     -0.186812      1.457509
  Si     -0.671538      0.772183      2.553073
  Si     -2.710380     -1.388022      1.519806
  C       0.788902      1.530593      1.636903
  C       1.728970      0.541440      0.917482
  H       1.348183      2.127537      2.393571
  H       2.625159      1.073274      0.527596
  H       2.124795     -0.224935      1.621053
  Si      1.020926     -0.358601     -0.584251
  O      -0.010668      0.656606     -1.424534
  O       2.333635     -0.696920     -1.567399
  Si      2.678594     -1.269384     -3.104333
  Si     -1.605004      1.058278     -1.732971
  H       0.381275      2.272029      0.915409
  H      -4.079952     -0.771462      1.437784
  H      -1.564105      1.854664      3.102413
  H      -2.595443     -2.159129      2.809179
  H      -0.208162     -0.099211      3.694869
  H      -1.688639      1.569370     -3.143706
  H      -2.511741     -0.136359     -1.595555
  H      -2.064451      2.142938     -0.797412
  H       2.445704     -0.200797     -4.137464
  H       4.123977     -1.675533     -3.130818
  H       1.821923     -2.463927     -3.438443
  H       0.322368     -1.654429     -0.287589
  H      -2.502621     -2.313393      0.357829
26
Coordinates from ORCA-job my_molecule_MEP_ALL E -1757.328557421627
  O      -1.845706      0.529372      1.580749
  Si     -0.340506      0.389943      2.325301
  Si     -3.470566      0.551388      1.998738
  C       0.909653      1.476454      1.453733
  C       2.144539      1.054214      1.112262
  H       0.641324      2.531734      1.255479
  H       2.890276      1.724486      0.649950
  H       2.472343      0.013198      1.284131
  Si      0.908505     -1.997946     -1.356688
  O      -0.432876     -1.131278     -0.878286
  O       1.860444     -1.113469     -2.400156
  Si      2.996650      0.104653     -2.566457
  Si     -1.848984     -0.505833     -1.539255
  H       1.677416     -2.327971     -0.112517
  H      -3.656991      1.235870      3.328365
  H      -0.505750      0.847380      3.755385
  H      -4.017915     -0.847344      2.090754
  H       0.137438     -1.035406      2.318523
  H      -1.978320     -0.963651     -2.970224
  H      -3.032398     -1.018605     -0.770411
  H      -1.815201      0.993246     -1.507057
  H       2.340649      1.455571     -2.484937
  H       4.047325      0.002807     -1.491416
  H       3.649507     -0.050373     -3.909342
  H       0.484582     -3.226418     -2.103731
  H      -4.215440      1.307978      0.937107
26
Coordinates from ORCA-job my_molecule_MEP_ALL E -1757.326707277517
  O      -1.841947      0.455082      1.611168
  Si     -0.375528      0.510621      2.448300
  Si     -3.447587      0.152708      2.006604
  C       0.909894      1.511720      1.523863
  C       2.127296      1.045809      1.174052
  H       0.678279      2.568993      1.294563
  H       2.872317      1.682672      0.665461
  H       2.442214      0.006261      1.375533
  Si      0.816806     -1.828108     -1.192918
  O      -0.410177     -0.727611     -0.980085
  O       1.954989     -1.237249     -2.247739
  Si      3.091625     -0.140874     -2.778298
  Si     -1.816186     -0.106484     -1.647680
  H       1.431258     -2.063360      0.153071
  H      -3.836174      0.921651      3.241426
  H      -0.661144      1.168351      3.776946
  H      -3.674414     -1.314299      2.258297
  H       0.147826     -0.880901      2.682674
  H      -1.823198     -0.325005     -3.139781
  H      -3.009522     -0.810386     -1.066626
  H      -1.886770      1.365177     -1.372438
  H       2.527211      1.254013     -2.828939
  H       4.286525     -0.152394     -1.862688
  H       3.511826     -0.552739     -4.158806
  H       0.288971     -3.096049     -1.793209
  H      -4.304390      0.592398      0.857248
26
Coordinates from ORCA-job my_molecule_MEP_ALL E -1757.323771973550
  O      -1.816368      0.322097      1.628416
  Si     -0.416992      0.585762      2.547973
  Si     -3.378692     -0.185214      2.003318
  C       0.918551      1.517490      1.616445
  C       2.136213      1.032315      1.292831
  H       0.718372      2.576654      1.366493
  H       2.887459      1.652134      0.775468
  H       2.445860     -0.005069      1.512873
  Si      0.755428     -1.610758     -1.087833
  O      -0.375544     -0.407793     -1.217336
  O       2.068896     -1.255782     -2.033182
  Si      3.133847     -0.369356     -2.949394
  Si     -1.817419      0.214122     -1.773724
  H       1.195284     -1.679704      0.338109
  H      -3.996489      0.705810      3.046126
  H      -0.835904      1.414511      3.738219
  H      -3.376329     -1.600240      2.517160
  H       0.120440     -0.741858      3.012703
  H      -1.812350      0.242722     -3.279436
  H      -2.968473     -0.639808     -1.321161
  H      -1.964165      1.612501     -1.254538
  H       2.657379      1.045545     -3.146410
  H       4.464227     -0.352453     -2.249806
  H       3.277569     -1.026574     -4.292077
  H       0.190734     -2.919456     -1.550471
  H      -4.211535     -0.127599      0.759233
26
Coordinates from ORCA-job my_molecule_MEP_ALL E -1757.319687379833
  O      -1.757760      0.196918      1.629732
  Si     -0.442320      0.611421      2.625684
  Si     -3.276303     -0.462107      1.970951
  C       0.967396      1.510632      1.761666
  C       2.180235      1.000494      1.455241
  H       0.820633      2.587676      1.551879
  H       2.964474      1.608575      0.977846
  H       2.449713     -0.058093      1.631084
  Si      0.712733     -1.322520     -1.037604
  O      -0.385113     -0.254245     -1.668396
  O       2.160873     -1.167101     -1.840178
  Si      3.120561     -0.578038     -3.063758
  Si     -1.872083      0.435675     -1.932983
  H       0.958825     -0.988298      0.384470
  H      -4.133167      0.506421      2.742320
  H      -0.976852      1.545687      3.682630
  H      -3.145237     -1.729610      2.774669
  H       0.070829     -0.656302      3.255288
  H      -1.974439      0.703705     -3.407605
  H      -2.979799     -0.494133     -1.518147
  H      -1.993869      1.728889     -1.178598
  H       2.736714      0.830017     -3.435269
  H       4.539568     -0.595004     -2.569701
  H       3.005587     -1.448924     -4.285113
  H       0.218511     -2.724330     -1.187750
  H      -3.969710     -0.787404      0.681639
26
Coordinates from ORCA-job my_molecule_MEP_ALL E -1757.311010210150
  O      -1.693382      0.114178      1.611439
  Si     -0.444008      0.600746      2.667913
  Si     -3.186380     -0.621366      1.923705
  C       1.044627      1.482176      1.910520
  C       2.221335      0.911603      1.571113
  H       0.971273      2.578822      1.773932
  H       3.050759      1.483247      1.128716
  H       2.399861     -0.179830      1.647036
  Si      0.673007     -1.008192     -1.019874
  O      -0.465043     -0.308210     -2.036799
  O       2.177089     -1.033918     -1.743243
  Si      3.082190     -0.692279     -3.095888
  Si     -1.921669      0.484412     -2.059766
  H       0.761664     -0.149577      0.163857
  H      -4.171718      0.358306      2.507210
  H      -1.053503      1.575585      3.639983
  H      -3.031566     -1.767553      2.890796
  H       0.036980     -0.644005      3.363269
  H      -2.120173      0.900963     -3.486857
  H      -3.028381     -0.440201     -1.624425
  H      -1.963840      1.707256     -1.174732
  H       2.773061      0.688515     -3.610547
  H       4.531444     -0.768194     -2.703095
  H       2.811378     -1.694550     -4.185184
  H       0.304357     -2.419489     -0.703108
  H      -3.759363     -1.158445      0.644027
26
Coordinates from ORCA-job my_molecule_MEP_ALL E -1757.299293063552
  O      -1.645591      0.024299      1.565611
  Si     -0.449372      0.568814      2.655159
  Si     -3.132947     -0.734645      1.873383
  C       1.093917      1.377035      1.922478
  C       2.221463      0.727213      1.560969
  H       1.089707      2.478907      1.814671
  H       3.072258      1.232624      1.076497
  H       2.316824     -0.377830      1.618852
  Si      0.693140     -0.632292     -0.910628
  O      -0.484606     -0.293080     -2.049981
  O       2.184555     -0.858370     -1.638755
  Si      3.040826     -0.736286     -3.075887
  Si     -1.948722      0.496599     -2.083111
  H       0.637388      0.570013     -0.046371
  H      -4.161320      0.259213      2.349506
  H      -1.092838      1.596722      3.544452
  H      -2.977727     -1.797013      2.931984
  H       0.011693     -0.637554      3.421264
  H      -2.118299      0.913277     -3.509440
  H      -3.040180     -0.449385     -1.664443
  H      -2.033162      1.717289     -1.193657
  H       2.786170      0.601217     -3.716933
  H       4.504231     -0.871574     -2.755307
  H       2.656772     -1.826189     -4.042796
  H       0.416548     -1.968831     -0.264524
  H      -3.640727     -1.380174      0.617007
26
Coordinates from ORCA-job my_molecule_MEP_ALL E -1757.256080455661
  O      -1.666504     -0.003568      1.555952
  Si     -0.461294      0.562076      2.612896
  Si     -3.149163     -0.763228      1.867753
  C       1.045753      1.301780      1.746658
  C       2.196613      0.622725      1.456476
  H       1.081240      2.414452      1.716279
  H       3.046813      1.118087      0.967496
  H       2.324364     -0.449165      1.660812
  Si      0.759739     -0.518446     -0.797316
  O      -0.419976     -0.198530     -1.919806
  O       2.201489     -0.834404     -1.619493
  Si      3.040103     -0.738908     -3.075889
  Si     -1.922043      0.510129     -2.044350
  H       0.534559      0.821434      0.139496
  H      -4.170696      0.240761      2.330917
  H      -1.080628      1.610383      3.504665
  H      -2.981170     -1.808074      2.939314
  H       0.017275     -0.614537      3.418305
  H      -2.065718      0.883551     -3.487002
  H      -3.001479     -0.464765     -1.658890
  H      -2.080229      1.744531     -1.190035
  H       2.787324      0.590157     -3.732539
  H       4.507738     -0.881824     -2.775754
  H       2.641206     -1.837830     -4.029759
  H       0.456414     -1.888159     -0.199824
  H      -3.641729     -1.418629      0.613638
26
Coordinates from ORCA-job my_molecule_MEP_ALL E -1757.253846012783
  O      -1.672586     -0.009367      1.553097
  Si     -0.468894      0.566802      2.608599
  Si     -3.151219     -0.765752      1.869781
  C       0.911960      1.313980      1.567125
  C       2.137427      0.491118      1.207988
  H       1.077452      2.387594      1.743067
  H       3.019070      1.083036      0.939621
  H       2.353024     -0.448109      1.715572
  Si      0.902384     -0.596075     -0.734981
  O      -0.360474     -0.144158     -1.804712
  O       2.230208     -0.876426     -1.669974
  Si      3.057851     -0.744879     -3.104043
  Si     -1.904544      0.509156     -2.026959
  H       0.476479      1.125852      0.426596
  H      -4.172263      0.239885      2.330433
  H      -1.085015      1.609679      3.506313
  H      -2.982546     -1.809864      2.940078
  H       0.019632     -0.604793      3.416079
  H      -2.052458      0.874159     -3.479081
  H      -2.991478     -0.467449     -1.659904
  H      -2.084253      1.745573     -1.192277
  H       2.787205      0.592867     -3.735688
  H       4.516525     -0.881743     -2.779916
  H       2.644303     -1.843006     -4.043501
  H       0.434562     -1.928121     -0.206912
  H      -3.642352     -1.419960      0.613599
26
Coordinates from ORCA-job my_molecule_MEP_ALL E -1757.324789168572
  O      -1.684840     -0.019096      1.552292
  Si     -0.482299      0.574115      2.592539
  Si     -3.160690     -0.774120      1.870450
  C       0.859368      1.303152      1.487016
  C       1.994174      0.374641      0.995699
  H       1.140532      2.351156      1.821763
  H       2.925918      1.000024      0.811891
  H       2.322277     -0.425500      1.704158
  Si      1.013659     -0.621001     -0.643483
  O      -0.280361     -0.064160     -1.641976
  O       2.259679     -0.907880     -1.684178
  Si      3.070496     -0.751990     -3.120194
  Si     -1.846992      0.506184     -1.979101
  H       0.359158      1.402371      0.512311
  H      -4.178524      0.234647      2.330802
  H      -1.088763      1.611373      3.499909
  H      -2.986602     -1.815529      2.942692
  H       0.027494     -0.588268      3.410178
  H      -1.994164      0.846121     -3.447362
  H      -2.948163     -0.478650     -1.649713
  H      -2.097467      1.756897     -1.186527
  H       2.787316      0.588367     -3.736279
  H       4.528300     -0.880447     -2.797780
  H       2.653379     -1.844226     -4.060280
  H       0.455629     -1.950347     -0.198547
  H      -3.648513     -1.427833      0.613719
26
Coordinates from ORCA-job my_molecule_MEP_ALL E -1757.381892156518
  O      -1.531596     -0.187513      1.457534
  Si     -0.672252      0.772612      2.552755
  Si     -2.709284     -1.389670      1.520257
  C       0.787591      1.531873      1.636338
  C       1.728496      0.543217      0.917326
  H       1.346358      2.129569      2.392793
  H       2.624259      1.075639      0.527264
  H       2.124931     -0.222561      1.621204
  Si      1.021239     -0.357985     -0.584082
  O      -0.011165      0.656049     -1.424787
  O       2.334257     -0.695602     -1.567059
  Si      2.679734     -1.268373     -3.103763
  Si     -1.605823      1.056289     -1.733428
  H       0.379376      2.272696      0.914546
  H      -4.079360     -0.774269      1.437956
  H      -1.565728      1.854570      3.101651
  H      -2.593750     -2.160185      2.809931
  H      -0.208194     -0.097960      3.694901
  H      -1.689835      1.566769     -3.144362
  H      -2.511581     -0.139042     -1.595579
  H      -2.066192      2.140931     -0.798300
  H       2.445996     -0.200375     -4.137311
  H       4.125454     -1.673341     -3.130047
  H       1.824057     -2.463750     -3.437439
  H       0.323739     -1.654274     -0.286942
  H      -2.500726     -2.315317      0.358643
26
Coordinates from ORCA-job my_molecule_MEP_ALL E -1757.328557421627
  O      -1.845706      0.529372      1.580749
  Si     -0.340506      0.389943      2.325301
  Si     -3.470566      0.551388      1.998738
  C       0.909653      1.476454      1.453733
  C       2.144539      1.054214      1.112262
  H       0.641324      2.531734      1.255479
  H       2.890276      1.724486      0.649950
  H       2.472343      0.013198      1.284131
  Si      0.908505     -1.997946     -1.356688
  O      -0.432876     -1.131278     -0.878286
  O       1.860444     -1.113469     -2.400156
  Si      2.996650      0.104653     -2.566457
  Si     -1.848984     -0.505833     -1.539255
  H       1.677416     -2.327971     -0.112517
  H      -3.656991      1.235870      3.328365
  H      -0.505750      0.847380      3.755385
  H      -4.017915     -0.847344      2.090754
  H       0.137438     -1.035406      2.318523
  H      -1.978320     -0.963651     -2.970224
  H      -3.032398     -1.018605     -0.770411
  H      -1.815201      0.993246     -1.507057
  H       2.340649      1.455571     -2.484937
  H       4.047325      0.002807     -1.491416
  H       3.649507     -0.050373     -3.909342
  H       0.484582     -3.226418     -2.103731
  H      -4.215440      1.307978      0.937107
26
Coordinates from ORCA-job my_molecule_MEP_ALL E -1757.326701651667
  O      -1.841534      0.453836      1.612847
  Si     -0.376271      0.513069      2.451066
  Si     -3.445603      0.144065      2.007505
  C       0.905984      1.513353      1.524389
  C       2.126121      1.045728      1.177651
  H       0.674997      2.569226      1.292297
  H       2.872666      1.681890      0.672288
  H       2.437418      0.005847      1.380571
  Si      0.815411     -1.823653     -1.190626
  O      -0.409951     -0.719034     -0.985667
  O       1.959753     -1.241632     -2.244560
  Si      3.094312     -0.148091     -2.783815
  Si     -1.816306     -0.097580     -1.650451
  H       1.426307     -2.053702      0.157411
  H      -3.840315      0.915732      3.238587
  H      -0.662622      1.174062      3.778099
  H      -3.663515     -1.323177      2.265323
  H       0.148172     -0.877315      2.690294
  H      -1.820660     -0.309623     -3.143448
  H      -3.010813     -0.804011     -1.074455
  H      -1.890494      1.372587     -1.367761
  H       2.529175      1.246372     -2.836540
  H       4.294039     -0.155651     -1.874351
  H       3.510144     -0.564134     -4.164423
  H       0.284509     -3.092591     -1.785880
  H      -4.300923      0.574424      0.853647
26
Coordinates from ORCA-job my_molecule_MEP_ALL E -1757.323783006232
  O      -1.812037      0.315675      1.630139
  Si     -0.417271      0.587392      2.553035
  Si     -3.371141     -0.200396      2.003609
  C       0.912496      1.519276      1.620843
  C       2.136124      1.031705      1.302848
  H       0.714623      2.576774      1.368490
  H       2.891434      1.651147      0.794487
  H       2.437727     -0.007641      1.522830
  Si      0.753595     -1.597724     -1.084256
  O      -0.376212     -0.395318     -1.242439
  O       2.078462     -1.257497     -2.021735
  Si      3.135821     -0.382261     -2.957058
  Si     -1.821475      0.227775     -1.784380
  H       1.182112     -1.647442      0.345131
  H      -4.001564      0.696817      3.033645
  H      -0.839374      1.420746      3.739429
  H      -3.357896     -1.609251      2.534297
  H       0.121631     -0.737021      3.026517
  H      -1.821679      0.270518     -3.289730
  H      -2.970994     -0.630418     -1.335606
  H      -1.971290      1.620791     -1.250814
  H       2.659920      1.031694     -3.160340
  H       4.474122     -0.361741     -2.272704
  H       3.267120     -1.050046     -4.296132
  H       0.189649     -2.911260     -1.531795
  H      -4.193903     -0.162295      0.751690
26
Coordinates from ORCA-job my_molecule_MEP_ALL E -1757.319601363514
  O      -1.747804      0.189399      1.628119
  Si     -0.440846      0.610265      2.631270
  Si     -3.262831     -0.475308      1.967824
  C       0.964391      1.512810      1.770789
  C       2.181424      0.998471      1.468289
  H       0.819913      2.589650      1.561780
  H       2.970858      1.603532      1.003588
  H       2.437329     -0.063977      1.639307
  Si      0.708385     -1.302233     -1.036606
  O      -0.390058     -0.253930     -1.709831
  O       2.166946     -1.157591     -1.828520
  Si      3.118279     -0.588945     -3.066179
  Si     -1.877758      0.441588     -1.948339
  H       0.939201     -0.935349      0.379026
  H      -4.129603      0.496792      2.724251
  H      -0.980875      1.544938      3.684828
  H      -3.127421     -1.732011      2.788412
  H       0.073402     -0.654248      3.267268
  H      -1.997699      0.726132     -3.419081
  H      -2.984441     -0.489334     -1.532099
  H      -1.994433      1.727792     -1.179739
  H       2.739009      0.817579     -3.449248
  H       4.542952     -0.607154     -2.587249
  H       2.990611     -1.471993     -4.278569
  H       0.222039     -2.709472     -1.153554
  H      -3.940974     -0.817406      0.674266
26
Coordinates from ORCA-job my_molecule_MEP_ALL E -1757.310690416133
  O      -1.680984      0.106331      1.608204
  Si     -0.442088      0.598685      2.674187
  Si     -3.171284     -0.630497      1.918904
  C       1.042230      1.479599      1.918760
  C       2.221647      0.902565      1.580744
  H       0.970156      2.575316      1.774948
  H       3.052421      1.467259      1.142689
  H       2.386933     -0.190859      1.656695
  Si      0.669990     -0.982137     -1.014960
  O      -0.475105     -0.310562     -2.061202
  O       2.177170     -1.016622     -1.737379
  Si      3.077458     -0.695535     -3.094857
  Si     -1.922345      0.481124     -2.072329
  H       0.741648     -0.099351      0.145625
  H      -4.160592      0.351964      2.491708
  H      -1.058885      1.573197      3.641312
  H      -3.016448     -1.767567      2.897093
  H       0.038412     -0.643033      3.375984
  H      -2.137873      0.908139     -3.495027
  H      -3.032699     -0.441548     -1.636432
  H      -1.959700      1.701431     -1.179974
  H       2.777016      0.681855     -3.624600
  H       4.529407     -0.775873     -2.711580
  H       2.797660     -1.708371     -4.173401
  H       0.308070     -2.388502     -0.662451
  H      -3.732217     -1.177008      0.637339
26
Coordinates from ORCA-job my_molecule_MEP_ALL E -1757.299702169077
  O      -1.638059      0.019369      1.566192
  Si     -0.447730      0.565839      2.661143
  Si     -3.124041     -0.739466      1.871539
  C       1.088756      1.369690      1.921107
  C       2.227496      0.712407      1.571818
  H       1.078365      2.466519      1.780064
  H       3.065468      1.211484      1.071363
  H       2.312845     -0.389740      1.641213
  Si      0.691109     -0.611732     -0.905667
  O      -0.485455     -0.292635     -2.061000
  O       2.180873     -0.837405     -1.632561
  Si      3.036252     -0.732514     -3.071906
  Si     -1.946893      0.493727     -2.089831
  H       0.617382      0.587717     -0.059240
  H      -4.153065      0.256012      2.342554
  H      -1.093953      1.597335      3.544373
  H      -2.968733     -1.796616      2.934987
  H       0.011001     -0.637370      3.434972
  H      -2.129743      0.912875     -3.514248
  H      -3.038385     -0.453691     -1.671353
  H      -2.029820      1.714480     -1.196958
  H       2.790364      0.601401     -3.728590
  H       4.503853     -0.870793     -2.760080
  H       2.650357     -1.829145     -4.034268
  H       0.425668     -1.929964     -0.229023
  H      -3.623912     -1.387785      0.613400
26
Coordinates from ORCA-job my_molecule_MEP_ALL E -1757.255748599502
  O      -1.662843     -0.005930      1.560578
  Si     -0.458040      0.559765      2.617575
  Si     -3.145578     -0.764682      1.869430
  C       1.036009      1.291147      1.741255
  C       2.196629      0.602371      1.439847
  H       1.061818      2.400256      1.672940
  H       3.040571      1.102158      0.967591
  H       2.324330     -0.451289      1.682314
  Si      0.764490     -0.511132     -0.795806
  O      -0.412002     -0.196980     -1.925309
  O       2.203995     -0.820618     -1.621458
  Si      3.041352     -0.733079     -3.077062
  Si     -1.919610      0.507798     -2.049370
  H       0.505456      0.825185      0.145937
  H      -4.165010      0.241144      2.331001
  H      -1.078446      1.610387      3.508329
  H      -2.976507     -1.807503      2.941518
  H       0.016901     -0.613235      3.428618
  H      -2.075552      0.882426     -3.491816
  H      -2.996965     -0.469585     -1.663009
  H      -2.074136      1.741442     -1.192307
  H       2.791504      0.592807     -3.738550
  H       4.508073     -0.876399     -2.778726
  H       2.641970     -1.834794     -4.024882
  H       0.463329     -1.854042     -0.160428
  H      -3.631738     -1.417618      0.611788
26
Coordinates from ORCA-job my_molecule_MEP_ALL E -1757.250079903396
  O      -1.668210     -0.010900      1.557659
  Si     -0.469140      0.561685      2.618227
  Si     -3.147236     -0.767709      1.871225
  C       0.910019      1.300981      1.569134
  C       2.138435      0.485929      1.217886
  H       1.064012      2.379044      1.703459
  H       3.010930      1.066654      0.933125
  H       2.347750     -0.452086      1.728365
  Si      0.904110     -0.575815     -0.724300
  O      -0.355946     -0.142827     -1.815572
  O       2.227204     -0.863460     -1.664944
  Si      3.056058     -0.740161     -3.100567
  Si     -1.903590      0.508558     -2.031123
  H       0.444344      1.103747      0.398369
  H      -4.167213      0.239719      2.330233
  H      -1.082728      1.610086      3.508245
  H      -2.977462     -1.809823      2.942674
  H       0.019534     -0.603872      3.426942
  H      -2.059502      0.871453     -3.480076
  H      -2.983154     -0.471514     -1.664408
  H      -2.078374      1.742269     -1.194663
  H       2.791483      0.597131     -3.744417
  H       4.520277     -0.876725     -2.784851
  H       2.644844     -1.842031     -4.041750
  H       0.445376     -1.890042     -0.169940
  H      -3.631821     -1.420292      0.611067
26
Coordinates from ORCA-job my_molecule_MEP_ALL E -1757.327372269760
  O      -1.680514     -0.020965      1.557070
  Si     -0.482464      0.569351      2.604325
  Si     -3.157885     -0.775471      1.872814
  C       0.862087      1.279538      1.474849
  C       1.994278      0.364336      0.990838
  H       1.120509      2.354840      1.784567
  H       2.913776      0.987142      0.814522
  H       2.312580     -0.418700      1.703108
  Si      1.023421     -0.607275     -0.638075
  O      -0.270287     -0.058695     -1.640716
  O       2.263645     -0.901428     -1.686119
  Si      3.074221     -0.747274     -3.123733
  Si     -1.839137      0.502382     -1.981658
  H       0.319029      1.386748      0.513043
  H      -4.172293      0.236019      2.331336
  H      -1.087740      1.612238      3.505629
  H      -2.982217     -1.814008      2.944974
  H       0.027048     -0.587204      3.420433
  H      -2.002997      0.843267     -3.452012
  H      -2.942797     -0.484122     -1.654225
  H      -2.092552      1.754059     -1.189409
  H       2.792250      0.591505     -3.743039
  H       4.531242     -0.874831     -2.801572
  H       2.655966     -1.842633     -4.058659
  H       0.459470     -1.923107     -0.160639
  H      -3.638637     -1.425713      0.612349
26
Coordinates from ORCA-job my_molecule_MEP_ALL E -1757.381892156518
  O      -1.531387     -0.189040      1.457558
  Si     -0.673753      0.773353      2.552136
  Si     -2.707040     -1.393152      1.521079
  C       0.784870      1.534419      1.635268
  C       1.727508      0.546828      0.917056
  H       1.342567      2.133622      2.391325
  H       2.622398      1.080485      0.526668
  H       2.125192     -0.217759      1.621528
  Si      1.021892     -0.356682     -0.583742
  O      -0.012174      0.654981     -1.425272
  O       2.335556     -0.692794     -1.566373
  Si      2.682120     -1.266112     -3.102628
  Si     -1.607491      1.052287     -1.734327
  H       0.375450      2.274017      0.912901
  H      -4.078157     -0.780137      1.438221
  H      -1.569108      1.854200      3.100168
  H      -2.590293     -2.162522      2.811329
  H      -0.208300     -0.095591      3.694959
  H      -1.692266      1.561586     -3.145643
  H      -2.511230     -0.144482     -1.595665
  H      -2.069771      2.136838     -0.800032
  H       2.446645     -0.199271     -4.136982
  H       4.128531     -1.668646     -3.128506
  H       1.828496     -2.463189     -3.435488
  H       0.326569     -1.653938     -0.285699
  H      -2.496825     -2.319302      0.360162
26
Coordinates from ORCA-job my_molecule_MEP_ALL E -1757.328557421627
  O      -1.845706      0.529372      1.580749
  Si     -0.340506      0.389943      2.325301
  Si     -3.470566      0.551388      1.998738
  C       0.909653      1.476454      1.453733
  C       2.144539      1.054214      1.112262
  H       0.641324      2.531734      1.255479
  H       2.890276      1.724486      0.649950
  H       2.472343      0.013198      1.284131
  Si      0.908505     -1.997946     -1.356688
  O      -0.432876     -1.131278     -0.878286
  O       1.860444     -1.113469     -2.400156
  Si      2.996650      0.104653     -2.566457
  Si     -1.848984     -0.505833     -1.539255
  H       1.677416     -2.327971     -0.112517
  H      -3.656991      1.235870      3.328365
  H      -0.505750      0.847380      3.755385
  H      -4.017915     -0.847344      2.090754
  H       0.137438     -1.035406      2.318523
  H      -1.978320     -0.963651     -2.970224
  H      -3.032398     -1.018605     -0.770411
  H      -1.815201      0.993246     -1.507057
  H       2.340649      1.455571     -2.484937
  H       4.047325      0.002807     -1.491416
  H       3.649507     -0.050373     -3.909342
  H       0.484582     -3.226418     -2.103731
  H      -4.215440      1.307978      0.937107
26
Coordinates from ORCA-job my_molecule_MEP_ALL E -1757.326676097855
  O      -1.841287      0.453625      1.613126
  Si     -0.376805      0.513246      2.451782
  Si     -3.445389      0.142822      2.007577
  C       0.908065      1.512461      1.523808
  C       2.123146      1.046101      1.179255
  H       0.674430      2.569852      1.291956
  H       2.873315      1.682222      0.672762
  H       2.436942      0.005722      1.381455
  Si      0.815095     -1.822106     -1.190773
  O      -0.408600     -0.718590     -0.986329
  O       1.959255     -1.243143     -2.243282
  Si      3.095333     -0.148470     -2.784917
  Si     -1.817051     -0.095897     -1.651287
  H       1.425610     -2.052303      0.158232
  H      -3.840975      0.914939      3.238175
  H      -0.662799      1.174812      3.778163
  H      -3.662011     -1.324492      2.266367
  H       0.148268     -0.876723      2.691318
  H      -1.820427     -0.307313     -3.144031
  H      -3.010849     -0.803191     -1.075625
  H      -1.890953      1.373609     -1.367159
  H       2.529484      1.245247     -2.837662
  H       4.295023     -0.156199     -1.876006
  H       3.509809     -0.565851     -4.165231
  H       0.283918     -3.092177     -1.784846
  H      -4.300547      0.571799      0.853174
26
Coordinates from ORCA-job my_molecule_MEP_ALL E -1757.323758838658
  O      -1.810855      0.314835      1.630401
  Si     -0.418616      0.586917      2.554903
  Si     -3.370243     -0.202486      2.003373
  C       0.917467      1.517894      1.619815
  C       2.130030      1.031531      1.306834
  H       0.713963      2.577660      1.368844
  H       2.893493      1.652213      0.795881
  H       2.436923     -0.007656      1.524413
  Si      0.753179     -1.593830     -1.085045
  O      -0.373378     -0.395709     -1.245373
  O       2.077615     -1.258725     -2.018337
  Si      3.136994     -0.383296     -2.958885
  Si     -1.823642      0.230488     -1.786714
  H       1.180180     -1.642790      0.346404
  H      -4.002284      0.695667      3.031797
  H      -0.839791      1.421287      3.739241
  H      -3.355449     -1.610508      2.536645
  H       0.121857     -0.735970      3.028185
  H      -1.823227      0.274456     -3.291196
  H      -2.971166     -0.629271     -1.337723
  H      -1.972119      1.621793     -1.250479
  H       2.660309      1.029750     -3.162303
  H       4.475326     -0.363180     -2.275757
  H       3.265495     -1.053424     -4.296507
  H       0.189490     -2.910429     -1.529241
  H      -4.191553     -0.167216      0.750825
26
Coordinates from ORCA-job my_molecule_MEP_ALL E -1757.319378302038
  O      -1.745414      0.188809      1.627975
  Si     -0.441890      0.609603      2.632834
  Si     -3.261842     -0.477188      1.967164
  C       0.969683      1.512874      1.770188
  C       2.173997      0.995701      1.473736
  H       0.819722      2.589715      1.563258
  H       2.974546      1.605231      1.004785
  H       2.436099     -0.063236      1.640683
  Si      0.708230     -1.296493     -1.040043
  O      -0.384987     -0.258124     -1.713017
  O       2.162266     -1.157818     -1.822408
  Si      3.120386     -0.588924     -3.069592
  Si     -1.881803      0.443961     -1.951343
  H       0.936359     -0.928311      0.378453
  H      -4.129036      0.495576      2.721607
  H      -0.981575      1.544662      3.684977
  H      -3.125181     -1.732213      2.789945
  H       0.073737     -0.653652      3.268670
  H      -2.000565      0.728765     -3.420279
  H      -2.984743     -0.488860     -1.534078
  H      -1.994121      1.727266     -1.180149
  H       2.739497      0.815662     -3.451021
  H       4.542990     -0.608833     -2.589244
  H       2.988603     -1.474868     -4.277160
  H       0.222335     -2.707989     -1.149495
  H      -3.937292     -0.821315      0.673556
26
Coordinates from ORCA-job my_molecule_MEP_ALL E -1757.310189157150
  O      -1.676632      0.106690      1.608519
  Si     -0.444389      0.597632      2.675676
  Si     -3.171628     -0.632128      1.918064
  C       1.048195      1.480154      1.917141
  C       2.212462      0.898308      1.586498
  H       0.969356      2.573957      1.774843
  H       3.056364      1.468834      1.142094
  H       2.386060     -0.189680      1.658835
  Si      0.664521     -0.977023     -1.027038
  O      -0.455485     -0.322992     -2.056136
  O       2.169578     -1.015726     -1.729488
  Si      3.081006     -0.694584     -3.100580
  Si     -1.935533      0.487632     -2.074631
  H       0.739473     -0.091998      0.145606
  H      -4.159190      0.351238      2.489746
  H      -1.059691      1.572941      3.641556
  H      -3.014682     -1.767447      2.897663
  H       0.038563     -0.642549      3.377521
  H      -2.139783      0.908485     -3.495514
  H      -3.032383     -0.441485     -1.638156
  H      -1.958689      1.699543     -1.181434
  H       2.777609      0.680752     -3.625899
  H       4.528895     -0.776551     -2.712032
  H       2.796453     -1.709580     -4.171488
  H       0.308494     -2.385530     -0.658350
  H      -3.728944     -1.178893      0.636983
26
Coordinates from ORCA-job my_molecule_MEP_ALL E -1757.300329610675
  O      -1.635465      0.019733      1.566907
  Si     -0.449046      0.564932      2.662709
  Si     -3.124195     -0.740173      1.871325
  C       1.098776      1.365291      1.919332
  C       2.214323      0.712510      1.577815
  H       1.076155      2.465266      1.775193
  H       3.069344      1.212400      1.069857
  H       2.313319     -0.389671      1.644845
  Si      0.684942     -0.614391     -0.916332
  O      -0.474789     -0.298528     -2.058045
  O       2.180899     -0.834185     -1.631405
  Si      3.036964     -0.731625     -3.072822
  Si     -1.953585      0.496384     -2.091295
  H       0.615355      0.592542     -0.059340
  H      -4.152185      0.255762      2.341777
  H      -1.094137      1.597386      3.544577
  H      -2.967843     -1.796556      2.935329
  H       0.010675     -0.636807      3.436613
  H      -2.131247      0.912633     -3.515202
  H      -3.037912     -0.454247     -1.672190
  H      -2.028754      1.712827     -1.198241
  H       2.790987      0.600598     -3.728964
  H       4.502628     -0.870263     -2.759731
  H       2.650088     -1.828613     -4.031800
  H       0.426691     -1.924898     -0.224131
  H      -3.621988     -1.388307      0.613218
26
Coordinates from ORCA-job my_molecule_MEP_ALL E -1757.253667730368
  O      -1.661951     -0.005892      1.561329
  Si     -0.464370      0.556415      2.621979
  Si     -3.144167     -0.764563      1.869389
  C       1.050331      1.287692      1.729673
  C       2.173308      0.612063      1.442931
  H       1.060209      2.393660      1.669213
  H       3.042466      1.100042      0.958476
  H       2.326841     -0.462260      1.687999
  Si      0.766131     -0.503777     -0.789076
  O      -0.411118     -0.194174     -1.922119
  O       2.204532     -0.822183     -1.619687
  Si      3.043612     -0.732401     -3.079939
  Si     -1.914800      0.506143     -2.048242
  H       0.495807      0.838637      0.145490
  H      -4.165244      0.241091      2.330692
  H      -1.077593      1.610164      3.507218
  H      -2.976202     -1.808176      2.942350
  H       0.017068     -0.611581      3.429778
  H      -2.074835      0.880737     -3.490834
  H      -2.994466     -0.470511     -1.663821
  H      -2.073687      1.740463     -1.193449
  H       2.792052      0.594051     -3.740392
  H       4.510179     -0.875874     -2.778993
  H       2.641944     -1.836099     -4.025521
  H       0.464457     -1.855325     -0.155687
  H      -3.630503     -1.418344      0.611243
26
Coordinates from ORCA-job my_molecule_MEP_ALL E -1757.243968399596
  O      -1.667908     -0.011611      1.558557
  Si     -0.466690      0.565939      2.617118
  Si     -3.145904     -0.766943      1.870816
  C       0.890917      1.290782      1.546888
  C       2.130484      0.479294      1.221281
  H       1.063514      2.390661      1.700232
  H       3.028493      1.077226      0.934825
  H       2.349825     -0.456265      1.732923
  Si      0.903866     -0.574440     -0.730467
  O      -0.355075     -0.146561     -1.820251
  O       2.226225     -0.858148     -1.665118
  Si      3.054932     -0.738865     -3.098836
  Si     -1.905487      0.508634     -2.033663
  H       0.454880      1.088256      0.415043
  H      -4.166572      0.240020      2.330170
  H      -1.082564      1.609954      3.509003
  H      -2.977103     -1.809855      2.943082
  H       0.019527     -0.606562      3.429943
  H      -2.062333      0.872608     -3.483303
  H      -2.984955     -0.472880     -1.664499
  H      -2.077303      1.742241     -1.194671
  H       2.792260      0.595564     -3.743684
  H       4.517722     -0.875940     -2.784251
  H       2.645003     -1.840160     -4.038430
  H       0.444900     -1.883051     -0.163715
  H      -3.630654     -1.419896      0.611010
26
Coordinates from ORCA-job my_molecule_MEP_ALL E -1757.329179442846
  O      -1.681012     -0.021173      1.558790
  Si     -0.478790      0.568403      2.602215
  Si     -3.155398     -0.774288      1.872086
  C       0.858141      1.301603      1.487663
  C       2.000816      0.377182      1.000613
  H       1.113657      2.338088      1.771003
  H       2.920304      0.989536      0.819136
  H       2.315789     -0.427495      1.708804
  Si      1.016830     -0.607552     -0.642699
  O      -0.274606     -0.061945     -1.651161
  O       2.260545     -0.897807     -1.683299
  Si      3.072451     -0.746591     -3.121096
  Si     -1.842600      0.503002     -1.984784
  H       0.323164      1.365780      0.504042
  H      -4.171935      0.236477      2.331323
  H      -1.087034      1.612664      3.506246
  H      -2.981672     -1.814461      2.945666
  H       0.026724     -0.589025      3.423633
  H      -2.005630      0.844099     -3.452253
  H      -2.942439     -0.483413     -1.655375
  H      -2.090890      1.752607     -1.190399
  H       2.792733      0.593069     -3.744692
  H       4.532271     -0.874421     -2.801285
  H       2.655290     -1.843061     -4.058332
  H       0.460549     -1.915689     -0.157617
  H      -3.637258     -1.425592      0.611773
26
Coordinates from ORCA-job my_molecule_MEP_ALL E -1757.381892156518
  O      -1.531391     -0.189181      1.457536
  Si     -0.673870      0.773308      2.552119
  Si     -2.706923     -1.393410      1.521049
  C       0.784690      1.534512      1.635267
  C       1.727439      0.547010      0.917078
  H       1.342315      2.133778      2.391327
  H       2.622281      1.080753      0.526699
  H       2.125188     -0.217531      1.621563
  Si      1.021937     -0.356584     -0.583723
  O      -0.012218      0.654967     -1.425278
  O       2.335650     -0.692573     -1.566330
  Si      2.682296     -1.265870     -3.102575
  Si     -1.607570      1.052110     -1.734361
  H       0.375207      2.274063      0.912886
  H      -4.078101     -0.780534      1.438164
  H      -1.569342      1.854070      3.100127
  H      -2.590119     -2.162757      2.811308
  H      -0.208348     -0.095579      3.694956
  H      -1.692374      1.561388     -3.145684
  H      -2.511191     -0.144749     -1.595703
  H      -2.069973      2.136622     -0.800084
  H       2.446729     -0.199062     -4.136942
  H       4.128747     -1.668258     -3.128427
  H       1.828798     -2.463036     -3.435438
  H       0.326740     -1.653908     -0.285679
  H      -2.496597     -2.319550      0.360144
26
Coordinates from ORCA-job my_molecule_MEP_ALL E -1757.328557421627
  O      -1.845706      0.529372      1.580749
  Si     -0.340506      0.389943      2.325301
  Si     -3.470566      0.551388      1.998738
  C       0.909653      1.476454      1.453733
  C       2.144539      1.054214      1.112262
  H       0.641324      2.531734      1.255479
  H       2.890276      1.724486      0.649950
  H       2.472343      0.013198      1.284131
  Si      0.908505     -1.997946     -1.356688
  O      -0.432876     -1.131278     -0.878286
  O       1.860444     -1.113469     -2.400156
  Si      2.996650      0.104653     -2.566457
  Si     -1.848984     -0.505833     -1.539255
  H       1.677416     -2.327971     -0.112517
  H      -3.656991      1.235870      3.328365
  H      -0.505750      0.847380      3.755385
  H      -4.017915     -0.847344      2.090754
  H       0.137438     -1.035406      2.318523
  H      -1.978320     -0.963651     -2.970224
  H      -3.032398     -1.018605     -0.770411
  H      -1.815201      0.993246     -1.507057
  H       2.340649      1.455571     -2.484937
  H       4.047325      0.002807     -1.491416
  H       3.649507     -0.050373     -3.909342
  H       0.484582     -3.226418     -2.103731
  H      -4.215440      1.307978      0.937107
26
Coordinates from ORCA-job my_molecule_MEP_ALL E -1757.326669755251
  O      -1.841220      0.453429      1.613318
  Si     -0.376890      0.513483      2.452218
  Si     -3.445159      0.141734      2.007659
  C       0.906473      1.513289      1.524230
  C       2.124467      1.045606      1.179324
  H       0.674163      2.569758      1.291799
  H       2.873162      1.681979      0.673594
  H       2.436376      0.005908      1.382188
  Si      0.814884     -1.821561     -1.190457
  O      -0.408543     -0.717468     -0.987106
  O       1.959856     -1.243622     -2.242891
  Si      3.095606     -0.149372     -2.785573
  Si     -1.817049     -0.094781     -1.651720
  H       1.424958     -2.051071      0.158847
  H      -3.841536      0.914244      3.237791
  H      -0.662986      1.175512      3.778253
  H      -3.660722     -1.325609      2.267272
  H       0.148329     -0.876243      2.692238
  H      -1.820256     -0.305326     -3.144575
  H      -3.010897     -0.802517     -1.076606
  H      -1.891347      1.374537     -1.366635
  H       2.529737      1.244349     -2.838651
  H       4.295891     -0.156676     -1.877412
  H       3.509487     -0.567349     -4.165952
  H       0.283441     -3.091746     -1.783919
  H      -4.300224      0.569515      0.852768
26
Coordinates from ORCA-job my_molecule_MEP_ALL E -1757.323749555863
  O      -1.810259      0.314057      1.630533
  Si     -0.418698      0.586920      2.555852
  Si     -3.369340     -0.204258      2.003274
  C       0.914519      1.519475      1.620978
  C       2.133132      1.030466      1.307243
  H       0.713794      2.577481      1.369305
  H       2.893475      1.651749      0.798128
  H       2.435986     -0.007493      1.525772
  Si      0.752953     -1.592278     -1.084648
  O      -0.373608     -0.394181     -1.248549
  O       2.078784     -1.258711     -2.017038
  Si      3.137008     -0.384901     -2.959605
  Si     -1.823976      0.232002     -1.788062
  H       1.178504     -1.638864      0.347232
  H      -4.002852      0.694667      3.030241
  H      -0.840207      1.421872      3.739244
  H      -3.353386     -1.611534      2.538613
  H       0.122056     -0.735243      3.029688
  H      -1.824559      0.277738     -3.292498
  H      -2.971364     -0.628368     -1.339432
  H      -1.972811      1.622707     -1.250138
  H       2.660589      1.028218     -3.164001
  H       4.476346     -0.364374     -2.278307
  H       3.264086     -1.056266     -4.296890
  H       0.189438     -2.909526     -1.527032
  H      -4.189611     -0.171355      0.750098
26
Coordinates from ORCA-job my_molecule_MEP_ALL E -1757.319421145733
  O      -1.744253      0.188108      1.627798
  Si     -0.441586      0.609499      2.633628
  Si     -3.260460     -0.478547      1.966747
  C       0.966979      1.514613      1.771889
  C       2.177160      0.994808      1.474405
  H       0.819865      2.589622      1.564318
  H       2.974652      1.604365      1.007344
  H       2.434980     -0.063522      1.642043
  Si      0.707608     -1.294581     -1.039881
  O      -0.385890     -0.258062     -1.717335
  O       2.162919     -1.156592     -1.821443
  Si      3.119926     -0.590064     -3.069714
  Si     -1.882074      0.444310     -1.953003
  H       0.933996     -0.922960      0.377656
  H      -4.128539      0.494627      2.719642
  H      -0.982110      1.544496      3.685265
  H      -3.123341     -1.732403      2.791212
  H       0.074102     -0.653294      3.269876
  H      -2.002927      0.730908     -3.421414
  H      -2.985137     -0.488564     -1.535558
  H      -1.993907      1.727013     -1.180336
  H       2.739755      0.814420     -3.452569
  H       4.543129     -0.610116     -2.590878
  H       2.986916     -1.477221     -4.276344
  H       0.222645     -2.706444     -1.146329
  H      -3.934406     -0.824420      0.672982
26
Coordinates from ORCA-job my_molecule_MEP_ALL E -1757.310845751963
  O      -1.675302      0.106058      1.608389
  Si     -0.443999      0.597446      2.676598
  Si     -3.170166     -0.633008      1.917597
  C       1.045400      1.481641      1.918808
  C       2.215837      0.896624      1.586764
  H       0.969323      2.573140      1.774586
  H       3.055820      1.466939      1.143469
  H       2.385047     -0.190565      1.660729
  Si      0.663474     -0.975235     -1.027230
  O      -0.456412     -0.323708     -2.058689
  O       2.169825     -1.013905     -1.729286
  Si      3.080258     -0.694967     -3.100221
  Si     -1.935638      0.487135     -2.075880
  H       0.737316     -0.086681      0.143656
  H      -4.158071      0.350641      2.488199
  H      -1.060324      1.572775      3.641901
  H      -3.013185     -1.767428      2.898201
  H       0.038743     -0.642334      3.378944
  H      -2.141435      0.909059     -3.496455
  H      -3.032780     -0.441744     -1.639316
  H      -1.958061      1.698817     -1.182059
  H       2.777955      0.680223     -3.627432
  H       4.528658     -0.777215     -2.712657
  H       2.795079     -1.710874     -4.170393
  H       0.308942     -2.382170     -0.654749
  H      -3.726306     -1.180664      0.636529
26
Coordinates from ORCA-job my_molecule_MEP_ALL E -1757.300761492397
  O      -1.634778      0.019335      1.567295
  Si     -0.448417      0.564559      2.663382
  Si     -3.123459     -0.740534      1.871343
  C       1.093899      1.367796      1.920513
  C       2.219669      0.708263      1.575487
  H       1.074873      2.462322      1.770800
  H       3.068063      1.209743      1.070187
  H       2.313309     -0.390270      1.648179
  Si      0.684605     -0.613984     -0.917786
  O      -0.475351     -0.298878     -2.059437
  O       2.181618     -0.831835     -1.631501
  Si      3.036874     -0.730956     -3.072774
  Si     -1.953411      0.496003     -2.091835
  H       0.612851      0.596382     -0.059443
  H      -4.151530      0.255559      2.341298
  H      -1.093972      1.597455      3.544694
  H      -2.967161     -1.796644      2.935668
  H       0.010556     -0.636521      3.438034
  H      -2.132134      0.912499     -3.515849
  H      -3.037561     -0.454837     -1.672625
  H      -2.028217      1.712187     -1.198812
  H       2.791322      0.600305     -3.729676
  H       4.501848     -0.869913     -2.759863
  H       2.649498     -1.828333     -4.030302
  H       0.427584     -1.920847     -0.219993
  H      -3.620578     -1.388853      0.613016
26
Coordinates from ORCA-job my_molecule_MEP_ALL E -1757.252837329603
  O      -1.661615     -0.006100      1.561858
  Si     -0.464568      0.555896      2.622791
  Si     -3.143575     -0.764716      1.869381
  C       1.040490      1.291534      1.730308
  C       2.182482      0.605315      1.443277
  H       1.059418      2.391593      1.665157
  H       3.040760      1.097476      0.955468
  H       2.326494     -0.463035      1.689991
  Si      0.764651     -0.498344     -0.787037
  O      -0.410012     -0.194083     -1.921878
  O       2.204334     -0.821586     -1.618405
  Si      3.043888     -0.731739     -3.080352
  Si     -1.913402      0.505655     -2.048178
  H       0.490973      0.841476      0.141661
  H      -4.165022      0.241023      2.330668
  H      -1.076971      1.610277      3.507018
  H      -2.975785     -1.808530      2.942917
  H       0.017368     -0.611452      3.431329
  H      -2.074945      0.880024     -3.490433
  H      -2.993085     -0.471092     -1.664216
  H      -2.073193      1.739924     -1.193945
  H       2.792367      0.594760     -3.741659
  H       4.511000     -0.875382     -2.779392
  H       2.641708     -1.836477     -4.025563
  H       0.465660     -1.853787     -0.151890
  H      -3.629421     -1.418630      0.611125
26
Coordinates from ORCA-job my_molecule_MEP_ALL E -1757.248289618492
  O      -1.667349     -0.011870      1.559506
  Si     -0.467253      0.566098      2.617719
  Si     -3.145027     -0.766715      1.870900
  C       0.886065      1.291980      1.536077
  C       2.130386      0.481233      1.220281
  H       1.061472      2.389746      1.696311
  H       3.031980      1.078607      0.937210
  H       2.350814     -0.460314      1.736347
  Si      0.903126     -0.573040     -0.732733
  O      -0.355456     -0.147862     -1.823062
  O       2.226429     -0.854984     -1.665427
  Si      3.054695     -0.737845     -3.098572
  Si     -1.905361      0.508106     -2.034873
  H       0.458297      1.079824      0.422108
  H      -4.166075      0.240140      2.330251
  H      -1.082145      1.609929      3.509594
  H      -2.976788     -1.809966      2.943385
  H       0.019551     -0.607298      3.431538
  H      -2.064080      0.873250     -3.485024
  H      -2.985644     -0.473691     -1.664592
  H      -2.076544      1.742118     -1.194714
  H       2.792646      0.595058     -3.743589
  H       4.516309     -0.875267     -2.784039
  H       2.644858     -1.839046     -4.036539
  H       0.444846     -1.878481     -0.159025
  H      -3.629752     -1.419708      0.610963
26
Coordinates from ORCA-job my_molecule_MEP_ALL E -1757.326878328141
  O      -1.680143     -0.021091      1.559798
  Si     -0.477071      0.568834      2.602243
  Si     -3.154475     -0.774049      1.872097
  C       0.852510      1.301823      1.485972
  C       2.001555      0.381726      1.008528
  H       1.111368      2.338340      1.764696
  H       2.926606      0.992432      0.821783
  H       2.317093     -0.430827      1.710989
  Si      1.013540     -0.605862     -0.645019
  O      -0.276649     -0.064150     -1.657394
  O       2.259173     -0.895340     -1.682389
  Si      3.071399     -0.745884     -3.119755
  Si     -1.844746      0.503425     -1.986779
  H       0.326955      1.352686      0.503188
  H      -4.171434      0.236637      2.331375
  H      -1.086316      1.612350      3.506600
  H      -2.981201     -1.814698      2.946034
  H       0.026677     -0.590257      3.425646
  H      -2.007596      0.844796     -3.452774
  H      -2.942383     -0.483233     -1.656017
  H      -2.089802      1.751865     -1.190852
  H       2.793046      0.593834     -3.745692
  H       4.532392     -0.873953     -2.801289
  H       2.654786     -1.842916     -4.057825
  H       0.460831     -1.911020     -0.154663
  H      -3.636113     -1.425468      0.611501
26
Coordinates from ORCA-job my_molecule_MEP_ALL E -1757.381892156518
  O      -1.531335     -0.189328      1.457575
  Si     -0.673907      0.773293      2.552114
  Si     -2.706721     -1.393698      1.521145
  C       0.784542      1.534649      1.635210
  C       1.727393      0.547243      0.917025
  H       1.342111      2.134002      2.391242
  H       2.622162      1.081084      0.526612
  H       2.125251     -0.217232      1.621521
  Si      1.021967     -0.356476     -0.583737
  O      -0.012329      0.654929     -1.425295
  O       2.335699     -0.692331     -1.566364
  Si      2.682379     -1.265626     -3.102603
  Si     -1.607736      1.051871     -1.734352
  H       0.374953      2.274132      0.912819
  H      -4.077974     -0.780990      1.438276
  H      -1.569497      1.853961      3.100115
  H      -2.589795     -2.162997      2.811422
  H      -0.208254     -0.095509      3.694963
  H      -1.692633      1.561102     -3.145686
  H      -2.511209     -0.145094     -1.595643
  H      -2.070249      2.136352     -0.800093
  H       2.446660     -0.198873     -4.136991
  H       4.128879     -1.667840     -3.128476
  H       1.829018     -2.462904     -3.435415
  H       0.326934     -1.653876     -0.285644
  H      -2.496309     -2.319842      0.360260
26
Coordinates from ORCA-job my_molecule_MEP_ALL E -1757.328557421627
  O      -1.845706      0.529372      1.580749
  Si     -0.340506      0.389943      2.325301
  Si     -3.470566      0.551388      1.998738
  C       0.909653      1.476454      1.453733
  C       2.144539      1.054214      1.112262
  H       0.641324      2.531734      1.255479
  H       2.890276      1.724486      0.649950
  H       2.472343      0.013198      1.284131
  Si      0.908505     -1.997946     -1.356688
  O      -0.432876     -1.131278     -0.878286
  O       1.860444     -1.113469     -2.400156
  Si      2.996650      0.104653     -2.566457
  Si     -1.848984     -0.505833     -1.539255
  H       1.677416     -2.327971     -0.112517
  H      -3.656991      1.235870      3.328365
  H      -0.505750      0.847380      3.755385
  H      -4.017915     -0.847344      2.090754
  H       0.137438     -1.035406      2.318523
  H      -1.978320     -0.963651     -2.970224
  H      -3.032398     -1.018605     -0.770411
  H      -1.815201      0.993246     -1.507057
  H       2.340649      1.455571     -2.484937
  H       4.047325      0.002807     -1.491416
  H       3.649507     -0.050373     -3.909342
  H       0.484582     -3.226418     -2.103731
  H      -4.215440      1.307978      0.937107
26
Coordinates from ORCA-job my_molecule_MEP_ALL E -1757.326679517812
  O      -1.841130      0.452942      1.613772
  Si     -0.377138      0.514078      2.453206
  Si     -3.444604      0.139212      2.007864
  C       0.905249      1.513914      1.524634
  C       2.124733      1.045627      1.180247
  H       0.673448      2.569952      1.291363
  H       2.873150      1.681611      0.675314
  H       2.435287      0.005862      1.383960
  Si      0.814436     -1.820428     -1.189645
  O      -0.408636     -0.714722     -0.988961
  O       1.961401     -1.244605     -2.242092
  Si      3.096143     -0.151556     -2.787060
  Si     -1.816914     -0.092258     -1.652660
  H       1.423428     -2.048205      0.160249
  H      -3.842835      0.912627      3.236883
  H      -0.663448      1.177132      3.778513
  H      -3.657739     -1.328187      2.269369
  H       0.148494     -0.875155      2.694375
  H      -1.819876     -0.300715     -3.145857
  H      -3.011001     -0.800964     -1.078881
  H      -1.892257      1.376699     -1.365427
  H       2.530324      1.242277     -2.840950
  H       4.297898     -0.157785     -1.880667
  H       3.508725     -0.570827     -4.167613
  H       0.282343     -3.090739     -1.781766
  H      -4.299481      0.564214      0.851830
26
Coordinates from ORCA-job my_molecule_MEP_ALL E -1757.323806315154
  O      -1.809016      0.312174      1.630847
  Si     -0.418882      0.587129      2.557841
  Si     -3.367195     -0.208362      2.003108
  C       0.912727      1.520236      1.622709
  C       2.134522      1.030653      1.309594
  H       0.713240      2.577964      1.370200
  H       2.894128      1.651018      0.802923
  H       2.434278     -0.008165      1.529108
  Si      0.752395     -1.588944     -1.083535
  O      -0.374468     -0.390405     -1.256042
  O       2.081700     -1.258556     -2.014190
  Si      3.136974     -0.388649     -2.961247
  Si     -1.824598      0.235412     -1.791095
  H       1.174589     -1.629728      0.349080
  H      -4.004157      0.692325      3.026591
  H      -0.841271      1.423266      3.739421
  H      -3.348615     -1.613889      2.543163
  H       0.122580     -0.733679      3.033216
  H      -1.827665      0.285350     -3.295540
  H      -2.971801     -0.626274     -1.343400
  H      -1.974395      1.624829     -1.249349
  H       2.661246      1.024651     -3.167947
  H       4.478684     -0.367163     -2.284208
  H       3.260783     -1.062862     -4.297747
  H       0.189351     -2.907361     -1.521888
  H      -4.185134     -0.180968      0.748389
26
Coordinates from ORCA-job my_molecule_MEP_ALL E -1757.319478189195
  O      -1.741801      0.186391      1.627405
  Si     -0.440980      0.609420      2.635419
  Si     -3.257068     -0.481583      1.965832
  C       0.965665      1.515389      1.774902
  C       2.179088      0.995655      1.477131
  H       0.820043      2.590551      1.566545
  H       2.975405      1.602554      1.012950
  H       2.432780     -0.065213      1.645338
  Si      0.706051     -1.290609     -1.039099
  O      -0.388633     -0.257479     -1.727530
  O       2.165117     -1.153522     -1.819861
  Si      3.118494     -0.592880     -3.069542
  Si     -1.882344      0.444906     -1.956650
  H       0.928530     -0.910645      0.375761
  H      -4.127402      0.492452      2.715131
  H      -0.983403      1.544116      3.686035
  H      -3.119113     -1.732850      2.794125
  H       0.075008     -0.652529      3.272674
  H      -2.008350      0.735831     -3.424094
  H      -2.986049     -0.487891     -1.538960
  H      -1.993394      1.726430     -1.180767
  H       2.740332      0.811613     -3.456168
  H       4.543457     -0.613075     -2.594617
  H       2.983006     -1.482662     -4.274516
  H       0.223376     -2.702794     -1.139063
  H      -3.927813     -0.831575      0.671619
26
Coordinates from ORCA-job my_molecule_MEP_ALL E -1757.310964975680
  O      -1.672831      0.104355      1.608028
  Si     -0.442937      0.597272      2.678771
  Si     -3.166326     -0.634827      1.916625
  C       1.044005      1.480956      1.921549
  C       2.218107      0.896201      1.588844
  H       0.969195      2.572676      1.773773
  H       3.055120      1.462636      1.146341
  H       2.383013     -0.193788      1.665155
  Si      0.662458     -0.971265     -1.025176
  O      -0.462813     -0.323066     -2.066282
  O       2.171385     -1.009595     -1.729891
  Si      3.077925     -0.696021     -3.098533
  Si     -1.933289      0.484601     -2.078654
  H       0.732259     -0.074879      0.138461
  H      -4.155528      0.349299      2.484667
  H      -1.061802      1.572368      3.642780
  H      -3.009765     -1.767398      2.899449
  H       0.039216     -0.641897      3.382249
  H      -2.145213      0.910418     -3.498722
  H      -3.033840     -0.442417     -1.641910
  H      -1.956630      1.697320     -1.183381
  H       2.778727      0.679020     -3.631027
  H       4.528094     -0.778773     -2.714137
  H       2.791851     -1.713897     -4.167962
  H       0.309914     -2.374535     -0.646433
  H      -3.720298     -1.184765      0.635413
26
Coordinates from ORCA-job my_molecule_MEP_ALL E -1757.301057766736
  O      -1.633642      0.018146      1.568151
  Si     -0.447379      0.563943      2.664947
  Si     -3.121556     -0.741301      1.871432
  C       1.091070      1.365733      1.919807
  C       2.222153      0.704490      1.573396
  H       1.071892      2.457696      1.760114
  H       3.066319      1.203550      1.069391
  H       2.313702     -0.394055      1.655939
  Si      0.685248     -0.610214     -0.917763
  O      -0.478599     -0.298601     -2.063408
  O       2.183078     -0.826703     -1.631561
  Si      3.036608     -0.729472     -3.072661
  Si     -1.951710      0.494571     -2.092952
  H       0.606561      0.604700     -0.060287
  H      -4.150104      0.255088      2.340220
  H      -1.093511      1.597566      3.544901
  H      -2.965674     -1.796901      2.936479
  H       0.010449     -0.635930      3.441310
  H      -2.133894      0.912102     -3.517129
  H      -3.036623     -0.456234     -1.673543
  H      -2.027138      1.711031     -1.199952
  H       2.792035      0.599900     -3.731569
  H       4.500425     -0.869187     -2.760283
  H       2.647984     -1.827923     -4.027149
  H       0.429729     -1.911824     -0.210377
  H      -3.617425     -1.390173      0.612545
26
Coordinates from ORCA-job my_molecule_MEP_ALL E -1757.253413677782
  O      -1.661073     -0.006818      1.562965
  Si     -0.464504      0.555617      2.624423
  Si     -3.142521     -0.765161      1.869577
  C       1.030605      1.287568      1.725379
  C       2.187750      0.598837      1.445698
  H       1.057313      2.391158      1.655742
  H       3.039300      1.092604      0.949412
  H       2.326619     -0.466530      1.695491
  Si      0.763241     -0.489463     -0.783810
  O      -0.407432     -0.194258     -1.922111
  O       2.203557     -0.819098     -1.616262
  Si      3.043764     -0.730298     -3.080211
  Si     -1.911591      0.504964     -2.048484
  H       0.481937      0.847071      0.137350
  H      -4.164305      0.240876      2.330630
  H      -1.075846      1.610577      3.507133
  H      -2.974873     -1.809122      2.944009
  H       0.018073     -0.611585      3.434948
  H      -2.075458      0.878791     -3.490005
  H      -2.990321     -0.472417     -1.664981
  H      -2.071921      1.738934     -1.194838
  H       2.793110      0.595961     -3.744219
  H       4.512132     -0.874240     -2.780321
  H       2.641184     -1.836791     -4.025146
  H       0.468232     -1.848095     -0.143298
  H      -3.626972     -1.419081      0.610930
26
Coordinates from ORCA-job my_molecule_MEP_ALL E -1757.249310442493
  O      -1.666295     -0.012371      1.561453
  Si     -0.468021      0.565507      2.619066
  Si     -3.143518     -0.766541      1.871303
  C       0.878715      1.296383      1.521176
  C       2.135181      0.482057      1.218626
  H       1.056208      2.384964      1.686300
  H       3.034899      1.078419      0.941963
  H       2.351384     -0.464901      1.741583
  Si      0.901718     -0.569158     -0.735986
  O      -0.356198     -0.149934     -1.828304
  O       2.227082     -0.849008     -1.665755
  Si      3.054631     -0.735747     -3.098621
  Si     -1.904720      0.506852     -2.037204
  H       0.460895      1.065463      0.430830
  H      -4.164960      0.240408      2.330414
  H      -1.081137      1.610116      3.510911
  H      -2.976082     -1.810145      2.944079
  H       0.019643     -0.607909      3.434703
  H      -2.067458      0.874217     -3.487980
  H      -2.986294     -0.475215     -1.664964
  H      -2.074812      1.741515     -1.195099
  H       2.793409      0.594647     -3.744009
  H       4.514082     -0.873876     -2.783678
  H       2.644325     -1.837266     -4.033046
  H       0.444978     -1.869142     -0.148636
  H      -3.627658     -1.419334      0.610877
26
Coordinates from ORCA-job my_molecule_MEP_ALL E -1757.325244446996
  O      -1.678118     -0.021031      1.561889
  Si     -0.475243      0.569547      2.603557
  Si     -3.153009     -0.773940      1.872505
  C       0.842013      1.297799      1.478816
  C       2.001496      0.386572      1.018789
  H       1.107389      2.341930      1.753245
  H       2.936092      0.996156      0.825819
  H       2.318383     -0.435364      1.714583
  Si      1.010179     -0.601730     -0.647203
  O      -0.278741     -0.067054     -1.666486
  O       2.257616     -0.890912     -1.681448
  Si      3.070004     -0.744431     -3.118070
  Si     -1.847402      0.503866     -1.989937
  H       0.330503      1.331860      0.503571
  H      -4.170324      0.236898      2.331445
  H      -1.084761      1.611690      3.507283
  H      -2.980284     -1.815076      2.946804
  H       0.026769     -0.591905      3.429558
  H      -2.010837      0.845692     -3.453902
  H      -2.941700     -0.483518     -1.657121
  H      -2.087781      1.750709     -1.191654
  H       2.793805      0.594894     -3.747639
  H       4.532365     -0.872875     -2.801602
  H       2.653983     -1.842428     -4.056581
  H       0.461221     -1.902097     -0.147263
  H      -3.633616     -1.425252      0.611042
26
Coordinates from ORCA-job my_molecule_MEP_ALL E -1757.381892156518
  O      -1.531220     -0.189625      1.457658
  Si     -0.674046      0.773394      2.552046
  Si     -2.706230     -1.394351      1.521421
  C       0.784130      1.535091      1.634992
  C       1.727259      0.547889      0.916891
  H       1.341544      2.134708      2.390930
  H       2.621848      1.081960      0.526378
  H       2.125382     -0.216377      1.621464
  Si      1.022054     -0.356230     -0.583733
  O      -0.012588      0.654752     -1.425374
  O       2.335852     -0.691798     -1.566372
  Si      2.682650     -1.265172     -3.102554
  Si     -1.608129      1.051162     -1.734417
  H       0.374284      2.274359      0.912528
  H      -4.077676     -0.782078      1.438531
  H      -1.569950      1.853851      3.099951
  H      -2.589015     -2.163458      2.811786
  H      -0.208080     -0.095124      3.694983
  H      -1.693239      1.560195     -3.145809
  H      -2.511226     -0.146066     -1.595527
  H      -2.070942      2.135613     -0.800271
  H       2.446560     -0.198618     -4.137063
  H       4.129273     -1.666942     -3.128435
  H       1.829647     -2.462755     -3.435187
  H       0.327435     -1.653809     -0.285456
  H      -2.495576     -2.320571      0.360639
26
Coordinates from ORCA-job my_molecule_MEP_ALL E -1757.328557421627
  O      -1.845706      0.529372      1.580749
  Si     -0.340506      0.389943      2.325301
  Si     -3.470566      0.551388      1.998738
  C       0.909653      1.476454      1.453733
  C       2.144539      1.054214      1.112262
  H       0.641324      2.531734      1.255479
  H       2.890276      1.724486      0.649950
  H       2.472343      0.013198      1.284131
  Si      0.908505     -1.997946     -1.356688
  O      -0.432876     -1.131278     -0.878286
  O       1.860444     -1.113469     -2.400156
  Si      2.996650      0.104653     -2.566457
  Si     -1.848984     -0.505833     -1.539255
  H       1.677416     -2.327971     -0.112517
  H      -3.656991      1.235870      3.328365
  H      -0.505750      0.847380      3.755385
  H      -4.017915     -0.847344      2.090754
  H       0.137438     -1.035406      2.318523
  H      -1.978320     -0.963651     -2.970224
  H      -3.032398     -1.018605     -0.770411
  H      -1.815201      0.993246     -1.507057
  H       2.340649      1.455571     -2.484937
  H       4.047325      0.002807     -1.491416
  H       3.649507     -0.050373     -3.909342
  H       0.484582     -3.226418     -2.103731
  H      -4.215440      1.307978      0.937107
26
Coordinates from ORCA-job my_molecule_MEP_ALL E -1757.326668848398
  O      -1.840912      0.451977      1.614649
  Si     -0.377580      0.515315      2.454958
  Si     -3.443615      0.134354      2.008278
  C       0.903642      1.514838      1.525257
  C       2.124372      1.045685      1.182377
  H       0.672104      2.570331      1.290577
  H       2.873312      1.681041      0.678454
  H       2.433276      0.005849      1.387346
  Si      0.813654     -1.817934     -1.188254
  O      -0.408451     -0.709691     -0.992496
  O       1.963915     -1.246783     -2.240215
  Si      3.097384     -0.155528     -2.790054
  Si     -1.816886     -0.087309     -1.654569
  H       1.420466     -2.042689      0.162961
  H      -3.845320      0.909521      3.235085
  H      -0.664394      1.180262      3.779083
  H      -3.652045     -1.333093      2.273393
  H       0.148827     -0.873132      2.698495
  H      -1.819185     -0.291859     -3.148322
  H      -3.011141     -0.798004     -1.083254
  H      -1.893983      1.380811     -1.363141
  H       2.531481      1.238294     -2.845369
  H       4.301699     -0.159939     -1.886904
  H       3.507198     -0.577505     -4.170735
  H       0.280248     -3.088836     -1.777648
  H      -4.298064      0.554023      0.850047
26
Coordinates from ORCA-job my_molecule_MEP_ALL E -1757.323793767706
  O      -1.806561      0.308609      1.631484
  Si     -0.419035      0.587784      2.561026
  Si     -3.363299     -0.216134      2.002881
  C       0.910706      1.521372      1.625694
  C       2.135165      1.030539      1.314972
  H       0.712223      2.578671      1.372001
  H       2.895952      1.650081      0.811540
  H       2.431116     -0.009009      1.535349
  Si      0.751252     -1.582043     -1.081820
  O      -0.374937     -0.384105     -1.269917
  O       2.086276     -1.258721     -2.008073
  Si      3.137418     -0.395275     -2.964824
  Si     -1.826524      0.242161     -1.797081
  H       1.167156     -1.612456      0.352580
  H      -4.006577      0.687889      3.019614
  H      -0.843433      1.425996      3.740031
  H      -3.339641     -1.618270      2.551696
  H       0.123646     -0.730970      3.039971
  H      -1.833549      0.299715     -3.301277
  H      -2.972529     -0.622303     -1.350930
  H      -1.977339      1.628773     -1.247913
  H       2.662526      1.017841     -3.175373
  H       4.483007     -0.372464     -2.295306
  H       3.254506     -1.075295     -4.299248
  H       0.189199     -2.903286     -1.512212
  H      -4.176726     -0.199102      0.745135
26
Coordinates from ORCA-job my_molecule_MEP_ALL E -1757.319462805662
  O      -1.737005      0.183267      1.626764
  Si     -0.440055      0.609282      2.638573
  Si     -3.250845     -0.487175      1.964162
  C       0.964836      1.516901      1.779991
  C       2.180364      0.995418      1.483552
  H       0.820247      2.592046      1.570736
  H       2.977781      1.600048      1.022768
  H       2.428608     -0.067079      1.651436
  Si      0.703375     -1.282277     -1.039011
  O      -0.391514     -0.257928     -1.745731
  O       2.167281     -1.148353     -1.815308
  Si      3.116681     -0.597604     -3.070234
  Si     -1.884276      0.446716     -1.963649
  H       0.918321     -0.887829      0.372432
  H      -4.125265      0.488450      2.706702
  H      -0.985919      1.543437      3.687635
  H      -3.111275     -1.733669      2.799473
  H       0.076755     -0.651221      3.277943
  H      -2.018379      0.744966     -3.429094
  H      -2.987629     -0.486596     -1.545361
  H      -1.992350      1.725232     -1.181664
  H       2.741454      0.806331     -3.462803
  H       4.543994     -0.618583     -2.601496
  H       2.975755     -1.492733     -4.271036
  H       0.224653     -2.696217     -1.125777
  H      -3.915594     -0.844830      0.668996
26
Coordinates from ORCA-job my_molecule_MEP_ALL E -1757.311154875357
  O      -1.667481      0.101299      1.607523
  Si     -0.441564      0.596799      2.682698
  Si     -3.159527     -0.638441      1.914753
  C       1.043237      1.479825      1.925983
  C       2.219388      0.892545      1.594169
  H       0.968921      2.571131      1.772231
  H       3.055280      1.455316      1.150837
  H       2.379160     -0.198447      1.673544
  Si      0.660299     -0.961107     -1.023778
  O      -0.470000     -0.324744     -2.078452
  O       2.171504     -1.001696     -1.728389
  Si      3.075033     -0.697485     -3.097443
  Si     -1.931921      0.481570     -2.084211
  H       0.722563     -0.051861      0.128212
  H      -4.150795      0.346651      2.477784
  H      -1.064655      1.571641      3.644320
  H      -3.003370     -1.767394      2.901790
  H       0.040052     -0.641133      3.388607
  H      -2.152135      0.912856     -3.502741
  H      -3.035600     -0.443572     -1.646892
  H      -1.953913      1.694222     -1.186097
  H       2.780266      0.676379     -3.637690
  H       4.526768     -0.781795     -2.716860
  H       2.785695     -1.719543     -4.162952
  H       0.311733     -2.360319     -0.630194
  H      -3.708940     -1.192698      0.633248
26
Coordinates from ORCA-job my_molecule_MEP_ALL E -1757.301149195292
  O      -1.631334      0.015933      1.569881
  Si     -0.446237      0.562647      2.667436
  Si     -3.118495     -0.743054      1.871515
  C       1.087350      1.360107      1.915500
  C       2.223244      0.695459      1.571714
  H       1.066157      2.449108      1.739504
  H       3.064256      1.192072      1.065446
  H       2.314634     -0.400855      1.670526
  Si      0.686071     -0.598688     -0.915660
  O      -0.480601     -0.299064     -2.068510
  O       2.184461     -0.817290     -1.630254
  Si      3.036372     -0.726698     -3.072820
  Si     -1.950178      0.492754     -2.095244
  H       0.593788      0.620157     -0.062702
  H      -4.147610      0.254064      2.338092
  H      -1.092548      1.597946      3.545045
  H      -2.963074     -1.797488      2.937999
  H       0.010396     -0.634884      3.447605
  H      -2.136633      0.911021     -3.519051
  H      -3.034384     -0.458898     -1.675250
  H      -2.025336      1.709135     -1.202002
  H       2.793383      0.599713     -3.735503
  H       4.498713     -0.867860     -2.761053
  H       2.645079     -1.827616     -4.021637
  H       0.434122     -1.894921     -0.192281
  H      -3.611596     -1.392801      0.611704
26
Coordinates from ORCA-job my_molecule_MEP_ALL E -1757.253319595979
  O      -1.659975     -0.008114      1.565283
  Si     -0.464149      0.554332      2.626936
  Si     -3.141043     -0.766218      1.870330
  C       1.020240      1.282685      1.713505
  C       2.194215      0.590786      1.450222
  H       1.051833      2.386225      1.637467
  H       3.036677      1.084130      0.942879
  H       2.327133     -0.472062      1.705778
  Si      0.761263     -0.477851     -0.781123
  O      -0.404721     -0.195577     -1.925972
  O       2.201979     -0.811911     -1.612931
  Si      3.042722     -0.727481     -3.078506
  Si     -1.909471      0.503633     -2.050030
  H       0.469056      0.851344      0.132301
  H      -4.162730      0.240553      2.330454
  H      -1.074100      1.611530      3.508122
  H      -2.973339     -1.809860      2.945586
  H       0.018985     -0.611879      3.441554
  H      -2.077150      0.877278     -3.490584
  H      -2.986194     -0.475066     -1.666224
  H      -2.069253      1.737369     -1.196185
  H       2.794606      0.597361     -3.748053
  H       4.512663     -0.871937     -2.781604
  H       2.640346     -1.836201     -4.022793
  H       0.472909     -1.833396     -0.126967
  H      -3.622502     -1.419675      0.610554
26
Coordinates from ORCA-job my_molecule_MEP_ALL E -1757.249964736392
  O      -1.665092     -0.013528      1.564337
  Si     -0.467520      0.564831      2.621014
  Si     -3.141774     -0.766945      1.872281
  C       0.873440      1.293370      1.507875
  C       2.138885      0.479638      1.217497
  H       1.046760      2.380014      1.666852
  H       3.037487      1.075411      0.947044
  H       2.350720     -0.467833      1.748636
  Si      0.901710     -0.561479     -0.738274
  O      -0.355735     -0.152332     -1.834903
  O       2.228047     -0.840164     -1.665646
  Si      3.054999     -0.732328     -3.099061
  Si     -1.903900      0.504921     -2.040850
  H       0.456154      1.050085      0.435185
  H      -4.163009      0.240704      2.330506
  H      -1.079456      1.610689      3.513200
  H      -2.974810     -1.810470      2.945360
  H       0.020009     -0.607587      3.440047
  H      -2.072268      0.874750     -3.491549
  H      -2.985461     -0.477650     -1.666066
  H      -2.071612      1.739643     -1.196499
  H       2.794756      0.595383     -3.746082
  H       4.512226     -0.871425     -2.783221
  H       2.643217     -1.835448     -4.028220
  H       0.445847     -1.853312     -0.130140
  H      -3.623620     -1.418937      0.610677
26
Coordinates from ORCA-job my_molecule_MEP_ALL E -1757.322888512866
  O      -1.675629     -0.021671      1.565477
  Si     -0.474929      0.569350      2.607240
  Si     -3.151016     -0.774398      1.873596
  C       0.831459      1.293516      1.470421
  C       2.000686      0.385938      1.021542
  H       1.099870      2.344389      1.734846
  H       2.941834      0.996070      0.829348
  H       2.317265     -0.438090      1.718639
  Si      1.011844     -0.594860     -0.645553
  O      -0.277503     -0.067849     -1.672901
  O       2.257403     -0.885145     -1.681081
  Si      3.069491     -0.742094     -3.117538
  Si     -1.847590      0.503551     -1.992907
  H       0.323466      1.311320      0.502024
  H      -4.168499      0.237097      2.331397
  H      -1.082375      1.611182      3.508622
  H      -2.978930     -1.815664      2.948181
  H       0.027265     -0.592445      3.435674
  H      -2.014051      0.845705     -3.455511
  H      -2.938856     -0.485373     -1.658592
  H      -2.084962      1.749383     -1.192890
  H       2.795353      0.595977     -3.750830
  H       4.532384     -0.870754     -2.802713
  H       2.653301     -1.841476     -4.054421
  H       0.461905     -1.888522     -0.132495
  H      -3.629182     -1.425136      0.610426
26
Coordinates from ORCA-job my_molecule_MEP_ALL E -1757.381892156518
  O      -1.531075     -0.190141      1.457743
  Si     -0.674531      0.773830      2.551786
  Si     -2.705281     -1.395629      1.521938
  C       0.783126      1.536181      1.634450
  C       1.726905      0.549360      0.916679
  H       1.340148      2.136433      2.390173
  H       2.621132      1.083892      0.525970
  H       2.125546     -0.214396      1.621513
  Si      1.022285     -0.355751     -0.583622
  O      -0.013042      0.654249     -1.425601
  O       2.336295     -0.690783     -1.566160
  Si      2.683456     -1.264459     -3.102148
  Si     -1.608852      1.049487     -1.734762
  H       0.372778      2.274925      0.911734
  H      -4.077137     -0.784300      1.438852
  H      -1.571149      1.853879      3.099326
  H      -2.587537     -2.164209      2.812569
  H      -0.207971     -0.093981      3.695019
  H      -1.694319      1.557974     -3.146330
  H      -2.511148     -0.148295     -1.595445
  H      -2.072377      2.133954     -0.800987
  H       2.446642     -0.198421     -4.137024
  H       4.130347     -1.665272     -3.127908
  H       1.831248     -2.462726     -3.434355
  H       0.328535     -1.653690     -0.284886
  H      -2.494024     -2.322111      0.361475
26
Coordinates from ORCA-job my_molecule_MEP_ALL E -1757.328557421627
  O      -1.845706      0.529372      1.580749
  Si     -0.340506      0.389943      2.325301
  Si     -3.470566      0.551388      1.998738
  C       0.909653      1.476454      1.453733
  C       2.144539      1.054214      1.112262
  H       0.641324      2.531734      1.255479
  H       2.890276      1.724486      0.649950
  H       2.472343      0.013198      1.284131
  Si      0.908505     -1.997946     -1.356688
  O      -0.432876     -1.131278     -0.878286
  O       1.860444     -1.113469     -2.400156
  Si      2.996650      0.104653     -2.566457
  Si     -1.848984     -0.505833     -1.539255
  H       1.677416     -2.327971     -0.112517
  H      -3.656991      1.235870      3.328365
  H      -0.505750      0.847380      3.755385
  H      -4.017915     -0.847344      2.090754
  H       0.137438     -1.035406      2.318523
  H      -1.978320     -0.963651     -2.970224
  H      -3.032398     -1.018605     -0.770411
  H      -1.815201      0.993246     -1.507057
  H       2.340649      1.455571     -2.484937
  H       4.047325      0.002807     -1.491416
  H       3.649507     -0.050373     -3.909342
  H       0.484582     -3.226418     -2.103731
  H      -4.215440      1.307978      0.937107
26
Coordinates from ORCA-job my_molecule_MEP_ALL E -1757.326643856150
  O      -1.840396      0.449737      1.616671
  Si     -0.378573      0.518218      2.458829
  Si     -3.441399      0.123285      2.009225
  C       0.900461      1.516759      1.526640
  C       2.123132      1.045910      1.187392
  H       0.669109      2.571193      1.288852
  H       2.873721      1.679751      0.685518
  H       2.428797      0.005896      1.395085
  Si      0.811797     -1.812010     -1.185158
  O      -0.407652     -0.698483     -1.000556
  O       1.969394     -1.251870     -2.235748
  Si      3.100321     -0.164428     -2.796936
  Si     -1.817029     -0.075951     -1.659039
  H       1.413680     -2.030095      0.169167
  H      -3.850980      0.902460      3.230930
  H      -0.666614      1.187395      3.780437
  H      -3.639132     -1.344220      2.282563
  H       0.149612     -0.868572      2.707886
  H      -1.817692     -0.271670     -3.153961
  H      -3.011378     -0.791315     -1.093225
  H      -1.897885      1.390137     -1.357993
  H       2.534150      1.229219     -2.855447
  H       4.310270     -0.164882     -1.901097
  H       3.503629     -0.592736     -4.177787
  H       0.275522     -3.084515     -1.768264
  H      -4.294866      0.530784      0.846017
26
Coordinates from ORCA-job my_molecule_MEP_ALL E -1757.323751049152
  O      -1.800939      0.300570      1.632947
  Si     -0.419317      0.589380      2.567903
  Si     -3.354623     -0.233628      2.002407
  C       0.907301      1.523694      1.632234
  C       2.135538      1.030515      1.327461
  H       0.710013      2.580127      1.376166
  H       2.900116      1.647946      0.830818
  H       2.424130     -0.010745      1.549504
  Si      0.748534     -1.566257     -1.078142
  O      -0.375457     -0.370338     -1.301081
  O       2.096294     -1.259137     -1.994092
  Si      3.138497     -0.410085     -2.972955
  Si     -1.831171      0.257472     -1.810694
  H       1.150310     -1.573598      0.360412
  H      -4.011959      0.677921      3.003830
  H      -0.848440      1.432130      3.741624
  H      -3.319512     -1.628047      2.570816
  H       0.126138     -0.725031      3.055195
  H      -1.846859      0.332058     -3.314207
  H      -2.974080     -0.613391     -1.367921
  H      -1.983891      1.637606     -1.244750
  H       2.665438      1.002511     -3.192064
  H       4.492622     -0.384437     -2.320207
  H       3.240307     -1.103258     -4.302519
  H       0.188863     -2.894109     -1.490517
  H      -4.157855     -0.239872      0.737833
26
Coordinates from ORCA-job my_molecule_MEP_ALL E -1757.319370540594
  O      -1.725966      0.176354      1.625393
  Si     -0.438057      0.608967      2.645593
  Si     -3.237044     -0.499754      1.960407
  C       0.964168      1.520211      1.791270
  C       2.181973      0.994910      1.498500
  H       0.820854      2.595068      1.580288
  H       2.983372      1.594434      1.044617
  H       2.419453     -0.071225      1.665415
  Si      0.697361     -1.262996     -1.039461
  O      -0.396972     -0.259782     -1.786260
  O       2.171030     -1.136943     -1.804221
  Si      3.113062     -0.607895     -3.072448
  Si     -1.889196      0.451110     -1.979517
  H       0.895206     -0.836507      0.364692
  H      -4.120457      0.479480      2.687677
  H      -0.991717      1.541865      3.691403
  H      -3.093754     -1.735493      2.811341
  H       0.080697     -0.648407      3.289819
  H      -2.040762      0.765524     -3.440307
  H      -2.991152     -0.483633     -1.559787
  H      -1.989813      1.722516     -1.183698
  H       2.744034      0.794449     -3.477705
  H       4.545054     -0.631036     -2.616809
  H       2.959380     -1.515283     -4.263117
  H       0.227460     -2.681392     -1.096168
  H      -3.888213     -0.874541      0.663081
26
Coordinates from ORCA-job my_molecule_MEP_ALL E -1757.311157515315
  O      -1.654587      0.094700      1.606664
  Si     -0.439109      0.595549      2.691458
  Si     -3.144927     -0.646829      1.910471
  C       1.043102      1.476954      1.935336
  C       2.220404      0.884257      1.606674
  H       0.968416      2.566882      1.768595
  H       3.056050      1.438627      1.160544
  H       2.370778     -0.209239      1.692848
  Si      0.654172     -0.936766     -1.023385
  O      -0.479686     -0.332096     -2.103435
  O       2.170093     -0.983941     -1.723436
  Si      3.069590     -0.700353     -3.096580
  Si     -1.933509      0.477351     -2.096996
  H       0.700566      0.001069      0.105092
  H      -4.140239      0.340631      2.462182
  H      -1.071062      1.569971      3.647756
  H      -2.989121     -1.767468      2.906996
  H       0.041880     -0.639497      3.403019
  H      -2.167396      0.918283     -3.511467
  H      -3.039229     -0.445896     -1.658177
  H      -1.947664      1.686935     -1.192452
  H       2.783770      0.670198     -3.652524
  H       4.523528     -0.788641     -2.722829
  H       2.771767     -1.732082     -4.151361
  H       0.315857     -2.328028     -0.593393
  H      -3.683440     -1.210571      0.628399
26
Coordinates from ORCA-job my_molecule_MEP_ALL E -1757.301074985514
  O      -1.625906      0.011213      1.573864
  Si     -0.444383      0.559371      2.672996
  Si     -3.112293     -0.747214      1.871723
  C       1.081342      1.346849      1.903762
  C       2.224142      0.676791      1.570808
  H       1.053326      2.429452      1.693236
  H       3.059535      1.166106      1.055652
  H       2.316907     -0.416812      1.703038
  Si      0.686178     -0.572712     -0.911389
  O      -0.480929     -0.301730     -2.078047
  O       2.185977     -0.795777     -1.626087
  Si      3.035200     -0.720534     -3.072246
  Si     -1.948391      0.489281     -2.100727
  H       0.565189      0.654073     -0.069928
  H      -4.142120      0.251745      2.333331
  H      -1.090323      1.599057      3.545443
  H      -2.957496     -1.798776      2.941329
  H       0.010395     -0.632731      3.461934
  H      -2.142601      0.908591     -3.523304
  H      -3.029310     -0.464824     -1.679042
  H      -2.021173      1.705061     -1.206507
  H       2.796427      0.600024     -3.744724
  H       4.495938     -0.864891     -2.762612
  H       2.638525     -1.827396     -4.009789
  H       0.444474     -1.855680     -0.152654
  H      -3.598628     -1.398537      0.609938
26
Coordinates from ORCA-job my_molecule_MEP_ALL E -1757.253610471686
  O      -1.657994     -0.011263      1.570670
  Si     -0.462114      0.551770      2.631544
  Si     -3.138037     -0.768541      1.872308
  C       1.005958      1.267549      1.687621
  C       2.200710      0.574987      1.457740
  H       1.037816      2.375093      1.594991
  H       3.033212      1.066578      0.932716
  H       2.328480     -0.481722      1.728596
  Si      0.758039     -0.456607     -0.778006
  O      -0.399311     -0.199308     -1.936123
  O       2.199339     -0.794168     -1.606658
  Si      3.040687     -0.720948     -3.075027
  Si     -1.906214      0.500800     -2.054505
  H       0.442803      0.857464      0.125380
  H      -4.159107      0.239966      2.330017
  H      -1.070184      1.613639      3.510854
  H      -2.970216     -1.811230      2.948815
  H       0.020650     -0.611756      3.455591
  H      -2.081809      0.874715     -3.493238
  H      -2.978113     -0.481011     -1.668868
  H      -2.062861      1.733758     -1.199202
  H       2.797918      0.599887     -3.755651
  H       4.512398     -0.866738     -2.783580
  H       2.638305     -1.834057     -4.015856
  H       0.482402     -1.798168     -0.089840
  H      -3.612757     -1.420688      0.609711
26
Coordinates from ORCA-job my_molecule_MEP_ALL E -1757.249844660826
  O      -1.662415     -0.015946      1.570511
  Si     -0.466138      0.563047      2.625559
  Si     -3.138650     -0.768305      1.874688
  C       0.863998      1.284093      1.485344
  C       2.144755      0.471933      1.214010
  H       1.026370      2.368745      1.623015
  H       3.041275      1.066357      0.955256
  H       2.349325     -0.473651      1.764705
  Si      0.904337     -0.545552     -0.739346
  O      -0.353212     -0.156409     -1.847331
  O       2.229862     -0.821962     -1.665413
  Si      3.055272     -0.725207     -3.099099
  Si     -1.902269      0.501099     -2.048258
  H       0.438765      1.025251      0.438397
  H      -4.158876      0.241215      2.330530
  H      -1.075560      1.612074      3.517765
  H      -2.972134     -1.811250      2.948241
  H       0.021005     -0.606160      3.451887
  H      -2.081628      0.875013     -3.498091
  H      -2.982026     -0.482847     -1.668851
  H      -2.064436      1.735171     -1.200032
  H       2.797813      0.598052     -3.751873
  H       4.509963     -0.866151     -2.782569
  H       2.640600     -1.832541     -4.018875
  H       0.448583     -1.817723     -0.090265
  H      -3.614580     -1.418346      0.610096
26
Coordinates from ORCA-job my_molecule_MEP_ALL E -1757.321659660449
  O      -1.671612     -0.023832      1.573158
  Si     -0.473985      0.568232      2.615203
  Si     -3.147277     -0.775787      1.876023
  C       0.815294      1.282760      1.455706
  C       1.997701      0.381932      1.021242
  H       1.082772      2.348186      1.694856
  H       2.947969      0.991910      0.835286
  H       2.312430     -0.440889      1.725400
  Si      1.018520     -0.580701     -0.640040
  O      -0.271600     -0.067218     -1.681119
  O       2.258327     -0.873647     -1.680590
  Si      3.069408     -0.737178     -3.117695
  Si     -1.844966      0.502175     -1.997845
  H       0.299790      1.274659      0.495843
  H      -4.164521      0.237454      2.331163
  H      -1.077753      1.611138      3.512413
  H      -2.976243     -1.816854      2.951235
  H       0.028527     -0.592169      3.448680
  H      -2.019641      0.844967     -3.458878
  H      -2.931675     -0.490072     -1.661591
  H      -2.079113      1.746851     -1.195605
  H       2.798858      0.598130     -3.757849
  H       4.532699     -0.866116     -2.805355
  H       2.652024     -1.839611     -4.049778
  H       0.463455     -1.859477     -0.099194
  H      -3.619389     -1.424844      0.609333
26
Coordinates from ORCA-job my_molecule_MEP_ALL E -1757.381892156518
  O      -1.530801     -0.191224      1.457890
  Si     -0.675722      0.774965      2.551128
  Si     -2.703187     -1.398433      1.523092
  C       0.780792      1.538745      1.633161
  C       1.726069      0.552743      0.916231
  H       1.336902      2.140476      2.388382
  H       2.619492      1.088297      0.525079
  H       2.125858     -0.209817      1.621713
  Si      1.022828     -0.354699     -0.583313
  O      -0.014018      0.653027     -1.426153
  O       2.337353     -0.688576     -1.565557
  Si      2.685394     -1.263023     -3.101057
  Si     -1.610424      1.045594     -1.735662
  H       0.369334      2.276260      0.909817
  H      -4.075967     -0.789246      1.439478
  H      -1.573976      1.854123      3.097748
  H      -2.584293     -2.165747      2.814373
  H      -0.207860     -0.091177      3.695097
  H      -1.696647      1.552760     -3.147660
  H      -2.510913     -0.153435     -1.595343
  H      -2.075596      2.130149     -0.802806
  H       2.446978     -0.198216     -4.136835
  H       4.132892     -1.661673     -3.126466
  H       1.834998     -2.462860     -3.432261
  H       0.331035     -1.653435     -0.283487
  H      -2.490521     -2.325576      0.363413
26
Coordinates from ORCA-job my_molecule_MEP_ALL E -1757.328557421627
  O      -1.845706      0.529372      1.580749
  Si     -0.340506      0.389943      2.325301
  Si     -3.470566      0.551388      1.998738
  C       0.909653      1.476454      1.453733
  C       2.144539      1.054214      1.112262
  H       0.641324      2.531734      1.255479
  H       2.890276      1.724486      0.649950
  H       2.472343      0.013198      1.284131
  Si      0.908505     -1.997946     -1.356688
  O      -0.432876     -1.131278     -0.878286
  O       1.860444     -1.113469     -2.400156
  Si      2.996650      0.104653     -2.566457
  Si     -1.848984     -0.505833     -1.539255
  H       1.677416     -2.327971     -0.112517
  H      -3.656991      1.235870      3.328365
  H      -0.505750      0.847380      3.755385
  H      -4.017915     -0.847344      2.090754
  H       0.137438     -1.035406      2.318523
  H      -1.978320     -0.963651     -2.970224
  H      -3.032398     -1.018605     -0.770411
  H      -1.815201      0.993246     -1.507057
  H       2.340649      1.455571     -2.484937
  H       4.047325      0.002807     -1.491416
  H       3.649507     -0.050373     -3.909342
  H       0.484582     -3.226418     -2.103731
  H      -4.215440      1.307978      0.937107
26
Coordinates from ORCA-job my_molecule_MEP_ALL E -1757.326582116803
  O      -1.840306      0.449384      1.616953
  Si     -0.378831      0.518662      2.459202
  Si     -3.441199      0.121963      2.009347
  C       0.903768      1.515259      1.526000
  C       2.118943      1.047090      1.189297
  H       0.668713      2.571804      1.288655
  H       2.874383      1.679994      0.685876
  H       2.428636      0.005605      1.396095
  Si      0.811608     -1.810799     -1.185045
  O      -0.406931     -0.697577     -1.001526
  O       1.969383     -1.252869     -2.234715
  Si      3.100961     -0.165153     -2.797922
  Si     -1.817404     -0.074440     -1.659775
  H       1.412810     -2.028550      0.169949
  H      -3.851649      0.901635      3.230332
  H      -0.666985      1.188225      3.780686
  H      -3.637689     -1.345445      2.283657
  H       0.149759     -0.868087      2.708994
  H      -1.817643     -0.269242     -3.154663
  H      -3.011266     -0.790600     -1.094428
  H      -1.898298      1.391164     -1.357479
  H       2.534526      1.228132     -2.856665
  H       4.311145     -0.165528     -1.902765
  H       3.503059     -0.594571     -4.178511
  H       0.275027     -3.084036     -1.767148
  H      -4.294521      0.527981      0.845601
26
Coordinates from ORCA-job my_molecule_MEP_ALL E -1757.323645521674
  O      -1.800194      0.299717      1.633178
  Si     -0.419592      0.589750      2.568236
  Si     -3.353931     -0.235405      2.002410
  C       0.914463      1.520765      1.631269
  C       2.127011      1.032421      1.331502
  H       0.709634      2.581047      1.376536
  H       2.901966      1.648703      0.831696
  H       2.423993     -0.011123      1.551139
  Si      0.748057     -1.563600     -1.078442
  O      -0.373687     -0.370366     -1.303880
  O       2.095969     -1.259684     -1.991606
  Si      3.139180     -0.411093     -2.974312
  Si     -1.832635      0.259420     -1.812478
  H       1.148437     -1.569665      0.361109
  H      -4.012396      0.676894      3.002048
  H      -0.849208      1.432751      3.742121
  H      -3.317585     -1.628849      2.572622
  H       0.126572     -0.724620      3.056758
  H      -1.848303      0.335265     -3.315473
  H      -2.974057     -0.612562     -1.369712
  H      -1.984444      1.638319     -1.244596
  H       2.665785      1.000857     -3.193724
  H       4.493340     -0.385724     -2.322618
  H       3.238751     -1.106054     -4.302569
  H       0.188870     -2.893195     -1.488416
  H      -4.155998     -0.243969      0.737202
26
Coordinates from ORCA-job my_molecule_MEP_ALL E -1757.319141776979
  O      -1.724431      0.175855      1.625426
  Si     -0.438518      0.608988      2.646321
  Si     -3.235954     -0.500972      1.960044
  C       0.971635      1.517906      1.790610
  C       2.173059      0.995040      1.503280
  H       0.820755      2.595878      1.581162
  H       2.986078      1.595475      1.045257
  H       2.419058     -0.070863      1.667069
  Si      0.696826     -1.259410     -1.041512
  O      -0.394115     -0.262680     -1.788888
  O       2.168447     -1.136483     -1.800764
  Si      3.113912     -0.608175     -3.074238
  Si     -1.891631      0.452399     -1.981485
  H       0.892721     -0.831342      0.363625
  H      -4.119989      0.478608      2.685647
  H      -0.992573      1.541771      3.691951
  H      -3.092135     -1.735591      2.812352
  H       0.081169     -0.648119      3.291036
  H      -2.042710      0.767264     -3.441308
  H      -2.991358     -0.483426     -1.561255
  H      -1.989312      1.721946     -1.184100
  H       2.744356      0.793101     -3.479166
  H       4.544892     -0.632345     -2.618045
  H       2.957724     -1.517440     -4.262033
  H       0.227715     -2.679957     -1.093541
  H      -3.885623     -0.877428      0.662557
26
Coordinates from ORCA-job my_molecule_MEP_ALL E -1757.311137449304
  O      -1.652110      0.094466      1.607013
  Si     -0.440202      0.595239      2.692370
  Si     -3.144408     -0.647966      1.910046
  C       1.050814      1.473793      1.933591
  C       2.210384      0.882767      1.611519
  H       0.968143      2.566250      1.767715
  H       3.058978      1.438484      1.159537
  H       2.370544     -0.209406      1.695286
  Si      0.652659     -0.931643     -1.027733
  O      -0.471571     -0.338085     -2.102235
  O       2.165992     -0.982429     -1.719224
  Si      3.071245     -0.699890     -3.099649
  Si     -1.939859      0.480176     -2.098756
  H       0.698133      0.007790      0.102415
  H      -4.139357      0.339921      2.460424
  H      -1.071761      1.569946      3.647940
  H      -2.987866     -1.767518      2.907533
  H       0.042029     -0.639174      3.404644
  H      -2.168485      0.918359     -3.511964
  H      -3.039173     -0.446058     -1.659332
  H      -1.946928      1.685608     -1.193545
  H       2.784162      0.668997     -3.653768
  H       4.522803     -0.789360     -2.723130
  H       2.770387     -1.733192     -4.149550
  H       0.316403     -2.324584     -0.589175
  H      -3.680958     -1.212491      0.628030
26
Coordinates from ORCA-job my_molecule_MEP_ALL E -1757.300944504844
  O      -1.625092      0.011042      1.574453
  Si     -0.445630      0.558969      2.673495
  Si     -3.112558     -0.747880      1.871810
  C       1.093417      1.337493      1.896930
  C       2.209563      0.679852      1.579523
  H       1.051810      2.429451      1.688334
  H       3.062203      1.165221      1.051326
  H       2.317788     -0.418496      1.705697
  Si      0.683723     -0.568314     -0.911033
  O      -0.474675     -0.304727     -2.076094
  O       2.183701     -0.793336     -1.623556
  Si      3.034635     -0.720018     -3.071481
  Si     -1.950936      0.489808     -2.101830
  H       0.562471      0.655688     -0.073659
  H      -4.141797      0.251449      2.332897
  H      -1.090067      1.599594      3.545479
  H      -2.957284     -1.798843      2.941676
  H       0.010685     -0.632573      3.463588
  H      -2.142906      0.907976     -3.523580
  H      -3.028701     -0.465551     -1.679318
  H      -2.020661      1.704676     -1.206964
  H       2.796699      0.600899     -3.746132
  H       4.497104     -0.864585     -2.762417
  H       2.637899     -1.828120     -4.009150
  H       0.446131     -1.850676     -0.150033
  H      -3.597524     -1.399001      0.610038
26
Coordinates from ORCA-job my_molecule_MEP_ALL E -1757.254597372710
  O      -1.657870     -0.011587      1.571595
  Si     -0.462422      0.551139      2.631606
  Si     -3.138303     -0.768841      1.873139
  C       1.029083      1.257616      1.679177
  C       2.176492      0.587658      1.455074
  H       1.033656      2.371196      1.589486
  H       3.036954      1.067101      0.937846
  H       2.330371     -0.483801      1.732098
  Si      0.761547     -0.463211     -0.780886
  O      -0.400698     -0.200092     -1.939276
  O       2.200407     -0.790148     -1.608250
  Si      3.040616     -0.720135     -3.074543
  Si     -1.907408      0.500175     -2.056243
  H       0.444097      0.854825      0.133733
  H      -4.158689      0.239997      2.329866
  H      -1.069869      1.613879      3.511672
  H      -2.970376     -1.810919      2.948711
  H       0.020273     -0.610390      3.455747
  H      -2.083423      0.875349     -3.495565
  H      -2.979012     -0.481864     -1.668911
  H      -2.061762      1.733227     -1.199539
  H       2.798178      0.599241     -3.755041
  H       4.510467     -0.866125     -2.782458
  H       2.637998     -1.832800     -4.012837
  H       0.481920     -1.791000     -0.085874
  H      -3.612225     -1.420490      0.609675
26
Coordinates from ORCA-job my_molecule_MEP_ALL E -1757.249711081933
  O      -1.663044     -0.016352      1.570372
  Si     -0.463602      0.563860      2.625167
  Si     -3.139545     -0.769210      1.875170
  C       0.867546      1.272204      1.498244
  C       2.139342      0.461620      1.215243
  H       1.025779      2.372674      1.618284
  H       3.040326      1.063654      0.950569
  H       2.347853     -0.466914      1.763485
  Si      0.908598     -0.544667     -0.733947
  O      -0.349918     -0.155211     -1.844015
  O       2.229283     -0.823032     -1.664557
  Si      3.055387     -0.725322     -3.098944
  Si     -1.902562      0.501223     -2.047936
  H       0.425660      1.038184      0.426412
  H      -4.158843      0.240947      2.330240
  H      -1.075266      1.612639      3.517472
  H      -2.972018     -1.811345      2.948681
  H       0.021464     -0.604440      3.452642
  H      -2.080411      0.873140     -3.496431
  H      -2.979248     -0.483204     -1.669562
  H      -2.063884      1.733954     -1.201194
  H       2.798066      0.599749     -3.754126
  H       4.512591     -0.865899     -2.782885
  H       2.640239     -1.834194     -4.019965
  H       0.449830     -1.815160     -0.088467
  H      -3.613623     -1.418897      0.610050
26
Coordinates from ORCA-job my_molecule_MEP_ALL E -1757.320582630400
  O      -1.673299     -0.025008      1.573643
  Si     -0.475710      0.566402      2.616147
  Si     -3.147972     -0.776645      1.876514
  C       0.825156      1.287517      1.460614
  C       1.997748      0.374893      1.005022
  H       1.080016      2.341299      1.693079
  H       2.934600      0.983681      0.831889
  H       2.307952     -0.435456      1.722613
  Si      1.026264     -0.581719     -0.634636
  O      -0.265514     -0.062130     -1.670187
  O       2.261358     -0.875379     -1.681540
  Si      3.071512     -0.737320     -3.120242
  Si     -1.839030      0.500528     -1.994986
  H       0.282960      1.289826      0.492789
  H      -4.164488      0.237173      2.330933
  H      -1.078300      1.612833      3.513448
  H      -2.976519     -1.816806      2.951600
  H       0.029048     -0.589097      3.448627
  H      -2.016926      0.842908     -3.458598
  H      -2.929202     -0.491937     -1.661220
  H      -2.079624      1.747306     -1.195779
  H       2.799229      0.597555     -3.758223
  H       4.533176     -0.865702     -2.806013
  H       2.652633     -1.839866     -4.049621
  H       0.463678     -1.859721     -0.095571
  H      -3.618745     -1.425135      0.609699
26
Coordinates from ORCA-job my_molecule_MEP_ALL E -1757.381892156518
  O      -1.530855     -0.191222      1.457833
  Si     -0.676073      0.775432      2.550893
  Si     -2.702967     -1.398686      1.523251
  C       0.780327      1.539324      1.632838
  C       1.725879      0.553365      0.916212
  H       1.336246      2.141368      2.387949
  H       2.619205      1.089030      0.524990
  H       2.125797     -0.208930      1.621907
  Si      1.022949     -0.354605     -0.583158
  O      -0.014073      0.652675     -1.426314
  O       2.337618     -0.688418     -1.565231
  Si      2.685895     -1.263160     -3.100568
  Si     -1.610548      1.044798     -1.736026
  H       0.368747      2.276567      0.909287
  H      -4.075882     -0.789836      1.439396
  H      -1.574614      1.854515      3.097189
  H      -2.583983     -2.165657      2.814727
  H      -0.208088     -0.090323      3.695105
  H      -1.696794      1.551600     -3.148154
  H      -2.510770     -0.154405     -1.595474
  H      -2.076034      2.129473     -0.803466
  H       2.447303     -0.198661     -4.136622
  H       4.133486     -1.661481     -3.125781
  H       1.835799     -2.463273     -3.431535
  H       0.331437     -1.653428     -0.283061
  H      -2.490008     -2.326063      0.363813
26
Coordinates from ORCA-job my_molecule_MEP_ALL E -1757.328557421627
  O      -1.845706      0.529372      1.580749
  Si     -0.340506      0.389943      2.325301
  Si     -3.470566      0.551388      1.998738
  C       0.909653      1.476454      1.453733
  C       2.144539      1.054214      1.112262
  H       0.641324      2.531734      1.255479
  H       2.890276      1.724486      0.649950
  H       2.472343      0.013198      1.284131
  Si      0.908505     -1.997946     -1.356688
  O      -0.432876     -1.131278     -0.878286
  O       1.860444     -1.113469     -2.400156
  Si      2.996650      0.104653     -2.566457
  Si     -1.848984     -0.505833     -1.539255
  H       1.677416     -2.327971     -0.112517
  H      -3.656991      1.235870      3.328365
  H      -0.505750      0.847380      3.755385
  H      -4.017915     -0.847344      2.090754
  H       0.137438     -1.035406      2.318523
  H      -1.978320     -0.963651     -2.970224
  H      -3.032398     -1.018605     -0.770411
  H      -1.815201      0.993246     -1.507057
  H       2.340649      1.455571     -2.484937
  H       4.047325      0.002807     -1.491416
  H       3.649507     -0.050373     -3.909342
  H       0.484582     -3.226418     -2.103731
  H      -4.215440      1.307978      0.937107
26
Coordinates from ORCA-job my_molecule_MEP_ALL E -1757.326568065064
  O      -1.840257      0.449162      1.617120
  Si     -0.378780      0.518959      2.459399
  Si     -3.441047      0.121052      2.009428
  C       0.902136      1.516173      1.526523
  C       2.120518      1.046496      1.189274
  H       0.668642      2.571552      1.288655
  H       2.874162      1.679715      0.686522
  H       2.428267      0.005946      1.396722
  Si      0.811465     -1.810295     -1.184789
  O      -0.406847     -0.696671     -1.002263
  O       1.969805     -1.253226     -2.234309
  Si      3.101158     -0.165871     -2.798466
  Si     -1.817421     -0.073533     -1.660186
  H       1.412201     -2.027480      0.170459
  H      -3.852108      0.901073      3.229927
  H      -0.667232      1.188815      3.780822
  H      -3.636698     -1.346295      2.284412
  H       0.149832     -0.867740      2.709766
  H      -1.817620     -0.267581     -3.155159
  H      -3.011205     -0.790125     -1.095241
  H      -1.898584      1.391890     -1.357122
  H       2.534774      1.227415     -2.857508
  H       4.311758     -0.165968     -1.903899
  H       3.502664     -0.595839     -4.179034
  H       0.274703     -3.083676     -1.766367
  H      -4.294287      0.526052      0.845313
26
Coordinates from ORCA-job my_molecule_MEP_ALL E -1757.323617095172
  O      -1.799787      0.299156      1.633280
  Si     -0.419265      0.590013      2.568389
  Si     -3.353375     -0.236606      2.002400
  C       0.911404      1.522584      1.632427
  C       2.130420      1.031158      1.331576
  H       0.709731      2.580497      1.377020
  H       2.901670      1.648181      0.833198
  H       2.423423     -0.010502      1.552146
  Si      0.747853     -1.562565     -1.078207
  O      -0.373753     -0.369479     -1.306127
  O       2.096602     -1.259599     -1.990634
  Si      3.139167     -0.412124     -2.974798
  Si     -1.832897      0.260379     -1.813431
  H       1.147152     -1.567001      0.361516
  H      -4.012690      0.676209      3.000880
  H      -0.849675      1.433183      3.742370
  H      -3.316268     -1.629417      2.573864
  H       0.126818     -0.724293      3.057819
  H      -1.849298      0.337429     -3.316360
  H      -2.974085     -0.612039     -1.370889
  H      -1.984824      1.638842     -1.244457
  H       2.665991      0.999800     -3.194876
  H       4.493852     -0.386581     -2.324249
  H       3.237682     -1.107960     -4.302668
  H       0.188892     -2.892515     -1.486978
  H      -4.154743     -0.246748      0.736788
26
Coordinates from ORCA-job my_molecule_MEP_ALL E -1757.319137367685
  O      -1.723656      0.175465      1.625394
  Si     -0.438108      0.609109      2.646642
  Si     -3.235043     -0.501781      1.959817
  C       0.968900      1.519817      1.792089
  C       2.176502      0.993730      1.503496
  H       0.821028      2.595449      1.581872
  H       2.985804      1.594701      1.046807
  H       2.418467     -0.070452      1.668240
  Si      0.696385     -1.258143     -1.041574
  O      -0.394592     -0.263014     -1.791544
  O       2.168548     -1.135617     -1.800085
  Si      3.113585     -0.608817     -3.074342
  Si     -1.891854      0.452525     -1.982547
  H       0.891009     -0.827920      0.362765
  H      -4.119659      0.478020      2.684343
  H      -0.993089      1.541724      3.692311
  H      -3.091017     -1.735681      2.813056
  H       0.081476     -0.647929      3.291877
  H      -2.044051      0.768465     -3.442038
  H      -2.991580     -0.483320     -1.562192
  H      -1.988986      1.721653     -1.184286
  H       2.744515      0.792322     -3.480218
  H       4.544824     -0.633204     -2.618906
  H       2.956557     -1.518908     -4.261431
  H       0.227918     -2.678824     -1.091779
  H      -3.883881     -0.879369      0.662234
26
Coordinates from ORCA-job my_molecule_MEP_ALL E -1757.311293242885
  O      -1.651218      0.094021      1.607102
  Si     -0.439830      0.595219      2.692825
  Si     -3.143512     -0.648605      1.909807
  C       1.048081      1.475236      1.934788
  C       2.213767      0.880435      1.611215
  H       0.968316      2.564990      1.767147
  H       3.058335      1.436597      1.160171
  H       2.370059     -0.209770      1.697021
  Si      0.652335     -0.929433     -1.027595
  O      -0.471877     -0.338936     -2.103669
  O       2.165898     -0.981017     -1.718920
  Si      3.070875     -0.700014     -3.099632
  Si     -1.940314      0.479960     -2.099674
  H       0.696413      0.012207      0.100300
  H      -4.138772      0.339451      2.459305
  H      -1.072176      1.569966      3.648109
  H      -2.987008     -1.767586      2.907912
  H       0.042122     -0.639004      3.405786
  H      -2.169286      0.918554     -3.512558
  H      -3.039395     -0.446275     -1.660009
  H      -1.946510      1.685031     -1.194058
  H       2.784359      0.668446     -3.654796
  H       4.522449     -0.789844     -2.723409
  H       2.769344     -1.734031     -4.148570
  H       0.316851     -2.321785     -0.586361
  H      -3.679306     -1.213809      0.627764
26
Coordinates from ORCA-job my_molecule_MEP_ALL E -1757.301064553211
  O      -1.624925      0.010806      1.574785
  Si     -0.445108      0.558773      2.673523
  Si     -3.112415     -0.748206      1.871956
  C       1.088218      1.340287      1.896556
  C       2.216066      0.675817      1.579004
  H       1.051167      2.426999      1.685458
  H       3.060543      1.162912      1.050994
  H       2.317852     -0.418381      1.707581
  Si      0.683384     -0.566671     -0.910160
  O      -0.474165     -0.305395     -2.076472
  O       2.182829     -0.791609     -1.622643
  Si      3.034013     -0.719620     -3.070611
  Si     -1.950669      0.489220     -2.102348
  H       0.560809      0.657093     -0.075720
  H      -4.141545      0.251286      2.332699
  H      -1.089782      1.599971      3.545560
  H      -2.957106     -1.798907      2.941916
  H       0.010811     -0.632490      3.464708
  H      -2.143244      0.907719     -3.523938
  H      -3.028494     -0.466053     -1.679448
  H      -2.020282      1.704436     -1.207211
  H       2.796832      0.601364     -3.746994
  H       4.497514     -0.864341     -2.762363
  H       2.637414     -1.828409     -4.008647
  H       0.447089     -1.847324     -0.148267
  H      -3.596806     -1.399279      0.610080
26
Coordinates from ORCA-job my_molecule_MEP_ALL E -1757.255192867535
  O      -1.657825     -0.011762      1.572216
  Si     -0.460790      0.551181      2.630566
  Si     -3.138429     -0.769049      1.873502
  C       1.024886      1.261542      1.681650
  C       2.183789      0.582188      1.452266
  H       1.031687      2.367878      1.585529
  H       3.036435      1.066290      0.941567
  H       2.329937     -0.480206      1.732585
  Si      0.761147     -0.464276     -0.782601
  O      -0.400936     -0.201054     -1.940961
  O       2.201060     -0.787992     -1.608703
  Si      3.040534     -0.719528     -3.074433
  Si     -1.908034      0.499857     -2.057205
  H       0.443820      0.852023      0.134320
  H      -4.158421      0.240010      2.329905
  H      -1.069334      1.614065      3.511961
  H      -2.970366     -1.810867      2.948845
  H       0.020216     -0.609722      3.456124
  H      -2.084438      0.875627     -3.496626
  H      -2.979396     -0.482305     -1.668953
  H      -2.061121      1.732786     -1.199792
  H       2.798236      0.599192     -3.755027
  H       4.509657     -0.865736     -2.781914
  H       2.637595     -1.832296     -4.011339
  H       0.481899     -1.787434     -0.083253
  H      -3.611809     -1.420410      0.609772
26
Coordinates from ORCA-job my_molecule_MEP_ALL E -1757.250833625717
  O      -1.663037     -0.016489      1.570708
  Si     -0.463665      0.563381      2.625668
  Si     -3.139761     -0.769676      1.875509
  C       0.870985      1.269012      1.501339
  C       2.136517      0.461353      1.213971
  H       1.025176      2.371386      1.615324
  H       3.038094      1.060720      0.948622
  H       2.347809     -0.466655      1.764781
  Si      0.910178     -0.543852     -0.730798
  O      -0.348656     -0.154449     -1.842660
  O       2.229245     -0.823042     -1.664255
  Si      3.055330     -0.725162     -3.098822
  Si     -1.901971      0.500960     -2.047638
  H       0.419484      1.044145      0.421654
  H      -4.158819      0.240731      2.330169
  H      -1.074849      1.612868      3.517250
  H      -2.971922     -1.811520      2.948995
  H       0.021779     -0.603536      3.453189
  H      -2.079886      0.872240     -3.495775
  H      -2.977877     -0.483593     -1.669859
  H      -2.063564      1.733449     -1.201672
  H       2.798202      0.600495     -3.755283
  H       4.513621     -0.865601     -2.783166
  H       2.639978     -1.834757     -4.020272
  H       0.450651     -1.813134     -0.087009
  H      -3.613042     -1.419272      0.610029
26
Coordinates from ORCA-job my_molecule_MEP_ALL E -1757.324630451092
  O      -1.673649     -0.025431      1.573960
  Si     -0.475598      0.566112      2.616432
  Si     -3.148336     -0.777073      1.876836
  C       0.827864      1.285205      1.459422
  C       1.998368      0.373007      1.002404
  H       1.078395      2.341031      1.690853
  H       2.931536      0.981713      0.831867
  H       2.306397     -0.433475      1.721685
  Si      1.027644     -0.581333     -0.634202
  O      -0.263910     -0.061296     -1.667963
  O       2.262360     -0.874985     -1.681751
  Si      3.072068     -0.737022     -3.120949
  Si     -1.837309      0.499786     -1.994587
  H       0.278638      1.292370      0.493111
  H      -4.164293      0.237053      2.330898
  H      -1.078409      1.613565      3.514167
  H      -2.976545     -1.816798      2.951814
  H       0.029299     -0.588096      3.448930
  H      -2.016754      0.842459     -3.459017
  H      -2.928684     -0.492683     -1.661180
  H      -2.079474      1.747184     -1.195985
  H       2.799356      0.597516     -3.758513
  H       4.533066     -0.865377     -2.806016
  H       2.652545     -1.839832     -4.049018
  H       0.463654     -1.858421     -0.093114
  H      -3.618228     -1.425179      0.609915
26
Coordinates from ORCA-job my_molecule_MEP_ALL E -1757.381892156518
  O      -1.530840     -0.191243      1.457847
  Si     -0.676177      0.775630      2.550805
  Si     -2.702809     -1.398838      1.523391
  C       0.780137      1.539594      1.632673
  C       1.725810      0.553669      0.916160
  H       1.335982      2.141787      2.387722
  H       2.619074      1.089396      0.524883
  H       2.125814     -0.208502      1.621940
  Si      1.022994     -0.354548     -0.583114
  O      -0.014143      0.652518     -1.426385
  O       2.337706     -0.688313     -1.565145
  Si      2.686059     -1.263182     -3.100417
  Si     -1.610663      1.044418     -1.736148
  H       0.368474      2.276710      0.909040
  H      -4.075795     -0.790160      1.439463
  H      -1.574847      1.854668      3.096979
  H      -2.583740     -2.165654      2.814951
  H      -0.208095     -0.089944      3.695114
  H      -1.696962      1.551056     -3.148331
  H      -2.510744     -0.154875     -1.595469
  H      -2.076281      2.129140     -0.803709
  H       2.447346     -0.198824     -4.136589
  H       4.133697     -1.661335     -3.125580
  H       1.836106     -2.463432     -3.431258
  H       0.331633     -1.653419     -0.282879
  H      -2.489735     -2.326317      0.364055
26
Coordinates from ORCA-job my_molecule_MEP_ALL E -1757.328557421627
  O      -1.845706      0.529372      1.580749
  Si     -0.340506      0.389943      2.325301
  Si     -3.470566      0.551388      1.998738
  C       0.909653      1.476454      1.453733
  C       2.144539      1.054214      1.112262
  H       0.641324      2.531734      1.255479
  H       2.890276      1.724486      0.649950
  H       2.472343      0.013198      1.284131
  Si      0.908505     -1.997946     -1.356688
  O      -0.432876     -1.131278     -0.878286
  O       1.860444     -1.113469     -2.400156
  Si      2.996650      0.104653     -2.566457
  Si     -1.848984     -0.505833     -1.539255
  H       1.677416     -2.327971     -0.112517
  H      -3.656991      1.235870      3.328365
  H      -0.505750      0.847380      3.755385
  H      -4.017915     -0.847344      2.090754
  H       0.137438     -1.035406      2.318523
  H      -1.978320     -0.963651     -2.970224
  H      -3.032398     -1.018605     -0.770411
  H      -1.815201      0.993246     -1.507057
  H       2.340649      1.455571     -2.484937
  H       4.047325      0.002807     -1.491416
  H       3.649507     -0.050373     -3.909342
  H       0.484582     -3.226418     -2.103731
  H      -4.215440      1.307978      0.937107
26
Coordinates from ORCA-job my_molecule_MEP_ALL E -1757.326587342345
  O      -1.840149      0.448540      1.617590
  Si     -0.378826      0.519731      2.460087
  Si     -3.440590      0.118548      2.009649
  C       0.900580      1.517155      1.527252
  C       2.121560      1.046148      1.190127
  H       0.668284      2.571445      1.288521
  H       2.874000      1.679223      0.688050
  H       2.427468      0.006339      1.398551
  Si      0.811056     -1.808934     -1.184072
  O      -0.406650     -0.694142     -1.004309
  O       1.971005     -1.254215     -2.233224
  Si      3.101694     -0.167864     -2.799964
  Si     -1.817445     -0.071033     -1.661313
  H       1.410523     -2.024531      0.171874
  H      -3.853385      0.899529      3.228831
  H      -0.667902      1.190409      3.781192
  H      -3.633964     -1.348661      2.286503
  H       0.150056     -0.866751      2.711872
  H      -1.817555     -0.262983     -3.156540
  H      -3.011039     -0.788816     -1.097489
  H      -1.899376      1.393906     -1.356133
  H       2.535454      1.225433     -2.859834
  H       4.313464     -0.167178     -1.907028
  H       3.501589     -0.599343     -4.180498
  H       0.273803     -3.082687     -1.764206
  H      -4.293655      0.520733      0.844510
26
Coordinates from ORCA-job my_molecule_MEP_ALL E -1757.323712619062
  O      -1.798665      0.297541      1.633564
  Si     -0.418790      0.590652      2.569187
  Si     -3.351726     -0.239964      2.002340
  C       0.909026      1.524316      1.634374
  C       2.133054      1.030486      1.333505
  H       0.709733      2.580195      1.378117
  H       2.901796      1.647276      0.836891
  H       2.422294     -0.009945      1.555188
  Si      0.747244     -1.559631     -1.077545
  O      -0.373959     -0.366972     -1.312486
  O       2.098418     -1.259341     -1.987904
  Si      3.139110     -0.415034     -2.976159
  Si     -1.833623      0.263077     -1.816115
  H       1.143529     -1.559475      0.362679
  H      -4.013542      0.674286      2.997591
  H      -0.850986      1.434313      3.743007
  H      -3.312565     -1.631047      2.577377
  H       0.127526     -0.723280      3.060748
  H      -1.852104      0.343534     -3.318867
  H      -2.974166     -0.610569     -1.374208
  H      -1.985882      1.640319     -1.244066
  H       2.666573      0.996824     -3.198128
  H       4.495300     -0.389010     -2.328835
  H       3.234659     -1.113350     -4.302947
  H       0.188955     -2.890603     -1.482922
  H      -4.151209     -0.254596      0.735614
26
Coordinates from ORCA-job my_molecule_MEP_ALL E -1757.319224821425
  O      -1.721513      0.174324      1.625295
  Si     -0.437324      0.609427      2.647815
  Si     -3.232415     -0.504040      1.959157
  C       0.967149      1.521666      1.795023
  C       2.179431      0.993041      1.505765
  H       0.821608      2.595457      1.583667
  H       2.986030      1.593042      1.050662
  H       2.417215     -0.070503      1.671680
  Si      0.695096     -1.254615     -1.041712
  O      -0.396062     -0.263887     -1.799106
  O       2.168985     -1.133118     -1.798288
  Si      3.112599     -0.610674     -3.074567
  Si     -1.892446      0.452850     -1.985527
  H       0.886176     -0.818156      0.360360
  H      -4.118749      0.476360      2.680653
  H      -0.994553      1.541532      3.693299
  H      -3.087869     -1.735946      2.815055
  H       0.082353     -0.647332      3.294207
  H      -2.047823      0.771846     -3.444108
  H      -2.992211     -0.483022     -1.564836
  H      -1.988054      1.720815     -1.184818
  H       2.744965      0.790123     -3.483205
  H       4.544626     -0.635646     -2.621323
  H       2.953249     -1.523071     -4.259720
  H       0.228499     -2.675605     -1.086755
  H      -3.878962     -0.884867      0.661327
26
Coordinates from ORCA-job my_molecule_MEP_ALL E -1757.311398048756
  O      -1.648869      0.092756      1.607342
  Si     -0.439055      0.595201      2.694351
  Si     -3.140916     -0.650281      1.909172
  C       1.046188      1.475348      1.936714
  C       2.216607      0.877457      1.612390
  H       0.968614      2.562834      1.765390
  H       3.057579      1.431955      1.161459
  H       2.369048     -0.211881      1.701924
  Si      0.651518     -0.923748     -1.027017
  O      -0.473671     -0.340843     -2.108048
  O       2.165856     -0.977131     -1.718315
  Si      3.069699     -0.700432     -3.099375
  Si     -1.940899      0.478960     -2.102181
  H       0.691699      0.024265      0.094507
  H      -4.137133      0.338203      2.456257
  H      -1.073327      1.569963      3.648657
  H      -2.984632     -1.767755      2.908966
  H       0.042433     -0.638487      3.408918
  H      -2.171562      0.919121     -3.514288
  H      -3.040083     -0.446897     -1.661878
  H      -1.945298      1.683450     -1.195464
  H       2.784891      0.667000     -3.657668
  H       4.521507     -0.791165     -2.724173
  H       2.766481     -1.736367     -4.145949
  H       0.318055     -2.314147     -0.578728
  H      -3.674730     -1.217377      0.627038
26
Coordinates from ORCA-job my_molecule_MEP_ALL E -1757.301465406076
  O      -1.624532      0.010064      1.575724
  Si     -0.444156      0.558324      2.673908
  Si     -3.111908     -0.749003      1.872386
  C       1.083982      1.340236      1.893282
  C       2.222390      0.671353      1.580835
  H       1.049160      2.422281      1.676890
  H       3.057910      1.157227      1.049235
  H       2.318511     -0.420014      1.713064
  Si      0.682447     -0.562413     -0.908150
  O      -0.473464     -0.307063     -2.077872
  O       2.180898     -0.786776     -1.620390
  Si      3.032413     -0.718473     -3.068376
  Si     -1.949655      0.487522     -2.103691
  H       0.556190      0.661420     -0.080982
  H      -4.140853      0.250872      2.332171
  H      -1.088942      1.600875      3.545786
  H      -2.956637     -1.799094      2.942607
  H       0.011199     -0.632164      3.467706
  H      -2.144206      0.907044     -3.524991
  H      -3.027941     -0.467417     -1.679821
  H      -2.019174      1.703677     -1.207970
  H       2.797215      0.602434     -3.749243
  H       4.498296     -0.863664     -2.762196
  H       2.636047     -1.829044     -4.007015
  H       0.449649     -1.838169     -0.143069
  H      -3.594840     -1.400037      0.610172
26
Coordinates from ORCA-job my_molecule_MEP_ALL E -1757.255892678749
  O      -1.657789     -0.012358      1.573816
  Si     -0.457468      0.551673      2.628619
  Si     -3.138586     -0.769484      1.874456
  C       1.022118      1.262385      1.683718
  C       2.189502      0.574500      1.445006
  H       1.026514      2.362215      1.574912
  H       3.037361      1.064612      0.949404
  H       2.329820     -0.474205      1.735271
  Si      0.761907     -0.466763     -0.785752
  O      -0.400763     -0.202967     -1.944002
  O       2.202836     -0.782963     -1.610089
  Si      3.040658     -0.717941     -3.074629
  Si     -1.909323      0.498972     -2.059542
  H       0.441692      0.847972      0.138368
  H      -4.157789      0.240092      2.330011
  H      -1.067776      1.614327      3.512559
  H      -2.970392     -1.810824      2.949321
  H       0.020244     -0.607828      3.457126
  H      -2.086958      0.876157     -3.499209
  H      -2.980138     -0.483465     -1.669185
  H      -2.059380      1.731505     -1.200633
  H       2.798417      0.599331     -3.755295
  H       4.507951     -0.864726     -2.780509
  H       2.636440     -1.831287     -4.007688
  H       0.481574     -1.778709     -0.076058
  H      -3.610671     -1.420222      0.610005
26
Coordinates from ORCA-job my_molecule_MEP_ALL E -1757.251231520899
  O      -1.662944     -0.016829      1.571831
  Si     -0.463781      0.561991      2.626856
  Si     -3.140152     -0.770778      1.876350
  C       0.877019      1.263797      1.507483
  C       2.132547      0.458950      1.211539
  H       1.023559      2.366598      1.607135
  H       3.032330      1.053125      0.944217
  H       2.347499     -0.465464      1.768009
  Si      0.913238     -0.540781     -0.723454
  O      -0.345743     -0.152960     -1.840015
  O       2.229016     -0.822263     -1.663112
  Si      3.055088     -0.724566     -3.098406
  Si     -1.900182      0.500103     -2.047059
  H       0.404853      1.057125      0.410019
  H      -4.158738      0.240222      2.330008
  H      -1.073567      1.613542      3.516633
  H      -2.971694     -1.811969      2.949870
  H       0.022588     -0.601357      3.454884
  H      -2.078761      0.870075     -3.494464
  H      -2.974567     -0.484761     -1.670574
  H      -2.062608      1.732243     -1.202834
  H       2.798616      0.602101     -3.758124
  H       4.515783     -0.864781     -2.783831
  H       2.639236     -1.835923     -4.020523
  H       0.452835     -1.807238     -0.082436
  H      -3.611468     -1.420201      0.609997
26
Coordinates from ORCA-job my_molecule_MEP_ALL E -1757.325344750098
  O      -1.674250     -0.026353      1.574955
  Si     -0.474859      0.565767      2.616935
  Si     -3.149126     -0.778042      1.877697
  C       0.833426      1.278638      1.455814
  C       1.999615      0.369304      0.998105
  H       1.073822      2.340568      1.683776
  H       2.926282      0.977997      0.832561
  H       2.303107     -0.429607      1.720306
  Si      1.030114     -0.579994     -0.633849
  O      -0.260718     -0.060054     -1.664312
  O       2.264572     -0.873275     -1.682094
  Si      3.073145     -0.736118     -3.122245
  Si     -1.833846      0.497992     -1.994269
  H       0.269373      1.296028      0.493970
  H      -4.163776      0.236839      2.330824
  H      -1.078441      1.615347      3.515902
  H      -2.976600     -1.816785      2.952452
  H       0.029951     -0.585809      3.450051
  H      -2.016863      0.841496     -3.460253
  H      -2.927527     -0.494454     -1.661237
  H      -2.078748      1.746551     -1.196710
  H       2.799698      0.597606     -3.759444
  H       4.532784     -0.864531     -2.805805
  H       2.652080     -1.839826     -4.047193
  H       0.463585     -1.854020     -0.086352
  H      -3.616800     -1.425264      0.610414
26
Coordinates from ORCA-job my_molecule_MEP_ALL E -1757.381892156518
  O      -1.530795     -0.191281      1.457889
  Si     -0.676435      0.776174      2.550571
  Si     -2.702397     -1.399213      1.523778
  C       0.779654      1.540312      1.632228
  C       1.725633      0.554463      0.916013
  H       1.335310      2.142895      2.387104
  H       2.618738      1.090347      0.524586
  H       2.125863     -0.207378      1.622021
  Si      1.023107     -0.354408     -0.583001
  O      -0.014329      0.652094     -1.426577
  O       2.337930     -0.688062     -1.564922
  Si      2.686471     -1.263276     -3.100022
  Si     -1.610966      1.043418     -1.736469
  H       0.367773      2.277089      0.908374
  H      -4.075568     -0.790977      1.439659
  H      -1.575439      1.855099      3.096420
  H      -2.583106     -2.165613      2.815565
  H      -0.208101     -0.088921      3.695138
  H      -1.697406      1.549614     -3.148802
  H      -2.510683     -0.156108     -1.595446
  H      -2.076922      2.128272     -0.804353
  H       2.447443     -0.199295     -4.136508
  H       4.134230     -1.660996     -3.125055
  H       1.836886     -2.463882     -3.430517
  H       0.332139     -1.653402     -0.282390
  H      -2.489030     -2.326967      0.364717
26
Coordinates from ORCA-job my_molecule_MEP_ALL E -1757.328557421627
  O      -1.845706      0.529372      1.580749
  Si     -0.340506      0.389943      2.325301
  Si     -3.470566      0.551388      1.998738
  C       0.909653      1.476454      1.453733
  C       2.144539      1.054214      1.112262
  H       0.641324      2.531734      1.255479
  H       2.890276      1.724486      0.649950
  H       2.472343      0.013198      1.284131
  Si      0.908505     -1.997946     -1.356688
  O      -0.432876     -1.131278     -0.878286
  O       1.860444     -1.113469     -2.400156
  Si      2.996650      0.104653     -2.566457
  Si     -1.848984     -0.505833     -1.539255
  H       1.677416     -2.327971     -0.112517
  H      -3.656991      1.235870      3.328365
  H      -0.505750      0.847380      3.755385
  H      -4.017915     -0.847344      2.090754
  H       0.137438     -1.035406      2.318523
  H      -1.978320     -0.963651     -2.970224
  H      -3.032398     -1.018605     -0.770411
  H      -1.815201      0.993246     -1.507057
  H       2.340649      1.455571     -2.484937
  H       4.047325      0.002807     -1.491416
  H       3.649507     -0.050373     -3.909342
  H       0.484582     -3.226418     -2.103731
  H      -4.215440      1.307978      0.937107
26
Coordinates from ORCA-job my_molecule_MEP_ALL E -1757.326569396268
  O      -1.839934      0.447382      1.618450
  Si     -0.379077      0.521060      2.461544
  Si     -3.439702      0.113945      2.010031
  C       0.899353      1.518080      1.528217
  C       2.121639      1.046200      1.192222
  H       0.667545      2.571651      1.288205
  H       2.874017      1.678534      0.690668
  H       2.426161      0.006700      1.401987
  Si      0.810291     -1.806436     -1.182752
  O      -0.406313     -0.689455     -1.008098
  O       1.973207     -1.256037     -2.231218
  Si      3.102679     -0.171523     -2.802717
  Si     -1.817475     -0.066431     -1.663403
  H       1.407425     -2.019082      0.174503
  H      -3.855749      0.896704      3.226826
  H      -0.669137      1.193313      3.781808
  H      -3.628941     -1.353052      2.290369
  H       0.150469     -0.864866      2.715734
  H      -1.817453     -0.254505     -3.159102
  H      -3.010735     -0.786422     -1.101628
  H      -1.900835      1.397626     -1.354318
  H       2.536709      1.221799     -2.864128
  H       4.316610     -0.169418     -1.912783
  H       3.499593     -0.605818     -4.183213
  H       0.272156     -3.080871     -1.760224
  H      -4.292501      0.510918      0.843020
26
Coordinates from ORCA-job my_molecule_MEP_ALL E -1757.323684171283
  O      -1.796558      0.294593      1.634071
  Si     -0.418350      0.591601      2.571177
  Si     -3.348608     -0.246044      2.002142
  C       0.907604      1.525775      1.637341
  C       2.134485      1.030518      1.337917
  H       0.709589      2.580494      1.379934
  H       2.902717      1.646095      0.843218
  H       2.420521     -0.009639      1.560909
  Si      0.746108     -1.554196     -1.076417
  O      -0.374275     -0.362439     -1.324107
  O       2.101681     -1.258887     -1.982859
  Si      3.139016     -0.420298     -2.978657
  Si     -1.835006      0.268030     -1.821060
  H       1.136901     -1.545717      0.364854
  H      -4.015132      0.670816      2.991620
  H      -0.853323      1.436233      3.743982
  H      -3.305820     -1.634092      2.583816
  H       0.128805     -0.721244      3.065990
  H      -1.857233      0.354675     -3.323455
  H      -2.974319     -0.607911     -1.380267
  H      -1.987793      1.643007     -1.243357
  H       2.667635      0.991408     -3.204072
  H       4.497950     -0.393462     -2.337172
  H       3.229116     -1.123221     -4.303466
  H       0.189054     -2.887162     -1.475551
  H      -4.144765     -0.268935      0.733468
26
Coordinates from ORCA-job my_molecule_MEP_ALL E -1757.319186169157
  O      -1.717575      0.172228      1.625109
  Si     -0.436195      0.609896      2.650315
  Si     -3.227574     -0.508156      1.957891
  C       0.966721      1.523314      1.799829
  C       2.181432      0.992853      1.510875
  H       0.822597      2.596199      1.586825
  H       2.987227      1.590457      1.057270
  H       2.415157     -0.071223      1.678086
  Si      0.692720     -1.248143     -1.042088
  O      -0.398775     -0.265486     -1.813000
  O       2.169853     -1.128486     -1.795057
  Si      3.110784     -0.614074     -3.074982
  Si     -1.893646      0.453484     -1.991001
  H       0.877326     -0.800073      0.356068
  H      -4.117112      0.473318      2.673889
  H      -0.997200      1.541100      3.695018
  H      -3.082123     -1.736467      2.818722
  H       0.083942     -0.646138      3.298415
  H      -2.054685      0.778014     -3.447900
  H      -2.993366     -0.482467     -1.569680
  H      -1.986305      1.719248     -1.185805
  H       2.745792      0.786108     -3.488693
  H       4.544238     -0.640134     -2.625714
  H       2.947164     -1.530693     -4.256564
  H       0.229552     -2.669741     -1.077512
  H      -3.869950     -0.894938      0.659683
26
Coordinates from ORCA-job my_molecule_MEP_ALL E -1757.311406666109
  O      -1.644753      0.090411      1.607771
  Si     -0.437809      0.595072      2.697394
  Si     -3.136126     -0.653262      1.908020
  C       1.045560      1.473573      1.939495
  C       2.218305      0.873317      1.615845
  H       0.969051      2.559688      1.762013
  H       3.057068      1.424031      1.163308
  H       2.367406     -0.216250      1.710900
  Si      0.650113     -0.913915     -1.026002
  O      -0.478050     -0.343732     -2.116378
  O       2.165838     -0.970035     -1.717240
  Si      3.067452     -0.701264     -3.098712
  Si     -1.941021      0.476621     -2.106641
  H       0.683216      0.046265      0.084098
  H      -4.134167      0.335953      2.450763
  H      -1.075372      1.569929      3.649680
  H      -2.980359     -1.768069      2.910875
  H       0.043017     -0.637495      3.414582
  H      -2.175722      0.920189     -3.517560
  H      -3.041438     -0.448049     -1.665257
  H      -1.943071      1.680630     -1.197991
  H       2.785835      0.664553     -3.662952
  H       4.519884     -0.793531     -2.725536
  H       2.761290     -1.740622     -4.141300
  H       0.320283     -2.300223     -0.564926
  H      -3.666432     -1.223784      0.625750
26
Coordinates from ORCA-job my_molecule_MEP_ALL E -1757.301588507727
  O      -1.623867      0.008618      1.577528
  Si     -0.442600      0.557543      2.674704
  Si     -3.110869     -0.750309      1.873174
  C       1.080471      1.336493      1.887242
  C       2.227894      0.665257      1.584327
  H       1.045286      2.414743      1.660663
  H       3.055058      1.147714      1.045881
  H       2.320076     -0.423738      1.723406
  Si      0.681109     -0.555443     -0.905804
  O      -0.473362     -0.309692     -2.080877
  O       2.178704     -0.777997     -1.617101
  Si      3.030075     -0.716217     -3.065038
  Si     -1.947679      0.484605     -2.105894
  H       0.547717      0.670701     -0.088682
  H      -4.139681      0.250165      2.331268
  H      -1.087186      1.602260      3.546058
  H      -2.955872     -1.799527      2.943896
  H       0.011875     -0.631305      3.472858
  H      -2.145919      0.905869     -3.526953
  H      -3.026893     -0.469794     -1.680548
  H      -2.017062      1.701999     -1.209561
  H       2.797937      0.603775     -3.752816
  H       4.498691     -0.862352     -2.761816
  H       2.633588     -1.829621     -4.003373
  H       0.453902     -1.822333     -0.132801
  H      -3.591392     -1.401412      0.610260
26
Coordinates from ORCA-job my_molecule_MEP_ALL E -1757.255642745541
  O      -1.657570     -0.013344      1.576563
  Si     -0.454041      0.552143      2.627008
  Si     -3.138475     -0.770104      1.875912
  C       1.021091      1.257823      1.684593
  C       2.191474      0.567048      1.435362
  H       1.018529      2.354837      1.556594
  H       3.040392      1.061476      0.957989
  H       2.330556     -0.469922      1.741617
  Si      0.763049     -0.466390     -0.787823
  O      -0.399581     -0.205392     -1.947320
  O       2.205288     -0.775841     -1.611247
  Si      3.041328     -0.715188     -3.075566
  Si     -1.909853      0.497111     -2.062783
  H       0.434084      0.845683      0.142242
  H      -4.156975      0.240213      2.330198
  H      -1.064599      1.614533      3.512863
  H      -2.970486     -1.811102      2.950471
  H       0.020743     -0.604554      3.459144
  H      -2.090562      0.876339     -3.502618
  H      -2.980399     -0.485404     -1.669909
  H      -2.056443      1.729111     -1.202411
  H       2.798809      0.600426     -3.756767
  H       4.506498     -0.862998     -2.778452
  H       2.634290     -1.830488     -4.002569
  H       0.481436     -1.765873     -0.063440
  H      -3.608582     -1.420142      0.610349
26
Coordinates from ORCA-job my_molecule_MEP_ALL E -1757.251731169699
  O      -1.662767     -0.017601      1.574320
  Si     -0.463879      0.559957      2.628263
  Si     -3.140292     -0.772315      1.877599
  C       0.881199      1.258991      1.510649
  C       2.129127      0.453513      1.208460
  H       1.021027      2.357651      1.592949
  H       3.024937      1.041932      0.938705
  H       2.346903     -0.463880      1.773769
  Si      0.916271     -0.533772     -0.714005
  O      -0.341687     -0.151641     -1.837609
  O       2.228581     -0.818606     -1.660629
  Si      3.054536     -0.723002     -3.097527
  Si     -1.896749      0.498294     -2.046666
  H       0.385492      1.070946      0.394742
  H      -4.158556      0.239439      2.329821
  H      -1.070972      1.614655      3.515631
  H      -2.971401     -1.812790      2.951423
  H       0.023946     -0.598345      3.458278
  H      -2.077572      0.867073     -3.493505
  H      -2.969932     -0.487174     -1.671511
  H      -2.060766      1.730561     -1.204456
  H       2.799425      0.603790     -3.762082
  H       4.517690     -0.863165     -2.784668
  H       2.637923     -1.836770     -4.019277
  H       0.456287     -1.796122     -0.072695
  H      -3.608771     -1.421620      0.610020
26
Coordinates from ORCA-job my_molecule_MEP_ALL E -1757.326444156346
  O      -1.674426     -0.027433      1.577133
  Si     -0.472825      0.566033      2.617270
  Si     -3.149791     -0.779263      1.879137
  C       0.837469      1.268840      1.449682
  C       2.000860      0.365830      0.996264
  H       1.065784      2.339085      1.669102
  H       2.924223      0.975022      0.835018
  H       2.299827     -0.426885      1.721032
  Si      1.031895     -0.576917     -0.634265
  O      -0.257862     -0.060033     -1.663499
  O       2.267018     -0.868881     -1.682002
  Si      3.073972     -0.734260     -3.123039
  Si     -1.830830      0.495518     -1.995433
  H       0.258674      1.295298      0.494721
  H      -4.163003      0.236617      2.330781
  H      -1.077649      1.617699      3.518073
  H      -2.976645     -1.816983      2.953738
  H       0.031072     -0.582931      3.452773
  H      -2.018169      0.840274     -3.462313
  H      -2.925791     -0.496920     -1.661763
  H      -2.076760      1.744704     -1.198346
  H       2.800291      0.598424     -3.761545
  H       4.532553     -0.863016     -2.805082
  H       2.650761     -1.839972     -4.043818
  H       0.463630     -1.844349     -0.074603
  H      -3.614278     -1.425503      0.610982
26
Coordinates from ORCA-job my_molecule_MEP_ALL E -1757.381892156518
  O      -1.530707     -0.191354      1.457971
  Si     -0.676850      0.777069      2.550189
  Si     -2.701693     -1.399853      1.524439
  C       0.778856      1.541504      1.631484
  C       1.725343      0.555791      0.915756
  H       1.334198      2.144739      2.386072
  H       2.618178      1.091941      0.524075
  H       2.125958     -0.205503      1.622137
  Si      1.023292     -0.354169     -0.582821
  O      -0.014652      0.651393     -1.426894
  O       2.338292     -0.687629     -1.564570
  Si      2.687138     -1.263411     -3.099388
  Si     -1.611487      1.041751     -1.736988
  H       0.366603      2.277719      0.907269
  H      -4.075174     -0.792359      1.440014
  H      -1.576409      1.855800      3.095507
  H      -2.582020     -2.165564      2.816600
  H      -0.208081     -0.087230      3.695180
  H      -1.698176      1.547216     -3.149568
  H      -2.510592     -0.158167     -1.595389
  H      -2.078004      2.126820     -0.805403
  H       2.447574     -0.200056     -4.136394
  H       4.135102     -1.660404     -3.124218
  H       1.838169     -2.464612     -3.429306
  H       0.332986     -1.653370     -0.281584
  H      -2.487844     -2.328062      0.365830
