26
Coordinates from ORCA-job my_molecule_MEP E -1757.328557421627
  O      -1.845706      0.529372      1.580749
  Si     -0.340506      0.389943      2.325301
  Si     -3.470566      0.551388      1.998738
  C       0.909653      1.476454      1.453733
  C       2.144539      1.054214      1.112262
  H       0.641324      2.531734      1.255479
  H       2.890276      1.724486      0.649950
  H       2.472343      0.013198      1.284131
  Si      0.908505     -1.997946     -1.356688
  O      -0.432876     -1.131278     -0.878286
  O       1.860444     -1.113469     -2.400156
  Si      2.996650      0.104653     -2.566457
  Si     -1.848984     -0.505833     -1.539255
  H       1.677416     -2.327971     -0.112517
  H      -3.656991      1.235870      3.328365
  H      -0.505750      0.847380      3.755385
  H      -4.017915     -0.847344      2.090754
  H       0.137438     -1.035406      2.318523
  H      -1.978320     -0.963651     -2.970224
  H      -3.032398     -1.018605     -0.770411
  H      -1.815201      0.993246     -1.507057
  H       2.340649      1.455571     -2.484937
  H       4.047325      0.002807     -1.491416
  H       3.649507     -0.050373     -3.909342
  H       0.484582     -3.226418     -2.103731
  H      -4.215440      1.307978      0.937107
26
Coordinates from ORCA-job my_molecule_MEP E -1757.326569396268
  O      -1.839934      0.447382      1.618450
  Si     -0.379077      0.521060      2.461544
  Si     -3.439702      0.113945      2.010031
  C       0.899353      1.518080      1.528217
  C       2.121639      1.046200      1.192222
  H       0.667545      2.571651      1.288205
  H       2.874017      1.678534      0.690668
  H       2.426161      0.006700      1.401987
  Si      0.810291     -1.806436     -1.182752
  O      -0.406313     -0.689455     -1.008098
  O       1.973207     -1.256037     -2.231218
  Si      3.102679     -0.171523     -2.802717
  Si     -1.817475     -0.066431     -1.663403
  H       1.407425     -2.019082      0.174503
  H      -3.855749      0.896704      3.226826
  H      -0.669137      1.193313      3.781808
  H      -3.628941     -1.353052      2.290369
  H       0.150469     -0.864866      2.715734
  H      -1.817453     -0.254505     -3.159102
  H      -3.010735     -0.786422     -1.101628
  H      -1.900835      1.397626     -1.354318
  H       2.536709      1.221799     -2.864128
  H       4.316610     -0.169418     -1.912783
  H       3.499593     -0.605818     -4.183213
  H       0.272156     -3.080871     -1.760224
  H      -4.292501      0.510918      0.843020
26
Coordinates from ORCA-job my_molecule_MEP E -1757.323684171283
  O      -1.796558      0.294593      1.634071
  Si     -0.418350      0.591601      2.571177
  Si     -3.348608     -0.246044      2.002142
  C       0.907604      1.525775      1.637341
  C       2.134485      1.030518      1.337917
  H       0.709589      2.580494      1.379934
  H       2.902717      1.646095      0.843218
  H       2.420521     -0.009639      1.560909
  Si      0.746108     -1.554196     -1.076417
  O      -0.374275     -0.362439     -1.324107
  O       2.101681     -1.258887     -1.982859
  Si      3.139016     -0.420298     -2.978657
  Si     -1.835006      0.268030     -1.821060
  H       1.136901     -1.545717      0.364854
  H      -4.015132      0.670816      2.991620
  H      -0.853323      1.436233      3.743982
  H      -3.305820     -1.634092      2.583816
  H       0.128805     -0.721244      3.065990
  H      -1.857233      0.354675     -3.323455
  H      -2.974319     -0.607911     -1.380267
  H      -1.987793      1.643007     -1.243357
  H       2.667635      0.991408     -3.204072
  H       4.497950     -0.393462     -2.337172
  H       3.229116     -1.123221     -4.303466
  H       0.189054     -2.887162     -1.475551
  H      -4.144765     -0.268935      0.733468
26
Coordinates from ORCA-job my_molecule_MEP E -1757.319186169157
  O      -1.717575      0.172228      1.625109
  Si     -0.436195      0.609896      2.650315
  Si     -3.227574     -0.508156      1.957891
  C       0.966721      1.523314      1.799829
  C       2.181432      0.992853      1.510875
  H       0.822597      2.596199      1.586825
  H       2.987227      1.590457      1.057270
  H       2.415157     -0.071223      1.678086
  Si      0.692720     -1.248143     -1.042088
  O      -0.398775     -0.265486     -1.813000
  O       2.169853     -1.128486     -1.795057
  Si      3.110784     -0.614074     -3.074982
  Si     -1.893646      0.453484     -1.991001
  H       0.877326     -0.800073      0.356068
  H      -4.117112      0.473318      2.673889
  H      -0.997200      1.541100      3.695018
  H      -3.082123     -1.736467      2.818722
  H       0.083942     -0.646138      3.298415
  H      -2.054685      0.778014     -3.447900
  H      -2.993366     -0.482467     -1.569680
  H      -1.986305      1.719248     -1.185805
  H       2.745792      0.786108     -3.488693
  H       4.544238     -0.640134     -2.625714
  H       2.947164     -1.530693     -4.256564
  H       0.229552     -2.669741     -1.077512
  H      -3.869950     -0.894938      0.659683
26
Coordinates from ORCA-job my_molecule_MEP E -1757.311406666109
  O      -1.644753      0.090411      1.607771
  Si     -0.437809      0.595072      2.697394
  Si     -3.136126     -0.653262      1.908020
  C       1.045560      1.473573      1.939495
  C       2.218305      0.873317      1.615845
  H       0.969051      2.559688      1.762013
  H       3.057068      1.424031      1.163308
  H       2.367406     -0.216250      1.710900
  Si      0.650113     -0.913915     -1.026002
  O      -0.478050     -0.343732     -2.116378
  O       2.165838     -0.970035     -1.717240
  Si      3.067452     -0.701264     -3.098712
  Si     -1.941021      0.476621     -2.106641
  H       0.683216      0.046265      0.084098
  H      -4.134167      0.335953      2.450763
  H      -1.075372      1.569929      3.649680
  H      -2.980359     -1.768069      2.910875
  H       0.043017     -0.637495      3.414582
  H      -2.175722      0.920189     -3.517560
  H      -3.041438     -0.448049     -1.665257
  H      -1.943071      1.680630     -1.197991
  H       2.785835      0.664553     -3.662952
  H       4.519884     -0.793531     -2.725536
  H       2.761290     -1.740622     -4.141300
  H       0.320283     -2.300223     -0.564926
  H      -3.666432     -1.223784      0.625750
26
Coordinates from ORCA-job my_molecule_MEP E -1757.301588507727
  O      -1.623867      0.008618      1.577528
  Si     -0.442600      0.557543      2.674704
  Si     -3.110869     -0.750309      1.873174
  C       1.080471      1.336493      1.887242
  C       2.227894      0.665257      1.584327
  H       1.045286      2.414743      1.660663
  H       3.055058      1.147714      1.045881
  H       2.320076     -0.423738      1.723406
  Si      0.681109     -0.555443     -0.905804
  O      -0.473362     -0.309692     -2.080877
  O       2.178704     -0.777997     -1.617101
  Si      3.030075     -0.716217     -3.065038
  Si     -1.947679      0.484605     -2.105894
  H       0.547717      0.670701     -0.088682
  H      -4.139681      0.250165      2.331268
  H      -1.087186      1.602260      3.546058
  H      -2.955872     -1.799527      2.943896
  H       0.011875     -0.631305      3.472858
  H      -2.145919      0.905869     -3.526953
  H      -3.026893     -0.469794     -1.680548
  H      -2.017062      1.701999     -1.209561
  H       2.797937      0.603775     -3.752816
  H       4.498691     -0.862352     -2.761816
  H       2.633588     -1.829621     -4.003373
  H       0.453902     -1.822333     -0.132801
  H      -3.591392     -1.401412      0.610260
26
Coordinates from ORCA-job my_molecule_MEP E -1757.255642745541
  O      -1.657570     -0.013344      1.576563
  Si     -0.454041      0.552143      2.627008
  Si     -3.138475     -0.770104      1.875912
  C       1.021091      1.257823      1.684593
  C       2.191474      0.567048      1.435362
  H       1.018529      2.354837      1.556594
  H       3.040392      1.061476      0.957989
  H       2.330556     -0.469922      1.741617
  Si      0.763049     -0.466390     -0.787823
  O      -0.399581     -0.205392     -1.947320
  O       2.205288     -0.775841     -1.611247
  Si      3.041328     -0.715188     -3.075566
  Si     -1.909853      0.497111     -2.062783
  H       0.434084      0.845683      0.142242
  H      -4.156975      0.240213      2.330198
  H      -1.064599      1.614533      3.512863
  H      -2.970486     -1.811102      2.950471
  H       0.020743     -0.604554      3.459144
  H      -2.090562      0.876339     -3.502618
  H      -2.980399     -0.485404     -1.669909
  H      -2.056443      1.729111     -1.202411
  H       2.798809      0.600426     -3.756767
  H       4.506498     -0.862998     -2.778452
  H       2.634290     -1.830488     -4.002569
  H       0.481436     -1.765873     -0.063440
  H      -3.608582     -1.420142      0.610349
26
Coordinates from ORCA-job my_molecule_MEP E -1757.251731169699
  O      -1.662767     -0.017601      1.574320
  Si     -0.463879      0.559957      2.628263
  Si     -3.140292     -0.772315      1.877599
  C       0.881199      1.258991      1.510649
  C       2.129127      0.453513      1.208460
  H       1.021027      2.357651      1.592949
  H       3.024937      1.041932      0.938705
  H       2.346903     -0.463880      1.773769
  Si      0.916271     -0.533772     -0.714005
  O      -0.341687     -0.151641     -1.837609
  O       2.228581     -0.818606     -1.660629
  Si      3.054536     -0.723002     -3.097527
  Si     -1.896749      0.498294     -2.046666
  H       0.385492      1.070946      0.394742
  H      -4.158556      0.239439      2.329821
  H      -1.070972      1.614655      3.515631
  H      -2.971401     -1.812790      2.951423
  H       0.023946     -0.598345      3.458278
  H      -2.077572      0.867073     -3.493505
  H      -2.969932     -0.487174     -1.671511
  H      -2.060766      1.730561     -1.204456
  H       2.799425      0.603790     -3.762082
  H       4.517690     -0.863165     -2.784668
  H       2.637923     -1.836770     -4.019277
  H       0.456287     -1.796122     -0.072695
  H      -3.608771     -1.421620      0.610020
26
Coordinates from ORCA-job my_molecule_MEP E -1757.326444156346
  O      -1.674426     -0.027433      1.577133
  Si     -0.472825      0.566033      2.617270
  Si     -3.149791     -0.779263      1.879137
  C       0.837469      1.268840      1.449682
  C       2.000860      0.365830      0.996264
  H       1.065784      2.339085      1.669102
  H       2.924223      0.975022      0.835018
  H       2.299827     -0.426885      1.721032
  Si      1.031895     -0.576917     -0.634265
  O      -0.257862     -0.060033     -1.663499
  O       2.267018     -0.868881     -1.682002
  Si      3.073972     -0.734260     -3.123039
  Si     -1.830830      0.495518     -1.995433
  H       0.258674      1.295298      0.494721
  H      -4.163003      0.236617      2.330781
  H      -1.077649      1.617699      3.518073
  H      -2.976645     -1.816983      2.953738
  H       0.031072     -0.582931      3.452773
  H      -2.018169      0.840274     -3.462313
  H      -2.925791     -0.496920     -1.661763
  H      -2.076760      1.744704     -1.198346
  H       2.800291      0.598424     -3.761545
  H       4.532553     -0.863016     -2.805082
  H       2.650761     -1.839972     -4.043818
  H       0.463630     -1.844349     -0.074603
  H      -3.614278     -1.425503      0.610982
26
Coordinates from ORCA-job my_molecule_MEP E -1757.381892156518
  O      -1.530707     -0.191354      1.457971
  Si     -0.676850      0.777069      2.550189
  Si     -2.701693     -1.399853      1.524439
  C       0.778856      1.541504      1.631484
  C       1.725343      0.555791      0.915756
  H       1.334198      2.144739      2.386072
  H       2.618178      1.091941      0.524075
  H       2.125958     -0.205503      1.622137
  Si      1.023292     -0.354169     -0.582821
  O      -0.014652      0.651393     -1.426894
  O       2.338292     -0.687629     -1.564570
  Si      2.687138     -1.263411     -3.099388
  Si     -1.611487      1.041751     -1.736988
  H       0.366603      2.277719      0.907269
  H      -4.075174     -0.792359      1.440014
  H      -1.576409      1.855800      3.095507
  H      -2.582020     -2.165564      2.816600
  H      -0.208081     -0.087230      3.695180
  H      -1.698176      1.547216     -3.149568
  H      -2.510592     -0.158167     -1.595389
  H      -2.078004      2.126820     -0.805403
  H       2.447574     -0.200056     -4.136394
  H       4.135102     -1.660404     -3.124218
  H       1.838169     -2.464612     -3.429306
  H       0.332986     -1.653370     -0.281584
  H      -2.487844     -2.328062      0.365830
