26
Coordinates from ORCA-job my_molecule_reactant E -1757.328556986243
  O      -1.760257      0.568337      1.778946
  Si     -0.255066      0.428758      2.523484
  Si     -3.385204      0.590084      2.196673
  C       0.994953      1.515612      1.652144
  C       2.229703      1.093521      1.309996
  H       0.726610      2.571004      1.454507
  H       2.975161      1.763930      0.847438
  H       2.557616      0.052453      1.481373
  Si      0.993838     -1.959391     -1.158677
  O      -0.347292     -1.092367     -0.680341
  O       1.945648     -1.075096     -2.202381
  Si      3.081917      0.143009     -2.368741
  Si     -1.763236     -0.466850     -1.341588
  H       1.762869     -2.289382      0.085375
  H      -3.571979      1.274259      3.526417
  H      -0.420690      0.886056      3.953595
  H      -3.932316     -0.808749      2.288330
  H       0.222867     -0.996599      2.516348
  H      -1.892576     -0.924238     -2.772706
  H      -2.946791     -0.979708     -0.572956
  H      -1.729557      1.032180     -1.309247
  H       2.426148      1.494046     -2.287380
  H       4.132718      0.041298     -1.293806
  H       3.734779     -0.012073     -3.711664
  H       0.569440     -3.187676     -1.905753
  H      -4.130091      1.346684      1.135029
26
Coordinates from ORCA-job my_molecule_reactant E -1757.328557402100
  O      -1.760351      0.568184      1.778611
  Si     -0.255152      0.428754      2.523163
  Si     -3.385211      0.590200      2.196600
  C       0.995007      1.515266      1.651595
  C       2.229894      1.093026      1.310124
  H       0.726678      2.570546      1.453341
  H       2.975630      1.763297      0.847812
  H       2.557697      0.052010      1.481993
  Si      0.993859     -1.959134     -1.158826
  O      -0.347522     -1.092466     -0.680424
  O       1.945799     -1.074658     -2.202294
  Si      3.082004      0.143465     -2.368595
  Si     -1.763629     -0.467021     -1.341393
  H       1.762770     -2.289159      0.085345
  H      -3.571637      1.274682      3.526227
  H      -0.420396      0.886192      3.953247
  H      -3.932560     -0.808532      2.288616
  H       0.222793     -0.996594      2.516386
  H      -1.892966     -0.924840     -2.772362
  H      -2.947043     -0.979793     -0.572549
  H      -1.729847      1.032057     -1.309195
  H       2.426004      1.494383     -2.287075
  H       4.132679      0.041618     -1.293554
  H       3.734861     -0.011561     -3.711480
  H       0.569937     -3.187607     -1.905868
  H      -4.130085      1.346789      1.134969
