71
Coordinates from ORCA-job my_molecule E -2465.372236018980
  Pt      1.577620     -1.564840     -0.752610
  O       1.181700     -0.055430      0.513160
  O      -0.363770     -2.009340     -0.674550
  P       2.439030      1.162330      0.343340
  P      -0.711450     -2.933250     -2.117900
  O      -0.307030     -4.411210     -1.318620
  O       0.542790     -3.188780     -3.295850
  O       2.528370      0.890100     -1.368060
  O       4.127470      0.787610      0.541120
  C       2.246750      1.863190      2.099150
  C      -1.515820     -1.503450     -3.058810
  C      -1.957350     -2.009800     -4.446130
  C      -0.570060     -0.300560     -3.227790
  C      -2.766360     -1.079540     -2.268610
  C       0.823980      2.430340      2.246280
  C       2.477210      0.795950      3.175550
  C       3.255410      3.013500      2.296100
  H      -1.195900     -4.771340     -1.059310
  H       2.360910      1.779910     -1.769060
  H      -1.082280     -2.306890     -5.061910
  H      -2.509690     -1.219210     -4.998550
  H      -2.624890     -2.892950     -4.343390
  H       0.328730     -0.579420     -3.817070
  H      -0.243680      0.092830     -2.243130
  H      -1.093280      0.520150     -3.767990
  H      -3.446420     -1.949560     -2.133620
  H      -3.324680     -0.280330     -2.800480
  H      -2.489960     -0.699680     -1.262560
  H       0.062900      1.632490      2.116910
  H       0.638880      3.216540      1.482930
  H       0.682960      2.880710      3.252810
  H       1.716280     -0.002780      3.078740
  H       2.372660      1.237510      4.190260
  H       3.496240      0.363170      3.099020
  H       3.100560      3.804310      1.530680
  H       4.302280      2.652390      2.216320
  H       3.134830      3.474600      3.300640
  Si      1.776630     -3.216080      1.117680
  C       2.794240     -4.606910      0.373350
  C       3.093030     -2.753390      2.359570
  C       0.178060     -3.819800      1.872110
  H       3.769130     -4.213610      0.015850
  H       2.250340     -5.056210     -0.481860
  H       2.981750     -5.389980      1.136450
  H       2.729710     -1.933770      2.994650
  H       4.026800     -2.450000      1.844340
  H       3.296890     -3.623390      3.017250
  H      -0.357460     -2.967960      2.335250
  H       0.407530     -4.585240      2.640490
  H      -0.470090     -4.280950      1.108070
  H       3.256400     -1.243640     -0.930580
  C       3.770580     -3.162530     -3.082970
  C       3.704310     -1.954800     -3.643180
  H       3.267770     -3.343930     -2.142700
  H       4.320180     -3.975740     -3.543270
  Si      4.525030     -1.559270     -5.243360
  H       3.151470     -1.159420     -3.159610
  C       5.363640     -3.064250     -5.967150
  C       5.791980     -0.221500     -4.946120
  C       3.216570     -0.944290     -6.421710
  H       6.138870     -3.432440     -5.264190
  H       5.837580     -2.794690     -6.932570
  H       4.608270     -3.859340     -6.136130
  H       6.555800     -0.592760     -4.231850
  H       5.292920      0.672480     -4.518890
  H       6.281000      0.047090     -5.904480
  H       2.456750     -1.737890     -6.575130
  H       3.684090     -0.681040     -7.391960
  H       2.728080     -0.046770     -5.988710
  H       0.338450     -4.065360     -3.710630
  H       4.153070     -0.138640      0.887070
71
Coordinates from ORCA-job my_molecule E -2465.409475681910
  Pt      1.646177     -1.624646     -0.759984
  O       1.237646     -0.079800      0.532396
  O      -0.368612     -2.061899     -0.704556
  P       2.444750      1.133840      0.347485
  P      -0.782358     -2.948444     -2.113877
  O      -0.437982     -4.485383     -1.374049
  O       0.432980     -3.203865     -3.313878
  O       2.554300      0.876445     -1.372459
  O       4.110359      0.753470      0.580206
  C       2.203450      1.897089      2.087869
  C      -1.600776     -1.467774     -3.000704
  C      -2.099202     -1.937768     -4.381722
  C      -0.632087     -0.285557     -3.175197
  C      -2.811080     -1.036446     -2.151843
  C       0.768250      2.450440      2.184298
  C       2.426555      0.864022      3.200477
  C       3.197690      3.062871      2.253789
  H      -1.324216     -4.816986     -1.104111
  H       2.383961      1.759696     -1.777041
  H      -1.253972     -2.238752     -5.033501
  H      -2.652384     -1.122761     -4.894591
  H      -2.784712     -2.806577     -4.278100
  H       0.238534     -0.569922     -3.801351
  H      -0.261823      0.080027     -2.196563
  H      -1.157464      0.555718     -3.680079
  H      -3.508506     -1.889604     -2.007034
  H      -3.367920     -0.214011     -2.648433
  H      -2.487924     -0.684327     -1.151668
  H       0.019559      1.640941      2.069058
  H       0.585620      3.206996      1.392261
  H       0.605561      2.935571      3.170141
  H       1.680743      0.050548      3.120616
  H       2.297291      1.345479      4.194187
  H       3.450623      0.441918      3.162023
  H       3.050655      3.824652      1.459373
  H       4.247407      2.710615      2.204375
  H       3.049504      3.556064      3.237868
  Si      1.837722     -3.264487      1.085637
  C       2.836754     -4.678046      0.337411
  C       3.138209     -2.774357      2.351997
  C       0.227555     -3.841062      1.844009
  H       3.812493     -4.287927     -0.012615
  H       2.293156     -5.123298     -0.520062
  H       3.016594     -5.466647      1.097986
  H       2.779074     -1.946140      2.988187
  H       4.075592     -2.474297      1.844510
  H       3.341023     -3.642253      3.012404
  H      -0.304810     -2.983766      2.301544
  H       0.448687     -4.602466      2.620252
  H      -0.421843     -4.297581      1.078300
  H       3.297967     -1.310104     -0.928376
  C       3.834131     -3.210844     -3.104766
  C       3.775518     -1.988592     -3.658274
  H       3.323013     -3.400425     -2.159969
  H       4.388899     -4.032548     -3.570531
  Si      4.615778     -1.570957     -5.258120
  H       3.212009     -1.181904     -3.166193
  C       5.462945     -3.076541     -5.993949
  C       5.887893     -0.229237     -4.936219
  C       3.313266     -0.935540     -6.449876
  H       6.233238     -3.458629     -5.293519
  H       5.947662     -2.801886     -6.952476
  H       4.714003     -3.872859     -6.181913
  H       6.648051     -0.602402     -4.220186
  H       5.391735      0.663158     -4.503250
  H       6.388617      0.054791     -5.884549
  H       2.550853     -1.721844     -6.623397
  H       3.783492     -0.659389     -7.415785
  H       2.817737     -0.042375     -6.016791
  H       0.210262     -4.062622     -3.736137
  H       4.136441     -0.165555      0.931122
71
Coordinates from ORCA-job my_molecule E -2465.443879049115
  Pt      1.706184     -1.673547     -0.771543
  O       1.286440     -0.098153      0.544887
  O      -0.338723     -2.098602     -0.737589
  P       2.444183      1.080429      0.351933
  P      -0.808639     -2.941866     -2.089176
  O      -0.541895     -4.532852     -1.406910
  O       0.368587     -3.194896     -3.300742
  O       2.576675      0.856394     -1.379013
  O       4.074053      0.675192      0.626298
  C       2.148143      1.919224      2.065412
  C      -1.660465     -1.425803     -2.928840
  C      -2.211138     -1.871170     -4.297751
  C      -0.680801     -0.257570     -3.115570
  C      -2.831922     -0.997294     -2.025844
  C       0.710131      2.475310      2.097874
  C       2.340397      0.920165      3.214457
  C       3.143138      3.085584      2.207576
  H      -1.428653     -4.837319     -1.127471
  H       2.411152      1.736559     -1.785042
  H      -1.393858     -2.169944     -4.983832
  H      -2.772478     -1.040687     -4.774947
  H      -2.905740     -2.731506     -4.187552
  H       0.163468     -0.541118     -3.776219
  H      -0.270614      0.087751     -2.146574
  H      -1.216188      0.595205     -3.589411
  H      -3.537420     -1.839750     -1.864431
  H      -3.394096     -0.161114     -2.492664
  H      -2.465563     -0.663531     -1.035783
  H      -0.035635      1.663488      1.992570
  H       0.546812      3.202055      1.275172
  H       0.525082      2.998638      3.059371
  H       1.599472      0.101949      3.147012
  H       2.184684      1.444906      4.182313
  H       3.363773      0.496839      3.222977
  H       3.022938      3.818465      1.383199
  H       4.191025      2.727948      2.198486
  H       2.966400      3.613422      3.167986
  Si      1.892187     -3.304932      1.050610
  C       2.873782     -4.741590      0.301652
  C       3.180196     -2.790579      2.339928
  C       0.272153     -3.861215      1.812897
  H       3.850279     -4.353744     -0.042436
  H       2.329434     -5.183428     -0.557003
  H       3.047573     -5.535393      1.059678
  H       2.829030     -1.955704      2.978729
  H       4.120982     -2.493570      1.837375
  H       3.383956     -3.657971      3.001287
  H      -0.260321     -3.001835      2.266688
  H       0.487199     -4.619374      2.595209
  H      -0.376622     -4.313622      1.043189
  H       3.334068     -1.369251     -0.932022
  C       3.885711     -3.253609     -3.127771
  C       3.834491     -2.019262     -3.674388
  H       3.369003     -3.450242     -2.180072
  H       4.443090     -4.080760     -3.597803
  Si      4.693427     -1.580768     -5.276454
  H       3.264373     -1.205277     -3.175237
  C       5.547221     -3.089231     -6.023990
  C       5.972527     -0.235105     -4.931998
  C       3.395477     -0.923436     -6.480820
  H       6.313252     -3.485785     -5.327138
  H       6.042059     -2.811466     -6.976595
  H       4.804189     -3.886489     -6.229490
  H       6.730180     -0.609642     -4.214533
  H       5.480664      0.656814     -4.493391
  H       6.484160      0.063500     -5.870374
  H       2.629187     -1.701306     -6.673270
  H       3.866764     -0.635369     -7.443161
  H       2.894053     -0.033519     -6.048116
  H       0.131290     -4.038280     -3.733165
  H       4.090387     -0.238107      0.983454
71
Coordinates from ORCA-job my_molecule E -2465.486252098462
  Pt      1.797968     -1.752840     -0.783007
  O       1.357204     -0.123798      0.585711
  O      -0.299879     -2.153187     -0.789352
  P       2.455187      0.995538      0.379320
  P      -0.855086     -2.922387     -2.061035
  O      -0.722792     -4.574723     -1.470293
  O       0.258511     -3.171205     -3.297458
  O       2.622014      0.825566     -1.362121
  O       4.033072      0.558458      0.722081
  C       2.076647      1.972102      2.016719
  C      -1.769336     -1.372285     -2.824554
  C      -2.398216     -1.786974     -4.168117
  C      -0.781470     -0.219926     -3.036740
  C      -2.877320     -0.957510     -1.841093
  C       0.644003      2.533883      1.936452
  C       2.209730      1.037608      3.224872
  C       3.081119      3.133052      2.122968
  H      -1.616601     -4.835268     -1.173901
  H       2.466553      1.705518     -1.770463
  H      -1.623666     -2.076663     -4.905468
  H      -2.977448     -0.940530     -4.593615
  H      -3.097532     -2.640742     -4.041696
  H       0.021004     -0.498214     -3.749042
  H      -0.311908      0.098768     -2.086508
  H      -1.334955      0.646014     -3.463423
  H      -3.584825     -1.791414     -1.650606
  H      -3.454885     -0.106672     -2.260552
  H      -2.446061     -0.646829     -0.870560
  H      -0.101020      1.720259      1.849815
  H       0.522190      3.205046      1.061497
  H       0.421227      3.123256      2.850378
  H       1.469741      0.217696      3.177584
  H       2.015112      1.631383      4.144727
  H       3.227568      0.610403      3.309502
  H       3.012603      3.812777      1.249519
  H       4.122424      2.762663      2.186272
  H       2.864354      3.722890      3.038031
  Si      1.980643     -3.386060      0.991953
  C       2.935880     -4.849437      0.239374
  C       3.251009     -2.849504      2.311204
  C       0.347641     -3.919801      1.756678
  H       3.914723     -4.462747     -0.094699
  H       2.389869     -5.279915     -0.623629
  H       3.101089     -5.655025      0.988338
  H       2.907390     -2.011563      2.954136
  H       4.197464     -2.554225      1.816115
  H       3.456722     -3.718154      2.971564
  H      -0.183699     -3.059671      2.210474
  H       0.553187     -4.678350      2.541873
  H      -0.300419     -4.363154      0.979622
  H       3.396884     -1.465312     -0.926563
  C       3.966497     -3.308949     -3.158374
  C       3.927099     -2.060391     -3.684898
  H       3.443808     -3.522241     -2.211372
  H       4.524483     -4.134311     -3.639641
  Si      4.810664     -1.588136     -5.282671
  H       3.353427     -1.242061     -3.174883
  C       5.668588     -3.095301     -6.053299
  C       6.099625     -0.245273     -4.900397
  C       3.523794     -0.892580     -6.497803
  H       6.427503     -3.515592     -5.362493
  H       6.177507     -2.808443     -6.996199
  H       4.930501     -3.889782     -6.285879
  H       6.852571     -0.628733     -4.182598
  H       5.613917      0.643947     -4.449165
  H       6.625704      0.075499     -5.823725
  H       2.751370     -1.656752     -6.719449
  H       3.999125     -0.584843     -7.452410
  H       3.017301     -0.007991     -6.059695
  H      -0.003454     -3.995692     -3.748847
  H       4.030665     -0.347920      1.093603
71
Coordinates from ORCA-job my_molecule E -2465.535152498301
  Pt      1.912060     -1.892971     -0.777942
  O       1.422947     -0.177805      0.698817
  O      -0.255722     -2.245556     -0.858167
  P       2.469630      0.873206      0.465935
  P      -0.923868     -2.901308     -2.048244
  O      -1.015076     -4.604490     -1.618611
  O       0.099529     -3.126916     -3.326014
  O       2.680040      0.785887     -1.276911
  O       3.981574      0.405874      0.900801
  C       2.013218      2.090772      1.919880
  C      -1.940021     -1.329319     -2.684573
  C      -2.665172     -1.698179     -3.991165
  C      -0.949070     -0.189397     -2.919862
  C      -2.956518     -0.959571     -1.593733
  C       0.607473      2.658986      1.662701
  C       2.048763      1.283975      3.220561
  C       3.052115      3.226856      1.954033
  H      -1.917620     -4.799232     -1.301634
  H       2.545548      1.669295     -1.684144
  H      -1.947190     -1.957752     -4.793924
  H      -3.272457     -0.836105     -4.340224
  H      -3.359536     -2.553193     -3.850758
  H      -0.204034     -0.447191     -3.698324
  H      -0.406097      0.086143     -1.996120
  H      -1.526051      0.693663     -3.273765
  H      -3.653373     -1.794117     -1.372793
  H      -3.561650     -0.092588     -1.934246
  H      -2.441959     -0.686596     -0.653215
  H      -0.148059      1.852100      1.623970
  H       0.558327      3.220357      0.707471
  H       0.341497      3.361108      2.480114
  H       1.295391      0.475493      3.220637
  H       1.816826      1.990128      4.047702
  H       3.046936      0.849083      3.418177
  H       3.069096      3.802941      1.007303
  H       4.071734      2.834121      2.131627
  H       2.797885      3.925769      2.778560
  Si      2.102113     -3.542128      0.899512
  C       3.017793     -5.035199      0.135066
  C       3.341296     -2.980289      2.260690
  C       0.451668     -4.050853      1.663895
  H       4.000383     -4.646946     -0.182443
  H       2.468983     -5.439938     -0.738404
  H       3.171579     -5.864004      0.862576
  H       2.995805     -2.142235      2.906725
  H       4.295980     -2.682036      1.780208
  H       3.551725     -3.848692      2.921694
  H      -0.075397     -3.191152      2.123514
  H       0.641799     -4.816280      2.447039
  H      -0.197570     -4.476853      0.875835
  H       3.473892     -1.630328     -0.891436
  C       4.070412     -3.380944     -3.194621
  C       4.048411     -2.110596     -3.676017
  H       3.540618     -3.630669     -2.253518
  H       4.629072     -4.193685     -3.703363
  Si      4.964276     -1.577342     -5.254434
  H       3.474850     -1.292702     -3.143938
  C       5.823019     -3.070064     -6.074151
  C       6.266487     -0.251712     -4.805438
  C       3.699200     -0.813354     -6.471138
  H       6.570605     -3.530581     -5.396543
  H       6.351137     -2.759495     -6.999406
  H       5.088657     -3.853628     -6.351801
  H       7.011162     -0.659644     -4.092242
  H       5.789380      0.627751     -4.326040
  H       6.811600      0.106545     -5.704052
  H       2.918308     -1.553711     -6.740281
  H       4.183856     -0.469740     -7.409111
  H       3.189282      0.059949     -6.014114
  H      -0.192414     -3.920342     -3.811011
  H       3.949229     -0.489323      1.294921
71
Coordinates from ORCA-job my_molecule E -2465.583214885538
  Pt      1.987180     -2.043879     -0.756390
  O       1.420595     -0.256174      0.851913
  O      -0.245022     -2.350898     -0.923247
  P       2.460882      0.755018      0.579875
  P      -1.014557     -2.899787     -2.069092
  O      -1.328565     -4.595580     -1.813576
  O      -0.078435     -3.072026     -3.393382
  O       2.716898      0.756702     -1.141191
  O       3.918285      0.265993      1.087977
  C       2.037381      2.237400      1.770267
  C      -2.159109     -1.350570     -2.548008
  C      -2.971905     -1.683118     -3.810494
  C      -1.193228     -0.195424     -2.799399
  C      -3.080641     -1.064320     -1.355107
  C       0.683505      2.824820      1.348058
  C       1.974987      1.611007      3.163636
  C       3.150177      3.301579      1.689983
  H      -2.231426     -4.732057     -1.467162
  H       2.614611      1.648502     -1.538904
  H      -2.311889     -1.885757     -4.676768
  H      -3.623724     -0.822231     -4.071780
  H      -3.637994     -2.558427     -3.661816
  H      -0.506034     -0.407244     -3.641549
  H      -0.585046      0.042587     -1.906715
  H      -1.807450      0.691947     -3.069322
  H      -3.741417     -1.921563     -1.113140
  H      -3.731046     -0.197834     -1.600893
  H      -2.490278     -0.823261     -0.450995
  H      -0.113074      2.058681      1.392811
  H       0.706336      3.235953      0.318354
  H       0.422915      3.656627      2.035060
  H       1.178109      0.849680      3.241979
  H       1.756984      2.443037      3.868383
  H       2.936788      1.154764      3.465354
  H       3.250550      3.730398      0.672854
  H       4.130879      2.876472      1.978216
  H       2.910526      4.131831      2.388115
  Si      2.188088     -3.724929      0.801756
  C       3.078284     -5.229512      0.015480
  C       3.374620     -3.155509      2.222623
  C       0.515198     -4.230447      1.540194
  H       4.066250     -4.832163     -0.273284
  H       2.536637     -5.599320     -0.877976
  H       3.218962     -6.088001      0.711673
  H       3.005641     -2.330603      2.874608
  H       4.340432     -2.839787      1.773722
  H       3.588261     -4.028210      2.879119
  H      -0.014711     -3.378883      2.011354
  H       0.683420     -5.013289      2.311717
  H      -0.126820     -4.632014      0.731412
  H       3.521622     -1.798045     -0.827814
  C       4.171332     -3.419397     -3.210702
  C       4.167587     -2.127799     -3.632684
  H       3.627957     -3.719274     -2.285723
  H       4.737507     -4.208189     -3.751244
  Si      5.124329     -1.519301     -5.170047
  H       3.591572     -1.319483     -3.077921
  C       5.993063     -2.980574     -6.047051
  C       6.429887     -0.220277     -4.631691
  C       3.893596     -0.677990     -6.383346
  H       6.724483     -3.484504     -5.382544
  H       6.546073     -2.634322     -6.945243
  H       5.265603     -3.748094     -6.382325
  H       7.160530     -0.660711     -3.922949
  H       5.953835      0.641041     -4.118680
  H       6.998732      0.182688     -5.496356
  H       3.110044     -1.391416     -6.712117
  H       4.397197     -0.289389     -7.293724
  H       3.375937      0.177454     -5.901204
  H      -0.387856     -3.833174     -3.917889
  H       3.850270     -0.616175      1.507042
71
Coordinates from ORCA-job my_molecule E -2465.626672245094
  Pt      2.032853     -2.168898     -0.718923
  O       1.377721     -0.333656      1.033280
  O      -0.260348     -2.421678     -0.977845
  P       2.458589      0.657191      0.706516
  P      -1.120505     -2.873990     -2.116197
  O      -1.663255     -4.482840     -2.006181
  O      -0.252931     -2.988565     -3.480293
  O       2.749461      0.737994     -0.968565
  O       3.877247      0.147379      1.285644
  C       2.138875      2.353401      1.569304
  C      -2.403232     -1.418933     -2.431188
  C      -3.279549     -1.745487     -3.650092
  C      -1.497162     -0.215981     -2.687622
  C      -3.240476     -1.242022     -1.157584
  C       0.845301      2.939203      0.990523
  C       1.994066      1.967916      3.043408
  C       3.334665      3.300945      1.351205
  H      -2.563377     -4.552025     -1.629019
  H       2.677681      1.639353     -1.345814
  H      -2.671061     -1.870525     -4.567350
  H      -3.993483     -0.913025     -3.826920
  H      -3.888238     -2.661090     -3.501115
  H      -0.860117     -0.358987     -3.581692
  H      -0.841631      0.005194     -1.824622
  H      -2.164648      0.652975     -2.873716
  H      -3.838626     -2.142085     -0.907776
  H      -3.952380     -0.403220     -1.310308
  H      -2.594231     -1.009982     -0.289478
  H      -0.003796      2.243990      1.137233
  H       0.926693      3.157989     -0.094076
  H       0.619292      3.895574      1.507726
  H       1.142432      1.284210      3.213969
  H       1.823253      2.915552      3.600017
  H       2.911051      1.497475      3.446008
  H       3.497954      3.537134      0.279880
  H       4.269121      2.859858      1.749241
  H       3.148635      4.259882      1.881631
  Si      2.247971     -3.901356      0.723304
  C       3.123036     -5.397256     -0.100494
  C       3.375622     -3.357376      2.208053
  C       0.553115     -4.424996      1.421162
  H       4.117528     -4.987886     -0.355161
  H       2.593698     -5.723397     -1.018264
  H       3.251503     -6.287919      0.555553
  H       2.968982     -2.557497      2.866625
  H       4.353088     -3.016827      1.802854
  H       3.587408     -4.239660      2.854263
  H       0.018388     -3.588027      1.912233
  H       0.698208     -5.235057      2.169356
  H      -0.079914     -4.795880      0.589729
  H       3.550820     -1.937572     -0.743907
  C       4.260757     -3.411428     -3.199435
  C       4.274321     -2.104482     -3.555683
  H       3.702727     -3.766657     -2.300003
  H       4.836444     -4.168402     -3.772424
  Si      5.268030     -1.420137     -5.037063
  H       3.697237     -1.314925     -2.979176
  C       6.150562     -2.836140     -5.972752
  C       6.567394     -0.156832     -4.404989
  C       4.075750     -0.503715     -6.235691
  H       6.865675     -3.381106     -5.322602
  H       6.727239     -2.447814     -6.838627
  H       5.431168     -3.583185     -6.367279
  H       7.282593     -0.633685     -3.703576
  H       6.086340      0.680048     -3.856660
  H       7.157743      0.290789     -5.232563
  H       3.294404     -1.189178     -6.624983
  H       4.602288     -0.068930     -7.111678
  H       3.549291      0.329538     -5.724376
  H      -0.571966     -3.715226     -4.049203
  H       3.761015     -0.714804      1.736334
71
Coordinates from ORCA-job my_molecule E -2465.647927274958
  Pt      2.036645     -2.226505     -0.710915
  O       1.306151     -0.334878      1.144493
  O      -0.291278     -2.425428     -1.022902
  P       2.425135      0.609925      0.781230
  P      -1.218604     -2.799099     -2.152205
  O      -1.881988     -4.317803     -2.143664
  O      -0.416511     -2.841724     -3.563586
  O       2.760714      0.738520     -0.840337
  O       3.834784      0.097897      1.406041
  C       2.239281      2.398255      1.383555
  C      -2.609632     -1.482054     -2.317848
  C      -3.517263     -1.833912     -3.502934
  C      -1.828536     -0.181098     -2.558266
  C      -3.379344     -1.443980     -0.990399
  C       0.995125      2.983525      0.701047
  C       2.044664      2.247050      2.901213
  C       3.505663      3.206451      1.056120
  H      -2.756007     -4.355069     -1.713340
  H       2.713663      1.648438     -1.190738
  H      -2.952290     -1.859861     -4.455695
  H      -4.313754     -1.065954     -3.603340
  H      -4.027120     -2.810343     -3.368786
  H      -1.231498     -0.224791     -3.489559
  H      -1.148874      0.052784     -1.717324
  H      -2.570114      0.640831     -2.663272
  H      -3.884315     -2.405685     -0.761403
  H      -4.169934     -0.665529     -1.049341
  H      -2.703909     -1.204142     -0.146819
  H       0.096569      2.375958      0.926468
  H       1.104299      3.038290     -0.402007
  H       0.824869      4.017477      1.069595
  H       1.142954      1.653229      3.141904
  H       1.935809      3.266056      3.334063
  H       2.918425      1.765613      3.380470
  H       3.694515      3.273323     -0.035528
  H       4.400225      2.757060      1.529346
  H       3.394650      4.244281      1.436539
  Si      2.273994     -4.019801      0.670761
  C       3.153307     -5.491966     -0.187602
  C       3.345162     -3.520516      2.208766
  C       0.561360     -4.576688      1.312642
  H       4.157039     -5.080087     -0.413979
  H       2.641530     -5.780215     -1.128662
  H       3.267723     -6.403820      0.437395
  H       2.891018     -2.744610      2.862704
  H       4.333746     -3.156550      1.855507
  H       3.542328     -4.411366      2.847479
  H       0.016674     -3.756347      1.820505
  H       0.686876     -5.413742      2.034063
  H      -0.058604     -4.921072      0.459913
  H       3.582104     -2.020411     -0.684283
  C       4.349956     -3.382855     -3.182200
  C       4.382961     -2.068866     -3.495055
  H       3.773717     -3.774566     -2.310254
  H       4.933465     -4.119627     -3.771349
  Si      5.407731     -1.337893     -4.923978
  H       3.804843     -1.303019     -2.906284
  C       6.304129     -2.716272     -5.892819
  C       6.694281     -0.107746     -4.219902
  C       4.251835     -0.372791     -6.111486
  H       7.003621     -3.287960     -5.248259
  H       6.900572     -2.296174     -6.729752
  H       5.591338     -3.445029     -6.331502
  H       7.393806     -0.613101     -3.522444
  H       6.203528      0.708820     -3.649736
  H       7.301333      0.368316     -5.018731
  H       3.476817     -1.038227     -6.545872
  H       4.803315      0.091528     -6.956188
  H       3.717450      0.443308     -5.580990
  H      -0.736813     -3.542957     -4.160716
  H       3.689002     -0.761554      1.852524
71
Coordinates from ORCA-job my_molecule E -2465.656480988553
  Pt      2.034052     -2.248079     -0.727728
  O       1.245217     -0.276416      1.171723
  O      -0.279040     -2.387703     -1.065941
  P       2.399627      0.636050      0.795643
  P      -1.218078     -2.711462     -2.213300
  O      -1.854700     -4.219080     -2.256760
  O      -0.456483     -2.652683     -3.657181
  O       2.728892      0.753415     -0.811020
  O       3.834510      0.136264      1.415147
  C       2.269313      2.426881      1.327937
  C      -2.666349     -1.513677     -2.249822
  C      -3.577946     -1.855139     -3.435090
  C      -2.023970     -0.119631     -2.410076
  C      -3.400712     -1.633072     -0.904655
  C       1.030668      3.021393      0.635506
  C       2.077879      2.385860      2.858596
  C       3.552972      3.182430      0.953222
  H      -2.678325     -4.298888     -1.740606
  H       2.684335      1.665623     -1.152150
  H      -3.039974     -1.773101     -4.400533
  H      -4.434435     -1.148520     -3.466822
  H      -4.001972     -2.877614     -3.357589
  H      -1.450949     -0.042124     -3.354982
  H      -1.344412      0.110221     -1.566835
  H      -2.828989      0.646876     -2.434359
  H      -3.830836     -2.645708     -0.746579
  H      -4.246944     -0.914266     -0.876684
  H      -2.721352     -1.415875     -0.057625
  H       0.118696      2.444705      0.888163
  H       1.131129      3.033326     -0.470216
  H       0.881599      4.071700      0.965098
  H       1.162109      1.827191      3.133129
  H       1.993385      3.422769      3.250853
  H       2.941879      1.903769      3.356350
  H       3.728840      3.201317     -0.142846
  H       4.441852      2.726041      1.430300
  H       3.480456      4.238003      1.291639
  Si      2.266546     -4.048722      0.633635
  C       3.151859     -5.511233     -0.224115
  C       3.303344     -3.584439      2.192603
  C       0.539947     -4.613214      1.230156
  H       4.164041     -5.113868     -0.445694
  H       2.651957     -5.787577     -1.174337
  H       3.252904     -6.423582      0.400254
  H       2.818129     -2.807304      2.819259
  H       4.305319     -3.222885      1.878391
  H       3.465290     -4.474380      2.840851
  H      -0.006220     -3.793365      1.737590
  H       0.645182     -5.461696      1.940863
  H      -0.070786     -4.946469      0.366709
  H       3.547423     -2.074690     -0.668181
  C       4.382519     -3.393673     -3.183782
  C       4.428587     -2.081172     -3.493406
  H       3.796094     -3.788280     -2.325942
  H       4.968903     -4.129299     -3.766897
  Si      5.474547     -1.348815     -4.891910
  H       3.847384     -1.326830     -2.911303
  C       6.385935     -2.714506     -5.850806
  C       6.742385     -0.130017     -4.157477
  C       4.345419     -0.381399     -6.088685
  H       7.073044     -3.287558     -5.194161
  H       6.995600     -2.284338     -6.672668
  H       5.678311     -3.438480     -6.305547
  H       7.429261     -0.643788     -3.453559
  H       6.237316      0.679149     -3.589349
  H       7.359215      0.350313     -4.945845
  H       3.581165     -1.046503     -6.541961
  H       4.919265      0.086738     -6.915848
  H       3.802390      0.429737     -5.559521
  H      -0.748989     -3.351417     -4.272659
  H       3.699082     -0.753983      1.801523
71
Coordinates from ORCA-job my_molecule E -2465.663186617660
  Pt      1.991827     -2.244700     -0.755788
  O       1.134821     -0.150103      1.150064
  O      -0.291960     -2.341264     -1.103953
  P       2.326991      0.688426      0.785486
  P      -1.219867     -2.633446     -2.254124
  O      -1.777283     -4.166659     -2.370462
  O      -0.510527     -2.471254     -3.719037
  O       2.668767      0.780534     -0.822150
  O       3.762495      0.151214      1.394685
  C       2.292817      2.466579      1.334536
  C      -2.712754     -1.548679     -2.206007
  C      -3.614094     -1.869335     -3.409170
  C      -2.208824     -0.087773     -2.263327
  C      -3.430536     -1.814786     -0.868662
  C       1.078000      3.137939      0.660751
  C       2.101384      2.466708      2.868187
  C       3.609637      3.164392      0.958611
  H      -2.522598     -4.337971     -1.765925
  H       2.635783      1.694877     -1.157403
  H      -3.092282     -1.685662     -4.369370
  H      -4.515670     -1.221861     -3.389837
  H      -3.963269     -2.921887     -3.402307
  H      -1.650026      0.106623     -3.200566
  H      -1.544553      0.134225     -1.404992
  H      -3.069455      0.613214     -2.227107
  H      -3.799552     -2.861387     -0.790659
  H      -4.319278     -1.156212     -0.778367
  H      -2.760496     -1.625229     -0.007821
  H       0.140437      2.600158      0.904262
  H       1.171802      3.168777     -0.445653
  H       0.975890      4.186725      1.010760
  H       1.162627      1.948496      3.147173
  H       2.057581      3.504891      3.260143
  H       2.944096      1.949394      3.368262
  H       3.779665      3.193801     -0.138042
  H       4.480045      2.658038      1.417977
  H       3.592625      4.216748      1.313226
  Si      2.249114     -4.045920      0.614564
  C       3.164126     -5.498806     -0.224369
  C       3.247907     -3.584389      2.186278
  C       0.521051     -4.638572      1.175421
  H       4.184943     -5.121575     -0.446128
  H       2.680525     -5.779669     -1.181762
  H       3.251502     -6.402702      0.414192
  H       2.727090     -2.799673      2.774273
  H       4.257751     -3.218372      1.906949
  H       3.381989     -4.464363      2.852679
  H      -0.039381     -3.822363      1.673799
  H       0.622309     -5.487910      1.885803
  H      -0.075393     -4.980549      0.305617
  H       3.567134     -2.098833     -0.671795
  C       4.437696     -3.415618     -3.194655
  C       4.492772     -2.106835     -3.519799
  H       3.839698     -3.799024     -2.342543
  H       5.024011     -4.162579     -3.764389
  Si      5.541579     -1.386016     -4.911924
  H       3.905453     -1.361430     -2.940512
  C       6.463459     -2.750245     -5.853657
  C       6.795260     -0.162277     -4.176245
  C       4.419029     -0.435752     -6.118459
  H       7.147774     -3.313324     -5.185891
  H       7.074844     -2.318778     -6.673240
  H       5.759262     -3.478323     -6.306724
  H       7.480298     -0.672324     -3.468242
  H       6.279594      0.644283     -3.614447
  H       7.410534      0.315568     -4.967181
  H       3.663865     -1.109528     -6.573352
  H       5.003103      0.028453     -6.940512
  H       3.869417      0.374614     -5.595509
  H      -0.759352     -3.181524     -4.339805
  H       3.621080     -0.775947      1.680264
71
Coordinates from ORCA-job my_molecule E -2465.668588714034
  Pt      1.970911     -2.237268     -0.779398
  O       1.040051     -0.040153      1.110170
  O      -0.265219     -2.289283     -1.119385
  P       2.279397      0.730366      0.764963
  P      -1.184762     -2.570086     -2.278718
  O      -1.659514     -4.134216     -2.443078
  O      -0.512439     -2.343616     -3.750886
  O       2.582048      0.807093     -0.862032
  O       3.690510      0.117151      1.367733
  C       2.291881      2.485592      1.368335
  C      -2.701339     -1.548625     -2.188299
  C      -3.596493     -1.835009     -3.409437
  C      -2.275586     -0.062670     -2.162204
  C      -3.421482     -1.906772     -0.869570
  C       1.092277      3.213753      0.721823
  C       2.098005      2.459804      2.899809
  C       3.622058      3.176163      1.015592
  H      -2.299907     -4.394428     -1.753991
  H       2.551674      1.724779     -1.193635
  H      -3.080531     -1.583223     -4.357264
  H      -4.517900     -1.218891     -3.356985
  H      -3.905800     -2.898235     -3.460416
  H      -1.723409      0.208762     -3.084486
  H      -1.623497      0.142052     -1.289590
  H      -3.166507      0.594408     -2.090443
  H      -3.768605     -2.963762     -0.853562
  H      -4.326107     -1.276532     -0.747929
  H      -2.762153     -1.749542      0.006111
  H       0.143021      2.685116      0.939183
  H       1.187599      3.291447     -0.382810
  H       1.010408      4.247963      1.116146
  H       1.154023      1.943010      3.164462
  H       2.060039      3.487935      3.315192
  H       2.934499      1.922746      3.390188
  H       3.791816      3.247096     -0.079317
  H       4.484851      2.636251      1.450469
  H       3.624425      4.213564      1.411728
  Si      2.243284     -4.026743      0.615631
  C       3.187944     -5.470180     -0.197546
  C       3.209529     -3.554875      2.194318
  C       0.516087     -4.644593      1.146889
  H       4.210988     -5.105665     -0.428644
  H       2.713947     -5.770658     -1.154232
  H       3.273538     -6.358779      0.462945
  H       2.665100     -2.756702      2.742560
  H       4.226871     -3.191068      1.942298
  H       3.315904     -4.421655      2.881649
  H      -0.059874     -3.830493      1.631293
  H       0.614555     -5.489422      1.863038
  H      -0.063842     -5.000676      0.271324
  H       3.513612     -2.108532     -0.680033
  C       4.458180     -3.439386     -3.207334
  C       4.506758     -2.136367     -3.561827
  H       3.857495     -3.807885     -2.352295
  H       5.051646     -4.196611     -3.755286
  Si      5.557999     -1.433618     -4.954058
  H       3.903868     -1.393350     -2.993516
  C       6.505897     -2.802538     -5.857083
  C       6.785531     -0.183016     -4.228367
  C       4.436460     -0.525747     -6.187576
  H       7.189558     -3.340976     -5.168916
  H       7.118599     -2.376678     -6.678418
  H       5.813520     -3.547153     -6.301125
  H       7.471160     -0.673675     -3.507614
  H       6.251303      0.623846     -3.685060
  H       7.398500      0.288105     -5.025004
  H       3.698165     -1.220629     -6.637925
  H       5.028008     -0.070091     -7.008976
  H       3.870573      0.285492     -5.684154
  H      -0.708492     -3.078316     -4.362981
  H       3.533697     -0.840857      1.519645
71
Coordinates from ORCA-job my_molecule E -2465.673853152840
  Pt      1.919811     -2.221688     -0.805920
  O       0.854451      0.074716      1.046217
  O      -0.267180     -2.244397     -1.151588
  P       2.140590      0.754915      0.707696
  P      -1.179523     -2.520030     -2.312321
  O      -1.572928     -4.113084     -2.501768
  O      -0.538403     -2.214153     -3.776648
  O       2.440083      0.836641     -0.929036
  O       3.503655      0.038696      1.283943
  C       2.319382      2.479006      1.359423
  C      -2.736051     -1.575552     -2.137484
  C      -3.650329     -1.826476     -3.354737
  C      -2.381406     -0.076772     -2.025117
  C      -3.422107     -2.039581     -0.830228
  C       1.181480      3.330788      0.753805
  C       2.145227      2.416715      2.889639
  C       3.698399      3.071234      1.005447
  H      -2.051523     -4.462375     -1.724069
  H       2.431539      1.761464     -1.246797
  H      -3.167439     -1.493553     -4.295030
  H      -4.594161     -1.255096     -3.240661
  H      -3.910546     -2.898295     -3.465408
  H      -1.865417      0.280209     -2.939471
  H      -1.717198      0.106114     -1.156269
  H      -3.302972      0.525159     -1.892595
  H      -3.737827     -3.104862     -0.873677
  H      -4.343238     -1.446156     -0.659912
  H      -2.755259     -1.909631      0.044664
  H       0.192836      2.875788      0.962194
  H       1.272012      3.443926     -0.348645
  H       1.195438      4.351840      1.187653
  H       1.170876      1.959473      3.153687
  H       2.185390      3.434136      3.329558
  H       2.946351      1.807023      3.353519
  H       3.856845      3.163541     -0.089841
  H       4.520147      2.446622      1.406687
  H       3.791594      4.091060      1.434601
  Si      2.210405     -3.983172      0.599314
  C       3.211877     -5.410635     -0.168835
  C       3.106344     -3.475745      2.203176
  C       0.483655     -4.645088      1.076063
  H       4.237703     -5.052117     -0.391926
  H       2.765145     -5.740934     -1.129304
  H       3.290455     -6.281214      0.516908
  H       2.526436     -2.670262      2.703743
  H       4.130319     -3.102826      1.995404
  H       3.185956     -4.326459      2.913104
  H      -0.127000     -3.841108      1.534565
  H       0.576315     -5.482002      1.802060
  H      -0.057737     -5.022684      0.184234
  H       3.448221     -2.095902     -0.681181
  C       4.508328     -3.432000     -3.203391
  C       4.546408     -2.137147     -3.587574
  H       3.894907     -3.787500     -2.351931
  H       5.120008     -4.196308     -3.719875
  Si      5.612024     -1.443951     -4.972110
  H       3.915710     -1.403820     -3.036925
  C       6.606041     -2.814829     -5.822016
  C       6.798057     -0.153708     -4.246084
  C       4.498365     -0.587775     -6.248908
  H       7.284853     -3.322662     -5.106471
  H       7.227148     -2.394605     -6.639917
  H       5.937650     -3.582863     -6.262828
  H       7.480506     -0.616315     -3.504174
  H       6.235710      0.651077     -3.728957
  H       7.415183      0.314847     -5.041013
  H       3.786736     -1.308196     -6.701890
  H       5.100974     -0.136825     -7.064872
  H       3.904103      0.221083     -5.775520
  H      -0.650966     -2.970752     -4.384454
  H       3.331871     -0.931717      1.262166
71
Coordinates from ORCA-job my_molecule E -2465.679479283573
  Pt      1.891707     -2.210597     -0.804503
  O       0.682969      0.169359      0.999547
  O      -0.252575     -2.198526     -1.136207
  P       2.022466      0.768254      0.657609
  P      -1.180904     -2.463768     -2.300022
  O      -1.511363     -4.062575     -2.586917
  O      -0.585533     -2.083834     -3.759543
  O       2.296450      0.861071     -0.991635
  O       3.323116     -0.043352      1.217713
  C       2.316998      2.461595      1.343089
  C      -2.765581     -1.561290     -2.086547
  C      -3.675350     -1.772768     -3.314774
  C      -2.431823     -0.066802     -1.898166
  C      -3.448853     -2.101211     -0.806568
  C       1.232826      3.397395      0.766804
  C       2.153659      2.351451      2.869560
  C       3.725647      2.979518      0.986373
  H      -1.829544     -4.512934     -1.777709
  H       2.289127      1.789253     -1.302247
  H      -3.198593     -1.383457     -4.236851
  H      -4.629593     -1.227224     -3.168403
  H      -3.908484     -2.844904     -3.475311
  H      -1.923139      0.347784     -2.792362
  H      -1.769596      0.087394     -1.021924
  H      -3.369536      0.503166     -1.738863
  H      -3.749805     -3.165855     -0.903377
  H      -4.378033     -1.525637     -0.618344
  H      -2.790487     -1.995591      0.078499
  H       0.218570      2.998525      0.968534
  H       1.326079      3.536720     -0.332577
  H       1.318100      4.402511      1.228987
  H       1.159995      1.936431      3.130866
  H       2.251017      3.356108      3.330892
  H       2.924607      1.687680      3.308668
  H       3.873270      3.087111     -0.109051
  H       4.512057      2.294788      1.360858
  H       3.884418      3.980968      1.439401
  Si      2.210818     -3.962002      0.609910
  C       3.267631     -5.364288     -0.125251
  C       3.037326     -3.424724      2.238996
  C       0.491292     -4.677658      1.035240
  H       4.295073     -5.008187     -0.341812
  H       2.843490     -5.723254     -1.085092
  H       3.342183     -6.219249      0.580882
  H       2.427399     -2.622611      2.707181
  H       4.063369     -3.035833      2.074643
  H       3.099885     -4.267922      2.959374
  H      -0.155722     -3.891150      1.473835
  H       0.582382     -5.510666      1.765473
  H      -0.009484     -5.071714      0.126132
  H       3.429276     -2.088673     -0.669744
  C       4.570200     -3.427240     -3.191425
  C       4.591630     -2.141280     -3.603808
  H       3.951228     -3.770425     -2.339643
  H       5.193775     -4.196227     -3.682955
  Si      5.653906     -1.457200     -4.996073
  H       3.937983     -1.418139     -3.064604
  C       6.683134     -2.831594     -5.800658
  C       6.807151     -0.124859     -4.289146
  C       4.532560     -0.656614     -6.304047
  H       7.365456     -3.306587     -5.066104
  H       7.302966     -2.420573     -6.624260
  H       6.034341     -3.624369     -6.226852
  H       7.494834     -0.556050     -3.533161
  H       6.224089      0.679211     -3.794403
  H       7.419771      0.339178     -5.090174
  H       3.842045     -1.402832     -6.748020
  H       5.134275     -0.211977     -7.124144
  H       3.916143      0.150372     -5.856556
  H      -0.623620     -2.850365     -4.367435
  H       3.153240     -0.998004      1.010290
71
Coordinates from ORCA-job my_molecule E -2465.683995408553
  Pt      1.882588     -2.218059     -0.815382
  O       0.509293      0.238145      0.925517
  O      -0.242979     -2.157777     -1.149262
  P       1.880096      0.772498      0.580256
  P      -1.193883     -2.391353     -2.306539
  O      -1.513624     -3.987749     -2.618780
  O      -0.632567     -1.944026     -3.758391
  O       2.139338      0.880506     -1.073941
  O       3.133724     -0.099866      1.116974
  C       2.260141      2.448558      1.275016
  C      -2.779661     -1.506656     -1.981677
  C      -3.737689     -1.668815     -3.177155
  C      -2.414115     -0.026718     -1.742840
  C      -3.400095     -2.107709     -0.699495
  C       1.212323      3.435721      0.723308
  C       2.108941      2.305669      2.799982
  C       3.684233      2.907837      0.904632
  H      -1.664525     -4.490687     -1.790898
  H       2.118160      1.807727     -1.383922
  H      -3.301343     -1.238420     -4.101057
  H      -4.684284     -1.133136     -2.961061
  H      -3.974559     -2.734912     -3.369503
  H      -1.947017      0.426943     -2.640765
  H      -1.707675      0.087066     -0.895382
  H      -3.343776      0.535324     -1.516493
  H      -3.702179     -3.166975     -0.832380
  H      -4.318996     -1.538798     -0.447331
  H      -2.703967     -2.032196      0.159648
  H       0.183720      3.077330      0.929551
  H       1.303624      3.588111     -0.374193
  H       1.348886      4.429032      1.199832
  H       1.104011      1.922395      3.065763
  H       2.250040      3.301113      3.272541
  H       2.858493      1.605820      3.217923
  H       3.815592      3.017999     -0.192057
  H       4.443571      2.183812      1.260002
  H       3.893310      3.896376      1.366567
  Si      2.210150     -3.994320      0.603918
  C       3.327565     -5.361136     -0.103094
  C       2.943582     -3.456463      2.277897
  C       0.495503     -4.771312      0.941544
  H       4.357428     -4.997514     -0.296503
  H       2.934798     -5.740185     -1.068021
  H       3.393708     -6.208878      0.612821
  H       2.305061     -2.669774      2.729305
  H       3.970041     -3.048434      2.174551
  H       2.985749     -4.310530      2.987693
  H      -0.196137     -4.012504      1.360086
  H       0.575388     -5.611632      1.664096
  H       0.053162     -5.167381      0.002696
  H       3.432065     -2.105382     -0.664944
  C       4.657428     -3.428253     -3.176744
  C       4.662672     -2.148507     -3.607213
  H       4.028520     -3.766666     -2.331719
  H       5.296274     -4.196100     -3.646582
  Si      5.729725     -1.466285     -5.000261
  H       3.985986     -1.436307     -3.082968
  C       6.796145     -2.841076     -5.759327
  C       6.847897     -0.095376     -4.304104
  C       4.609556     -0.714918     -6.341735
  H       7.477163     -3.287195     -5.005543
  H       7.420394     -2.438422     -6.583882
  H       6.169220     -3.655958     -6.176709
  H       7.535410     -0.496681     -3.531429
  H       6.243426      0.707227     -3.833050
  H       7.461967      0.366200     -5.105472
  H       3.941660     -1.483415     -6.782606
  H       5.213294     -0.273483     -7.162103
  H       3.969403      0.088166     -5.921137
  H      -0.595736     -2.707828     -4.371472
  H       3.008693     -1.010555      0.715092
71
Coordinates from ORCA-job my_molecule E -2465.687368471464
  Pt      1.909780     -2.269708     -0.803883
  O       0.403341      0.253485      0.920430
  O      -0.211673     -2.152633     -1.115750
  P       1.772545      0.774812      0.556670
  P      -1.199745     -2.338412     -2.253555
  O      -1.560899     -3.905835     -2.621555
  O      -0.683724     -1.856520     -3.715986
  O       2.024915      0.870739     -1.096231
  O       3.040259     -0.077693      1.079527
  C       2.158926      2.466542      1.217434
  C      -2.754490     -1.424784     -1.875739
  C      -3.729889     -1.535536     -3.060001
  C      -2.333185      0.038155     -1.607909
  C      -3.358135     -2.048205     -0.599953
  C       1.097641      3.440465      0.670460
  C       2.032472      2.348592      2.750120
  C       3.573889      2.918750      0.815288
  H      -1.558209     -4.466609     -1.818198
  H       1.957020      1.788980     -1.419458
  H      -3.298893     -1.092407     -3.979969
  H      -4.661069     -0.985110     -2.814237
  H      -3.993804     -2.591430     -3.271233
  H      -1.874634      0.501151     -2.505584
  H      -1.604800      0.112199     -0.774223
  H      -3.242237      0.621137     -1.349732
  H      -3.681410     -3.097262     -0.759707
  H      -4.258405     -1.465115     -0.313749
  H      -2.643766     -2.007380      0.246000
  H       0.073929      3.081909      0.898818
  H       1.173464      3.576390     -0.430258
  H       1.237217      4.442176      1.129258
  H       1.033651      1.964960      3.037272
  H       2.175606      3.352355      3.205499
  H       2.792100      1.658874      3.166362
  H       3.682120      3.002978     -0.285748
  H       4.339395      2.203293      1.173133
  H       3.789506      3.917082      1.252626
  Si      2.231976     -4.069078      0.578095
  C       3.386323     -5.408275     -0.119368
  C       2.890433     -3.554125      2.288002
  C       0.517706     -4.882668      0.830341
  H       4.419378     -5.043390     -0.291681
  H       3.014019     -5.792638     -1.089651
  H       3.440952     -6.257144      0.596000
  H       2.236803     -2.777482      2.731229
  H       3.917323     -3.139190      2.236079
  H       2.908401     -4.425698      2.977791
  H      -0.204368     -4.145039      1.235256
  H       0.581160     -5.736726      1.537738
  H       0.123655     -5.268289     -0.134313
  H       3.469711     -2.183570     -0.657028
  C       4.735257     -3.460477     -3.180533
  C       4.729374     -2.181508     -3.610483
  H       4.101993     -3.799585     -2.341418
  H       5.379424     -4.225523     -3.647351
  Si      5.791075     -1.491563     -5.005271
  H       4.044350     -1.481499     -3.086790
  C       6.873803     -2.861399     -5.749968
  C       6.891265     -0.102896     -4.315480
  C       4.665690     -0.762768     -6.354995
  H       7.557313     -3.294395     -4.990769
  H       7.496648     -2.459847     -6.576117
  H       6.256916     -3.686254     -6.162688
  H       7.582439     -0.490566     -3.539059
  H       6.276607      0.695907     -3.851099
  H       7.501658      0.361173     -5.118209
  H       4.010461     -1.542468     -6.795197
  H       5.266390     -0.317484     -7.175501
  H       4.012874      0.034140     -5.942050
  H      -0.582879     -2.618971     -4.322783
  H       2.971373     -0.967844      0.583119
71
Coordinates from ORCA-job my_molecule E -2465.690446418821
  Pt      1.950644     -2.319997     -0.819306
  O       0.299255      0.278399      0.890701
  O      -0.186266     -2.149242     -1.110818
  P       1.680845      0.774013      0.540183
  P      -1.220732     -2.289400     -2.217188
  O      -1.637729     -3.837855     -2.557420
  O      -0.754273     -1.790461     -3.699872
  O       1.942279      0.857212     -1.104736
  O       2.937847     -0.087730      1.083566
  C       2.044534      2.491636      1.161764
  C      -2.725264     -1.338934     -1.754719
  C      -3.754715     -1.428003     -2.891174
  C      -2.245963      0.114051     -1.512148
  C      -3.264209     -1.956114     -0.451203
  C       0.971446      3.439410      0.592718
  C       1.914002      2.418892      2.701315
  C       3.455704      2.940344      0.753359
  H      -1.473435     -4.420243     -1.787658
  H       1.815559      1.759200     -1.450053
  H      -3.362252     -0.992591     -3.830866
  H      -4.663810     -0.861278     -2.600823
  H      -4.051525     -2.478020     -3.086732
  H      -1.826365      0.561985     -2.436107
  H      -1.473681      0.171635     -0.716514
  H      -3.124057      0.724780     -1.211596
  H      -3.603811     -3.001528     -0.600968
  H      -4.138913     -1.361652     -0.113069
  H      -2.503809     -1.926003      0.353443
  H      -0.048520      3.077058      0.829993
  H       1.049741      3.547717     -0.511068
  H       1.095851      4.455303      1.024508
  H       0.915619      2.038495      2.994603
  H       2.050368      3.432429      3.136703
  H       2.676894      1.743421      3.135265
  H       3.565728      2.987828     -0.349365
  H       4.224126      2.243263      1.138116
  H       3.662676      3.953561      1.159301
  Si      2.252369     -4.148693      0.523827
  C       3.432404     -5.471527     -0.161093
  C       2.835271     -3.654864      2.264629
  C       0.532929     -4.979394      0.686615
  H       4.470151     -5.107134     -0.304126
  H       3.080732     -5.857307     -1.138812
  H       3.468159     -6.324748      0.550427
  H       2.172091     -2.883105      2.700712
  H       3.863385     -3.240430      2.256967
  H       2.828209     -4.542857      2.933800
  H      -0.214583     -4.256103      1.070807
  H       0.572113     -5.845577      1.380823
  H       0.189002     -5.355133     -0.301112
  H       3.523170     -2.278788     -0.671999
  C       4.824751     -3.502070     -3.201343
  C       4.811008     -2.220414     -3.622304
  H       4.182542     -3.842840     -2.370675
  H       5.474708     -4.263024     -3.668417
  Si      5.871801     -1.517385     -5.013062
  H       4.120492     -1.530574     -3.095563
  C       6.966324     -2.880071     -5.751137
  C       6.957450     -0.119439     -4.321543
  C       4.746362     -0.798771     -6.367120
  H       7.649778     -3.307384     -4.988684
  H       7.590508     -2.477064     -6.575531
  H       6.357004     -3.709848     -6.165140
  H       7.649259     -0.499844     -3.542129
  H       6.335056      0.675257     -3.860337
  H       7.567205      0.349310     -5.122047
  H       4.101724     -1.584649     -6.811862
  H       5.345797     -0.346253     -7.184597
  H       4.082925     -0.008870     -5.957558
  H      -0.563128     -2.550454     -4.285166
  H       2.843550     -1.008282      0.612709
71
Coordinates from ORCA-job my_molecule E -2465.693164302425
  Pt      1.966582     -2.328395     -0.830773
  O       0.160572      0.369639      0.844285
  O      -0.176966     -2.137198     -1.099401
  P       1.556560      0.806867      0.511731
  P      -1.242558     -2.277963     -2.169464
  O      -1.658309     -3.830561     -2.479084
  O      -0.843795     -1.791651     -3.681412
  O       1.831233      0.869972     -1.128818
  O       2.789476     -0.117585      1.024270
  C       2.017835      2.490600      1.168370
  C      -2.729171     -1.312449     -1.710127
  C      -3.787447     -1.461763     -2.815783
  C      -2.272664      0.159314     -1.543683
  C      -3.222425     -1.877029     -0.364989
  C       0.989044      3.507856      0.635405
  C       1.903577      2.415592      2.711061
  C       3.448229      2.865161      0.751886
  H      -1.335630     -4.417441     -1.764897
  H       1.650453      1.755750     -1.492612
  H      -3.427252     -1.061904     -3.782937
  H      -4.699016     -0.896807     -2.528661
  H      -4.076491     -2.522323     -2.959459
  H      -1.881382      0.566729     -2.498606
  H      -1.489495      0.266232     -0.762942
  H      -3.152056      0.774088     -1.256735
  H      -3.538056     -2.936435     -0.460066
  H      -4.101161     -1.287865     -0.029968
  H      -2.442420     -1.793468      0.416187
  H      -0.045702      3.198335      0.880583
  H       1.058532      3.635377     -0.467652
  H       1.170479      4.507330      1.083520
  H       0.886518      2.094192      3.011579
  H       2.106235      3.408345      3.165211
  H       2.629694      1.687736      3.124595
  H       3.552528      2.920880     -0.350981
  H       4.180356      2.121654      1.120192
  H       3.716248      3.858909      1.169079
  Si      2.261092     -4.164717      0.501735
  C       3.471257     -5.470845     -0.157713
  C       2.780914     -3.671422      2.257588
  C       0.545265     -5.016420      0.593230
  H       4.508485     -5.100019     -0.281397
  H       3.140082     -5.873130     -1.138061
  H       3.498958     -6.318032      0.562225
  H       2.102050     -2.901166      2.675727
  H       3.807114     -3.252345      2.278823
  H       2.756870     -4.564231      2.919131
  H      -0.227602     -4.303621      0.945875
  H       0.567858     -5.883578      1.287709
  H       0.249695     -5.401143     -0.406961
  H       3.517281     -2.319989     -0.691189
  C       4.884513     -3.509482     -3.212322
  C       4.857045     -2.230729     -3.643731
  H       4.235733     -3.845459     -2.383072
  H       5.547910     -4.269023     -3.666362
  Si      5.919101     -1.524609     -5.031785
  H       4.155551     -1.551138     -3.121353
  C       7.039480     -2.877710     -5.743398
  C       6.974963     -0.103216     -4.348316
  C       4.795377     -0.840740     -6.401957
  H       7.721832     -3.285224     -4.969369
  H       7.665292     -2.475739     -6.566912
  H       6.445599     -3.720816     -6.152569
  H       7.665488     -0.463288     -3.558443
  H       6.335805      0.686595     -3.902191
  H       7.584046      0.365162     -5.149553
  H       4.170113     -1.643054     -6.844667
  H       5.395340     -0.385661     -7.217638
  H       4.113785     -0.059198     -6.006794
  H      -0.522460     -2.542481     -4.217093
  H       2.658325     -1.030002      0.533991
71
Coordinates from ORCA-job my_molecule E -2465.695716653554
  Pt      2.019086     -2.362721     -0.838831
  O       0.136299      0.398880      0.901755
  O      -0.141689     -2.143274     -1.078418
  P       1.527762      0.859817      0.575640
  P      -1.237638     -2.296440     -2.113972
  O      -1.668383     -3.867012     -2.302230
  O      -0.879653     -1.883351     -3.661009
  O       1.847445      0.885154     -1.057680
  O       2.776666     -0.035238      1.113854
  C       1.946349      2.560120      1.222870
  C      -2.695894     -1.267760     -1.702202
  C      -3.803756     -1.527964     -2.740999
  C      -2.251233      0.213794     -1.711632
  C      -3.131004     -1.681536     -0.282371
  C       0.903442      3.548781      0.663312
  C       1.818657      2.516057      2.764171
  C       3.376675      2.951670      0.816034
  H      -1.277442     -4.404667     -1.581372
  H       1.570948      1.731865     -1.457755
  H      -3.487706     -1.231755     -3.759206
  H      -4.706193     -0.936551     -2.478876
  H      -4.100608     -2.596316     -2.763165
  H      -1.897544      0.512998     -2.719942
  H      -1.450194      0.406869     -0.966463
  H      -3.123829      0.854390     -1.465225
  H      -3.428096     -2.749936     -0.245298
  H      -4.005905     -1.071641      0.022113
  H      -2.320777     -1.502843      0.450580
  H      -0.127567      3.224965      0.904728
  H       0.980453      3.660417     -0.441594
  H       1.058591      4.559065      1.095131
  H       0.800796      2.192458      3.060620
  H       2.008454      3.514395      3.208644
  H       2.548812      1.802016      3.195853
  H       3.498218      2.987455     -0.285957
  H       4.116992      2.228500      1.209316
  H       3.623707      3.957211      1.217276
  Si      2.271028     -4.246161      0.452188
  C       3.476505     -5.549343     -0.222828
  C       2.769988     -3.796003      2.223240
  C       0.543546     -5.080331      0.485724
  H       4.515668     -5.179637     -0.326989
  H       3.147043     -5.937321     -1.210257
  H       3.492123     -6.409201      0.483394
  H       2.096347     -3.027974      2.657331
  H       3.801828     -3.389964      2.253557
  H       2.733498     -4.705565      2.860263
  H      -0.233985     -4.368106      0.828539
  H       0.542639     -5.959486      1.166385
  H       0.275366     -5.452363     -0.527442
  H       3.551786     -2.406900     -0.723720
  C       4.915521     -3.549653     -3.264381
  C       4.891864     -2.265311     -3.677343
  H       4.264581     -3.888210     -2.437372
  H       5.574233     -4.307134     -3.729769
  Si      5.952818     -1.549518     -5.062485
  H       4.200578     -1.586316     -3.138490
  C       7.058970     -2.901431     -5.794565
  C       7.020734     -0.143507     -4.371027
  C       4.826521     -0.844257     -6.417338
  H       7.741880     -3.322439     -5.028320
  H       7.684212     -2.496212     -6.616854
  H       6.456215     -3.735274     -6.209617
  H       7.711899     -0.515638     -3.587405
  H       6.389515      0.646456     -3.914095
  H       7.629510      0.328149     -5.170554
  H       4.195146     -1.638718     -6.865502
  H       5.424144     -0.382396     -7.230924
  H       4.150461     -0.064449     -6.009597
  H      -0.453233     -2.628508     -4.126887
  H       2.671123     -0.971901      0.667531
71
Coordinates from ORCA-job my_molecule E -2465.699031469783
  Pt      2.050312     -2.384680     -0.851684
  O       0.028220      0.442814      0.876643
  O      -0.115948     -2.143205     -1.060854
  P       1.448207      0.863745      0.581203
  P      -1.255007     -2.318782     -2.049258
  O      -1.744080     -3.886725     -2.058842
  O      -0.934697     -2.025502     -3.628011
  O       1.791592      0.895120     -1.050589
  O       2.640583     -0.087140      1.133022
  C       1.882974      2.550001      1.247541
  C      -2.666358     -1.205506     -1.676662
  C      -3.841032     -1.540974     -2.617103
  C      -2.188064      0.248889     -1.868232
  C      -3.031126     -1.449998     -0.196930
  C       0.867254      3.555339      0.670158
  C       1.728765      2.487767      2.782265
  C       3.325586      2.921935      0.862450
  H      -1.310825     -4.361860     -1.316075
  H       1.421172      1.693459     -1.475775
  H      -3.578384     -1.364046     -3.677832
  H      -4.710983     -0.897851     -2.368590
  H      -4.166099     -2.595832     -2.508426
  H      -1.878172      0.429954     -2.917768
  H      -1.352063      0.493519     -1.180340
  H      -3.033778      0.933371     -1.648757
  H      -3.332925     -2.502570     -0.020452
  H      -3.884394     -0.797203      0.078881
  H      -2.180324     -1.198106      0.465970
  H      -0.173389      3.246967      0.892099
  H       0.965977      3.669995     -0.432531
  H       1.031930      4.561621      1.108106
  H       0.700407      2.182647      3.061674
  H       1.933099      3.479517      3.235765
  H       2.437882      1.756659      3.219607
  H       3.464891      2.957528     -0.237158
  H       4.048102      2.186030      1.265287
  H       3.581140      3.922726      1.270832
  Si      2.284048     -4.277936      0.408042
  C       3.516678     -5.568509     -0.247727
  C       2.725514     -3.841213      2.198198
  C       0.561954     -5.126638      0.372932
  H       4.554237     -5.190588     -0.328204
  H       3.209418     -5.961642     -1.238366
  H       3.523622     -6.428633      0.458623
  H       2.035715     -3.085967      2.627122
  H       3.752654     -3.426475      2.254757
  H       2.684950     -4.759274      2.823042
  H      -0.236199     -4.424636      0.688200
  H       0.541865     -6.009109      1.048920
  H       0.342819     -5.500290     -0.652284
  H       3.593937     -2.454411     -0.752047
  C       4.979767     -3.560006     -3.289673
  C       4.945259     -2.274850     -3.702911
  H       4.326042     -3.898717     -2.464549
  H       5.644167     -4.313573     -3.751198
  Si      5.998985     -1.548016     -5.090824
  H       4.246753     -1.600682     -3.158229
  C       7.118897     -2.891364     -5.820170
  C       7.052365     -0.128111     -4.402975
  C       4.862782     -0.858043     -6.446860
  H       7.806427     -3.304447     -5.053604
  H       7.740613     -2.483285     -6.643796
  H       6.524910     -3.732529     -6.233306
  H       7.747692     -0.489312     -3.617730
  H       6.413821      0.657397     -3.948360
  H       7.656629      0.347966     -5.203303
  H       4.240575     -1.660413     -6.894054
  H       5.453346     -0.389898     -7.262031
  H       4.176856     -0.085726     -6.041167
  H      -0.423845     -2.764524     -4.015939
  H       2.540613     -1.002919      0.651927
71
Coordinates from ORCA-job my_molecule E -2465.701794664923
  Pt      2.079277     -2.393941     -0.878306
  O      -0.097173      0.503870      0.827245
  O      -0.090315     -2.134611     -1.046771
  P       1.348052      0.870197      0.579201
  P      -1.286019     -2.351120     -1.958209
  O      -1.856237     -3.881659     -1.766514
  O      -1.024904     -2.228984     -3.562972
  O       1.751903      0.919439     -1.042412
  O       2.473421     -0.142184      1.137321
  C       1.839798      2.519110      1.282667
  C      -2.654299     -1.157559     -1.674572
  C      -3.889696     -1.591441     -2.487029
  C      -2.158280      0.238303     -2.097457
  C      -2.936507     -1.172754     -0.154535
  C       0.879540      3.571635      0.695789
  C       1.652493      2.422649      2.808376
  C       3.301628      2.841153      0.924498
  H      -1.397273     -4.288890     -0.997753
  H       1.270693      1.638624     -1.494799
  H      -3.687140     -1.576923     -3.576173
  H      -4.725839     -0.891403     -2.282874
  H      -4.228997     -2.609446     -2.209256
  H      -1.894752      0.266829     -3.173625
  H      -1.291251      0.548102     -1.481783
  H      -2.978694      0.966477     -1.929266
  H      -3.225676     -2.182357      0.202042
  H      -3.777511     -0.481917      0.060795
  H      -2.049544     -0.821999      0.410786
  H      -0.177521      3.301373      0.890544
  H       1.007540      3.698236     -0.401326
  H       1.078093      4.563343      1.153879
  H       0.608378      2.155770      3.066333
  H       1.892400      3.399366      3.279570
  H       2.321687      1.655627      3.245506
  H       3.457902      2.885370     -0.171797
  H       3.988220      2.071840      1.327397
  H       3.586959      3.825868      1.352121
  Si      2.297730     -4.299135      0.371704
  C       3.554421     -5.578719     -0.266155
  C       2.698356     -3.873775      2.177232
  C       0.580903     -5.160569      0.291403
  H       4.589363     -5.188388     -0.324761
  H       3.269844     -5.973860     -1.261608
  H       3.556527     -6.439651      0.438949
  H       1.994202     -3.130991      2.601434
  H       3.720081     -3.449703      2.251262
  H       2.659542     -4.795692      2.797223
  H      -0.227762     -4.467854      0.604292
  H       0.549527     -6.051765      0.954979
  H       0.391302     -5.520263     -0.744368
  H       3.628568     -2.476775     -0.788935
  C       5.041030     -3.552255     -3.315467
  C       4.996937     -2.267409     -3.731362
  H       4.385551     -3.893684     -2.492915
  H       5.713232     -4.301783     -3.771243
  Si      6.045696     -1.528492     -5.120037
  H       4.291242     -1.598869     -3.183749
  C       7.183108     -2.861668     -5.846320
  C       7.082135     -0.093626     -4.431478
  C       4.900681     -0.853424     -6.479527
  H       7.874455     -3.267194     -5.079036
  H       7.802150     -2.448590     -6.669549
  H       6.600387     -3.710518     -6.259954
  H       7.780490     -0.443571     -3.643691
  H       6.434801      0.686380     -3.979608
  H       7.682963      0.388533     -5.230810
  H       4.288440     -1.663197     -6.927253
  H       5.484864     -0.378357     -7.295359
  H       4.203979     -0.089210     -6.076696
  H      -0.440202     -2.952015     -3.871510
  H       2.389407     -1.036649      0.628364
71
Coordinates from ORCA-job my_molecule E -2465.703982718761
  Pt      2.091008     -2.377523     -0.917741
  O      -0.176121      0.624903      0.729923
  O      -0.058779     -2.093801     -1.084381
  P       1.298000      0.916807      0.547843
  P      -1.274380     -2.316843     -1.973378
  O      -1.814525     -3.861317     -1.794398
  O      -1.042385     -2.154946     -3.575438
  O       1.762273      0.979296     -1.061355
  O       2.354288     -0.154338      1.123685
  C       1.830080      2.517249      1.309764
  C      -2.677488     -1.184577     -1.649837
  C      -3.909651     -1.652802     -2.446908
  C      -2.248035      0.239207     -2.054490
  C      -2.940517     -1.230351     -0.123964
  C       0.935555      3.622049      0.712944
  C       1.583766      2.386676      2.822943
  C       3.314139      2.795549      1.008943
  H      -1.285857     -4.286273     -1.080909
  H       1.188325      1.609837     -1.537515
  H      -3.726542     -1.615722     -3.539763
  H      -4.762353     -0.982467     -2.215544
  H      -4.203430     -2.686765     -2.179772
  H      -2.001319      0.308343     -3.131936
  H      -1.384841      0.560985     -1.441805
  H      -3.089220      0.931628     -1.844466
  H      -3.174195     -2.255959      0.228475
  H      -3.818937     -0.591369      0.102866
  H      -2.068181     -0.831952      0.435030
  H      -0.138085      3.388189      0.860125
  H       1.111954      3.769066     -0.373763
  H       1.157159      4.592273      1.205889
  H       0.522332      2.154147      3.039498
  H       1.844688      3.344587      3.322251
  H       2.206035      1.584642      3.265980
  H       3.506450      2.857794     -0.080257
  H       3.959995      1.993683      1.416237
  H       3.616135      3.760274      1.469300
  Si      2.289381     -4.261067      0.358796
  C       3.536723     -5.559560     -0.259501
  C       2.710154     -3.818141      2.155610
  C       0.561815     -5.104574      0.316783
  H       4.576298     -5.179549     -0.314414
  H       3.259351     -5.957134     -1.255744
  H       3.525411     -6.413798      0.452893
  H       2.012152     -3.062181      2.564935
  H       3.735744     -3.401938      2.216739
  H       2.664708     -4.724842      2.796953
  H      -0.222101     -4.400488      0.669735
  H       0.532739     -6.000828      0.972981
  H       0.335505     -5.442736     -0.716786
  H       3.644742     -2.476980     -0.825959
  C       5.066660     -3.564901     -3.336692
  C       5.034756     -2.283955     -3.765409
  H       4.406807     -3.895404     -2.514201
  H       5.733908     -4.323686     -3.782428
  Si      6.087849     -1.558001     -5.155474
  H       4.332168     -1.609420     -3.223362
  C       7.223644     -2.897944     -5.872607
  C       7.126370     -0.122477     -4.471037
  C       4.945207     -0.888599     -6.519752
  H       7.912428     -3.301090     -5.101770
  H       7.844473     -2.489243     -6.696661
  H       6.639230     -3.747232     -6.283002
  H       7.822404     -0.470304     -3.680244
  H       6.479718      0.661369     -4.024848
  H       7.729587      0.353179     -5.272450
  H       4.331679     -1.699544     -6.963485
  H       5.532443     -0.419689     -7.336929
  H       4.250156     -0.120526     -6.121471
  H      -0.354954     -2.778644     -3.891195
  H       2.319813     -1.017005      0.568013
71
Coordinates from ORCA-job my_molecule E -2465.705863944786
  Pt      2.118393     -2.378661     -0.951779
  O      -0.236468      0.717475      0.658771
  O      -0.032668     -2.070014     -1.108274
  P       1.252087      0.958872      0.538259
  P      -1.273037     -2.321021     -1.955949
  O      -1.817598     -3.850175     -1.700528
  O      -1.062018     -2.212907     -3.567974
  O       1.774432      1.030833     -1.052241
  O       2.265825     -0.145894      1.128909
  C       1.805500      2.524682      1.354935
  C      -2.677745     -1.187737     -1.653169
  C      -3.910260     -1.692140     -2.427604
  C      -2.265489      0.230776     -2.102199
  C      -2.929455     -1.193664     -0.125759
  C       0.971613      3.671061      0.747284
  C       1.495541      2.376134      2.856791
  C       3.308483      2.758077      1.120682
  H      -1.254518     -4.258480     -1.002797
  H       1.100544      1.533206     -1.550952
  H      -3.735807     -1.690741     -3.522272
  H      -4.763597     -1.016826     -2.212348
  H      -4.195024     -2.718351     -2.123325
  H      -2.022214      0.275374     -3.181522
  H      -1.403626      0.577019     -1.497703
  H      -3.110503      0.921915     -1.903098
  H      -3.140925     -2.213313      0.256456
  H      -3.822275     -0.569110      0.084976
  H      -2.063643     -0.759795      0.415283
  H      -0.113845      3.471663      0.848797
  H       1.198663      3.827525     -0.328018
  H       1.206776      4.622891      1.268866
  H       0.418982      2.178300      3.028363
  H       1.770160      3.314754      3.384342
  H       2.071619      1.544426      3.308095
  H       3.543805      2.827325      0.040503
  H       3.912176      1.931699      1.544014
  H       3.619893      3.706658      1.607196
  Si      2.297744     -4.253475      0.344948
  C       3.534778     -5.565575     -0.264523
  C       2.737467     -3.794629      2.134400
  C       0.560894     -5.079089      0.333722
  H       4.575020     -5.186677     -0.314961
  H       3.261958     -5.962058     -1.263517
  H       3.517573     -6.418085      0.449453
  H       2.046734     -3.028173      2.538220
  H       3.766600     -3.384548      2.180935
  H       2.691075     -4.690246      2.790603
  H      -0.201641     -4.363689      0.709491
  H       0.531277     -5.974931      0.989844
  H       0.309087     -5.409278     -0.696456
  H       3.667151     -2.487105     -0.863559
  C       5.088164     -3.577391     -3.368574
  C       5.059311     -2.298764     -3.800545
  H       4.429686     -3.904553     -2.544341
  H       5.753122     -4.338832     -3.813472
  Si      6.107755     -1.575742     -5.194377
  H       4.362189     -1.621872     -3.260068
  C       7.241350     -2.916044     -5.913907
  C       7.147864     -0.139362     -4.514630
  C       4.959269     -0.908881     -6.554778
  H       7.932602     -3.318261     -5.144859
  H       7.858999     -2.507254     -6.740292
  H       6.655433     -3.765615     -6.321533
  H       7.846129     -0.486285     -3.725488
  H       6.502208      0.645082     -4.068100
  H       7.748633      0.334706     -5.318824
  H       4.344078     -1.720814     -6.994368
  H       5.543210     -0.441278     -7.375006
  H       4.266149     -0.140164     -6.154324
  H      -0.303468     -2.758602     -3.863554
  H       2.272135     -1.001101      0.559520
71
Coordinates from ORCA-job my_molecule E -2465.706907061902
  Pt      2.132028     -2.363381     -0.970845
  O      -0.230321      0.820783      0.602241
  O      -0.022947     -2.036795     -1.141581
  P       1.267448      1.005942      0.545838
  P      -1.262288     -2.337058     -1.974580
  O      -1.800032     -3.860477     -1.699603
  O      -1.019292     -2.261282     -3.586850
  O       1.823183      1.100248     -1.029436
  O       2.238436     -0.129335      1.153328
  C       1.837973      2.538426      1.416058
  C      -2.698867     -1.234029     -1.704555
  C      -3.880893     -1.746621     -2.550008
  C      -2.291232      0.203048     -2.105093
  C      -3.022957     -1.286341     -0.194675
  C       1.076435      3.725563      0.792271
  C       1.449849      2.379020      2.902234
  C       3.357382      2.718182      1.262170
  H      -1.248688     -4.264718     -0.989953
  H       1.080469      1.483031     -1.538735
  H      -3.653965     -1.723257     -3.634231
  H      -4.753208     -1.085874     -2.365972
  H      -4.162094     -2.782213     -2.275393
  H      -1.990204      0.274378     -3.168521
  H      -1.468505      0.556696     -1.449389
  H      -3.158803      0.874642     -1.937895
  H      -3.238897     -2.320179      0.143685
  H      -3.936628     -0.682668     -0.013974
  H      -2.194185     -0.856929      0.402610
  H      -0.018976      3.567922      0.842590
  H       1.361861      3.878564     -0.268901
  H       1.325224      4.658814      1.340133
  H       0.359857      2.216961      3.017145
  H       1.729866      3.298891      3.458559
  H       1.974293      1.520228      3.366184
  H       3.645266      2.789901      0.194374
  H       3.909507      1.867921      1.707722
  H       3.675949      3.650353      1.774793
  Si      2.305919     -4.216364      0.369014
  C       3.513559     -5.553258     -0.243572
  C       2.805424     -3.723017      2.135979
  C       0.558014     -5.012032      0.440322
  H       4.554805     -5.178154     -0.306963
  H       3.231358     -5.946217     -1.242348
  H       3.499078     -6.402911      0.473187
  H       2.133176     -2.937741      2.536797
  H       3.839509     -3.322677      2.147322
  H       2.765986     -4.598453      2.819099
  H      -0.167686     -4.273693      0.842475
  H       0.538627     -5.896422      1.111424
  H       0.252612     -5.349275     -0.573085
  H       3.677554     -2.463073     -0.884090
  C       5.066140     -3.580440     -3.394158
  C       5.043999     -2.303951     -3.829257
  H       4.416427     -3.904490     -2.561218
  H       5.722035     -4.346677     -3.844989
  Si      6.081151     -1.587593     -5.232767
  H       4.358019     -1.619887     -3.290403
  C       7.200506     -2.932013     -5.966507
  C       7.135534     -0.157555     -4.561464
  C       4.921123     -0.913090     -6.579616
  H       7.897755     -3.338655     -5.205325
  H       7.810636     -2.523194     -6.798422
  H       6.605989     -3.777777     -6.369491
  H       7.839751     -0.510278     -3.780319
  H       6.498012      0.629427     -4.107889
  H       7.730505      0.313995     -5.371417
  H       4.295743     -1.721190     -7.011757
  H       5.498666     -0.449147     -7.406361
  H       4.238527     -0.139828     -6.169911
  H      -0.221421     -2.759409     -3.858789
  H       2.275234     -0.980067      0.574843
71
Coordinates from ORCA-job my_molecule E -2465.707655031906
  Pt      2.150540     -2.386546     -0.978131
  O      -0.302129      0.850671      0.564404
  O       0.000111     -2.027300     -1.134455
  P       1.202195      1.006516      0.545405
  P      -1.261910     -2.363021     -1.920878
  O      -1.830339     -3.838579     -1.499659
  O      -1.041633     -2.432203     -3.540721
  O       1.769415      1.120966     -1.023133
  O       2.154145     -0.148007      1.151390
  C       1.775521      2.516252      1.460753
  C      -2.649680     -1.181968     -1.724256
  C      -3.864506     -1.721959     -2.506029
  C      -2.195564      0.196251     -2.257529
  C      -2.940166     -1.091076     -0.211784
  C       1.045998      3.726683      0.845152
  C       1.351860      2.340187      2.937397
  C       3.300507      2.671184      1.344039
  H      -1.243223     -4.224959     -0.809235
  H       0.984307      1.399032     -1.538198
  H      -3.656192     -1.803716     -3.590441
  H      -4.709782     -1.015185     -2.370990
  H      -4.179993     -2.716654     -2.134020
  H      -1.907280      0.153028     -3.326553
  H      -1.352838      0.585309     -1.647869
  H      -3.038532      0.910725     -2.152852
  H      -3.190060     -2.083922      0.213404
  H      -3.821367     -0.432893     -0.064686
  H      -2.080721     -0.651080      0.331799
  H      -0.052652      3.588929      0.873920
  H       1.355667      3.885286     -0.208620
  H       1.300156      4.646668      1.411967
  H       0.256387      2.196153      3.022312
  H       1.632810      3.242588      3.520084
  H       1.851467      1.463142      3.395391
  H       3.611952      2.753386      0.283221
  H       3.827759      1.806088      1.790487
  H       3.624051      3.590212      1.877026
  Si      2.333374     -4.235353      0.365701
  C       3.540131     -5.569128     -0.248814
  C       2.835065     -3.726091      2.126123
  C       0.587913     -5.033179      0.444986
  H       4.579514     -5.190717     -0.311383
  H       3.260104     -5.961331     -1.248498
  H       3.527789     -6.419451      0.467230
  H       2.164268     -2.937405      2.523589
  H       3.868029     -3.322750      2.133856
  H       2.797896     -4.598192      2.813491
  H      -0.139223     -4.290181      0.835146
  H       0.571840     -5.908481      1.128165
  H       0.284624     -5.390490     -0.562519
  H       3.695529     -2.482791     -0.900514
  C       5.085969     -3.587211     -3.423057
  C       5.055052     -2.310614     -3.856725
  H       4.442573     -3.914466     -2.586176
  H       5.742334     -4.350263     -3.878940
  Si      6.078233     -1.588179     -5.266503
  H       4.367739     -1.629927     -3.315590
  C       7.198571     -2.926284     -6.007713
  C       7.128840     -0.153586     -4.601926
  C       4.905490     -0.919755     -6.603878
  H       7.902660     -3.329236     -5.250909
  H       7.800925     -2.513896     -6.843450
  H       6.605068     -3.774502     -6.406919
  H       7.839894     -0.503804     -3.825908
  H       6.489825      0.629647     -4.144140
  H       7.715878      0.321028     -5.415805
  H       4.281642     -1.731406     -7.031444
  H       5.474942     -0.452738     -7.434450
  H       4.222489     -0.149983     -6.188444
  H      -0.220072     -2.909058     -3.776036
  H       2.213128     -0.987167      0.545430
71
Coordinates from ORCA-job my_molecule E -2465.708167381170
  Pt      2.146801     -2.376556     -0.976557
  O      -0.305738      0.888492      0.558226
  O      -0.002797     -2.005790     -1.142512
  P       1.201600      1.020429      0.560327
  P      -1.261458     -2.382859     -1.916331
  O      -1.821597     -3.846652     -1.448206
  O      -1.037040     -2.507001     -3.530905
  O       1.780376      1.147498     -1.002598
  O       2.121994     -0.156588      1.171639
  C       1.797397      2.510878      1.491261
  C      -2.658911     -1.205926     -1.762398
  C      -3.859398     -1.765580     -2.553211
  C      -2.202270      0.160277     -2.317103
  C      -2.973622     -1.085342     -0.256459
  C       1.087822      3.737751      0.885200
  C       1.370035      2.325352      2.964365
  C       3.324920      2.645259      1.372900
  H      -1.235034     -4.216849     -0.748952
  H       0.995118      1.404286     -1.527147
  H      -3.632412     -1.866847     -3.632450
  H      -4.710853     -1.061789     -2.445938
  H      -4.176850     -2.754316     -2.167376
  H      -1.886431      0.090300     -3.376959
  H      -1.379737      0.571560     -1.697705
  H      -3.053358      0.869920     -2.255858
  H      -3.230622     -2.069690      0.184367
  H      -3.855165     -0.422387     -0.135309
  H      -2.122715     -0.634116      0.292658
  H      -0.013058      3.617800      0.915081
  H       1.397022      3.896658     -0.168502
  H       1.357725      4.649486      1.458047
  H       0.272436      2.195701      3.045619
  H       1.662197      3.217929      3.556740
  H       1.856973      1.436949      3.413821
  H       3.636662      2.735406      0.312856
  H       3.840664      1.768338      1.809059
  H       3.663263      3.554322      1.914032
  Si      2.334194     -4.213471      0.378121
  C       3.521956     -5.559729     -0.245337
  C       2.862619     -3.693443      2.127305
  C       0.583179     -4.994120      0.485097
  H       4.563701     -5.187936     -0.313725
  H       3.233943     -5.946258     -1.244266
  H       3.508159     -6.411570      0.468748
  H       2.203092     -2.896519      2.526501
  H       3.898079     -3.297123      2.120173
  H       2.827252     -4.560241      2.821726
  H      -0.134610     -4.239845      0.871922
  H       0.568788     -5.860220      1.180183
  H       0.265483     -5.365276     -0.512827
  H       3.694599     -2.470075     -0.900312
  C       5.071130     -3.580949     -3.434042
  C       5.046381     -2.302259     -3.863677
  H       4.430768     -3.908081     -2.594162
  H       5.721011     -4.346150     -3.895712
  Si      6.067648     -1.579910     -5.275081
  H       4.362893     -1.618741     -3.318557
  C       7.175473     -2.921322     -6.028921
  C       7.130833     -0.155939     -4.607799
  C       4.892805     -0.896323     -6.602818
  H       7.880565     -3.333045     -5.277768
  H       7.776526     -2.508185     -6.865220
  H       6.574585     -3.763385     -6.430097
  H       7.842975     -0.515315     -3.836969
  H       6.499131      0.629013     -4.142899
  H       7.717365      0.319157     -5.421749
  H       4.260826     -1.701265     -7.031072
  H       5.461229     -0.429245     -7.434072
  H       4.217755     -0.123728     -6.179790
  H      -0.207446     -2.980848     -3.744544
  H       2.167483     -0.990708      0.560007
71
Coordinates from ORCA-job my_molecule E -2465.708786289626
  Pt      2.134013     -2.380002     -0.985686
  O      -0.358150      0.931958      0.504998
  O      -0.001193     -1.960530     -1.173086
  P       1.151547      1.032891      0.550400
  P      -1.257999     -2.382554     -1.929801
  O      -1.796703     -3.845680     -1.442887
  O      -1.045199     -2.521844     -3.540829
  O       1.774002      1.174745     -0.993599
  O       2.013664     -0.171661      1.190637
  C       1.786448      2.497810      1.491976
  C      -2.665903     -1.217175     -1.765706
  C      -3.850815     -1.749024     -2.598218
  C      -2.193146      0.159504     -2.268365
  C      -3.011484     -1.141508     -0.262631
  C       1.111690      3.745924      0.889653
  C       1.354353      2.307072      2.959417
  C       3.317383      2.595497      1.366143
  H      -1.197399     -4.231122     -0.762357
  H       1.011478      1.398586     -1.562231
  H      -3.600806     -1.809745     -3.675828
  H      -4.709569     -1.056236     -2.482143
  H      -4.172053     -2.752295     -2.254991
  H      -1.831182      0.110364     -3.314754
  H      -1.401385      0.561983     -1.608544
  H      -3.051189      0.862539     -2.238006
  H      -3.288962     -2.135651      0.141985
  H      -3.883016     -0.466286     -0.135806
  H      -2.166923     -0.716849      0.319320
  H       0.007569      3.656837      0.923821
  H       1.416707      3.895402     -0.166231
  H       1.409414      4.649025      1.462706
  H       0.253845      2.200663      3.036813
  H       1.664170      3.189151      3.559236
  H       1.821258      1.405070      3.402122
  H       3.628590      2.691528      0.306750
  H       3.813771      1.701499      1.789825
  H       3.682508      3.491001      1.913060
  Si      2.346024     -4.196578      0.401546
  C       3.498774     -5.562423     -0.239421
  C       2.925628     -3.651974      2.125540
  C       0.591794     -4.957456      0.566086
  H       4.545018     -5.203647     -0.316777
  H       3.196175     -5.936983     -1.237271
  H       3.481401     -6.418590      0.469288
  H       2.287130     -2.840851      2.528273
  H       3.964244     -3.266576      2.088778
  H       2.897471     -4.508992      2.833003
  H      -0.118753     -4.185786      0.932763
  H       0.587974     -5.795814      1.294996
  H       0.255033     -5.374088     -0.407182
  H       3.688321     -2.462999     -0.898098
  C       5.062807     -3.582973     -3.453252
  C       5.050270     -2.299958     -3.875072
  H       4.425143     -3.912155     -2.611191
  H       5.703675     -4.350641     -3.922782
  Si      6.076089     -1.577793     -5.284624
  H       4.369329     -1.613129     -3.326314
  C       7.165407     -2.926102     -6.053519
  C       7.158107     -0.172747     -4.606985
  C       4.905236     -0.867510     -6.602050
  H       7.867873     -3.353147     -5.308406
  H       7.769278     -2.512885     -6.887795
  H       6.553807     -3.757382     -6.461006
  H       7.867596     -0.547946     -3.841176
  H       6.537061      0.615452     -4.133325
  H       7.748671      0.303088     -5.417559
  H       4.261093     -1.660157     -7.035105
  H       5.476466     -0.400578     -7.431483
  H       4.241994     -0.089836     -6.169863
  H      -0.203375     -2.980243     -3.745483
  H       2.062218     -0.988236      0.560393
71
Coordinates from ORCA-job my_molecule E -2465.709210967373
  Pt      2.129038     -2.373321     -0.989090
  O      -0.368893      0.987045      0.488857
  O       0.001140     -1.918872     -1.196151
  P       1.141508      1.054557      0.578722
  P      -1.254293     -2.409988     -1.916019
  O      -1.786322     -3.831368     -1.313617
  O      -1.038157     -2.672552     -3.510730
  O       1.803508      1.212416     -0.946653
  O       1.954146     -0.186702      1.223822
  C       1.793888      2.481964      1.561591
  C      -2.666415     -1.241555     -1.843676
  C      -3.847766     -1.833770     -2.639738
  C      -2.197270      0.097200     -2.443208
  C      -3.022214     -1.054618     -0.351691
  C       1.158810      3.757763      0.972214
  C       1.337573      2.273474      3.017637
  C       3.328655      2.545105      1.458132
  H      -1.197119     -4.162307     -0.596262
  H       1.049387      1.397310     -1.540240
  H      -3.594167     -1.965236     -3.710117
  H      -4.711985     -1.141529     -2.572164
  H      -4.164991     -2.814158     -2.231671
  H      -1.816468     -0.029178     -3.476728
  H      -1.421149      0.556404     -1.801484
  H      -3.060486      0.793187     -2.484440
  H      -3.303268     -2.014661      0.125793
  H      -3.891535     -0.368762     -0.279029
  H      -2.181145     -0.587247      0.201552
  H       0.052277      3.696222      0.991753
  H       1.477247      3.916234     -0.077999
  H       1.471782      4.643536      1.563740
  H       0.233824      2.190312      3.077915
  H       1.656611      3.137273      3.638791
  H       1.778282      1.353855      3.450544
  H       3.658865      2.658295      0.406402
  H       3.798579      1.630321      1.868390
  H       3.706903      3.419560      2.029489
  Si      2.357550     -4.164914      0.415179
  C       3.470950     -5.553519     -0.245815
  C       2.998091     -3.607181      2.111600
  C       0.598954     -4.897476      0.642873
  H       4.520931     -5.208748     -0.336331
  H       3.149008     -5.916048     -1.241876
  H       3.451701     -6.413678      0.457917
  H       2.383130     -2.781223      2.521645
  H       4.040777     -3.238211      2.037709
  H       2.978251     -4.454403      2.830855
  H      -0.096997     -4.109086      1.001109
  H       0.605636     -5.712233      1.398353
  H       0.235306     -5.345845     -0.306461
  H       3.682289     -2.453119     -0.902128
  C       5.035606     -3.579502     -3.484603
  C       5.034506     -2.292629     -3.895510
  H       4.404473     -3.909662     -2.638019
  H       5.664795     -4.349516     -3.966233
  Si      6.057685     -1.569430     -5.306473
  H       4.363895     -1.602599     -3.337233
  C       7.123609     -2.922307     -6.099029
  C       7.162403     -0.185808     -4.622590
  C       4.884555     -0.830481     -6.605289
  H       7.827132     -3.365837     -5.364649
  H       7.725427     -2.507272     -6.933904
  H       6.498482     -3.741580     -6.510262
  H       7.872882     -0.578265     -3.866448
  H       6.554792      0.604641     -4.135493
  H       7.752476      0.291406     -5.432715
  H       4.226017     -1.610069     -7.040379
  H       5.454412     -0.362349     -7.434988
  H       4.235667     -0.048928     -6.158606
  H      -0.183364     -3.124443     -3.672819
  H       2.034900     -0.972646      0.568067
71
Coordinates from ORCA-job my_molecule E -2465.709589709787
  Pt      2.135035     -2.367592     -1.004874
  O      -0.396155      1.052823      0.429359
  O       0.016946     -1.868514     -1.232391
  P       1.112200      1.084008      0.562542
  P      -1.241774     -2.388035     -1.928200
  O      -1.732860     -3.817494     -1.314200
  O      -1.048817     -2.645837     -3.528537
  O       1.822035      1.241152     -0.939743
  O       1.875370     -0.189741      1.213131
  C       1.773001      2.483779      1.579198
  C      -2.678269     -1.253222     -1.837135
  C      -3.857443     -1.874974     -2.612852
  C      -2.252223      0.099300     -2.444120
  C      -3.015955     -1.074338     -0.340085
  C       1.180830      3.780927      0.990829
  C       1.280875      2.273144      3.023951
  C       3.310225      2.508533      1.511994
  H      -1.120905     -4.141002     -0.613085
  H       1.077512      1.376056     -1.558730
  H      -3.621462     -1.995803     -3.688321
  H      -4.739139     -1.207336     -2.525087
  H      -4.140470     -2.865389     -2.203489
  H      -1.884723     -0.014020     -3.484064
  H      -1.478247      0.576968     -1.811412
  H      -3.132855      0.773905     -2.468907
  H      -3.266570     -2.040301      0.141804
  H      -3.899874     -0.408965     -0.254195
  H      -2.178281     -0.586809      0.199632
  H       0.073029      3.746955      0.987621
  H       1.523403      3.941787     -0.051303
  H       1.503413      4.653102      1.597081
  H       0.174323      2.216521      3.061920
  H       1.606406      3.122966      3.660658
  H       1.690229      1.339546      3.457714
  H       3.667456      2.625194      0.469631
  H       3.747662      1.577636      1.922160
  H       3.695707      3.366395      2.103119
  Si      2.365531     -4.145014      0.414303
  C       3.449764     -5.552944     -0.254587
  C       3.039826     -3.583722      2.095430
  C       0.601269     -4.854055      0.676218
  H       4.504007     -5.223374     -0.348562
  H       3.116717     -5.907533     -1.250358
  H       3.421162     -6.415231      0.446134
  H       2.443351     -2.745711      2.509131
  H       4.086799     -3.231946      2.000343
  H       3.019117     -4.425241      2.821035
  H      -0.086528     -4.053608      1.022840
  H       0.608265     -5.649521      1.452112
  H       0.225761     -5.324602     -0.257974
  H       3.684654     -2.460994     -0.912104
  C       5.039467     -3.592000     -3.510000
  C       5.051043     -2.303314     -3.913814
  H       4.407745     -3.919125     -2.663329
  H       5.660714     -4.365962     -3.996300
  Si      6.080772     -1.584866     -5.322863
  H       4.388584     -1.609407     -3.351659
  C       7.130316     -2.946107     -6.122583
  C       7.201666     -0.217144     -4.633826
  C       4.914205     -0.826934     -6.616412
  H       7.829910     -3.400552     -5.391160
  H       7.735740     -2.534553     -6.956573
  H       6.495646     -3.756718     -6.536334
  H       7.908316     -0.620720     -3.880017
  H       6.603392      0.577865     -4.142613
  H       7.796376      0.257195     -5.442259
  H       4.246055     -1.596868     -7.054034
  H       5.487882     -0.361365     -7.444919
  H       4.274843     -0.040191     -6.165105
  H      -0.169557     -3.040609     -3.706907
  H       1.971861     -0.963208      0.547223
71
Coordinates from ORCA-job my_molecule E -2465.710031476444
  Pt      2.134672     -2.377244     -1.009761
  O      -0.427981      1.089826      0.389402
  O       0.037857     -1.804536     -1.272530
  P       1.073579      1.093400      0.562358
  P      -1.225660     -2.351715     -1.939450
  O      -1.698352     -3.776147     -1.304722
  O      -1.048386     -2.630071     -3.540628
  O       1.841643      1.240789     -0.909112
  O       1.785844     -0.207076      1.226264
  C       1.731174      2.480969      1.598950
  C      -2.677378     -1.236310     -1.851812
  C      -3.855986     -1.894065     -2.595365
  C      -2.280536      0.114979     -2.490852
  C      -2.998155     -1.033598     -0.354595
  C       1.166771      3.787828      1.005589
  C       1.208513      2.274086      3.035099
  C       3.268771      2.480166      1.566281
  H      -1.087426     -4.080191     -0.594204
  H       1.131844      1.342218     -1.574446
  H      -3.639524     -2.026987     -3.673393
  H      -4.748673     -1.242203     -2.498048
  H      -4.110979     -2.883669     -2.166266
  H      -1.933880     -0.003785     -3.537031
  H      -1.498854      0.611776     -1.880035
  H      -3.170895      0.777406     -2.500731
  H      -3.228651     -1.992948      0.149400
  H      -3.891598     -0.380529     -0.271739
  H      -2.161785     -0.522818      0.164041
  H       0.059135      3.770022      0.982646
  H       1.529583      3.949423     -0.029703
  H       1.492120      4.653013      1.620377
  H       0.100768      2.233137      3.056894
  H       1.534508      3.118889      3.678192
  H       1.596821      1.334665      3.475681
  H       3.649730      2.597958      0.532560
  H       3.681784      1.539143      1.978706
  H       3.652795      3.326752      2.174203
  Si      2.393993     -4.143659      0.426729
  C       3.440426     -5.569545     -0.266335
  C       3.125166     -3.585131      2.084758
  C       0.632642     -4.839774      0.748913
  H       4.498945     -5.257725     -0.372935
  H       3.083975     -5.910236     -1.259774
  H       3.407538     -6.437817      0.426618
  H       2.553881     -2.737267      2.514205
  H       4.174635     -3.252228      1.953900
  H       3.114408     -4.423555      2.813861
  H      -0.055447     -4.033457      1.080338
  H       0.653957     -5.604237      1.555163
  H       0.244587     -5.348277     -0.160255
  H       3.682975     -2.484810     -0.908277
  C       5.036916     -3.609860     -3.543628
  C       5.059213     -2.317204     -3.931567
  H       4.409339     -3.939601     -2.695516
  H       5.648238     -4.384131     -4.042217
  Si      6.091151     -1.597489     -5.339807
  H       4.408930     -1.623820     -3.358516
  C       7.118867     -2.965634     -6.156908
  C       7.233877     -0.250796     -4.643711
  C       4.927638     -0.812019     -6.620562
  H       7.816879     -3.435224     -5.433576
  H       7.725234     -2.555581     -6.990981
  H       6.472165     -3.765094     -6.573761
  H       7.939215     -0.669720     -3.897121
  H       6.648645      0.547452     -4.142061
  H       7.830795      0.223901     -5.450330
  H       4.246207     -1.568238     -7.061700
  H       5.502276     -0.346333     -7.448345
  H       4.301292     -0.020798     -6.158814
  H      -0.160675     -3.003339     -3.722322
  H       1.913213     -0.968057      0.554401
71
Coordinates from ORCA-job my_molecule E -2465.710322932946
  Pt      2.127270     -2.377100     -1.027478
  O      -0.452184      1.134636      0.327296
  O       0.065693     -1.736903     -1.324750
  P       1.044618      1.109934      0.541483
  P      -1.203470     -2.319187     -1.953879
  O      -1.615777     -3.751411     -1.292885
  O      -1.060047     -2.604216     -3.558336
  O       1.868286      1.243000     -0.900190
  O       1.710227     -0.207705      1.223323
  C       1.686223      2.485473      1.602589
  C      -2.673674     -1.232987     -1.825546
  C      -3.857535     -1.917735     -2.535670
  C      -2.324870      0.128028     -2.472822
  C      -2.958512     -1.036701     -0.320024
  C       1.149341      3.800198      1.003161
  C       1.122881      2.275629      3.023336
  C       3.224310      2.469009      1.615284
  H      -0.978579     -4.028228     -0.594283
  H       1.197126      1.318799     -1.607398
  H      -3.671109     -2.045820     -3.619980
  H      -4.760464     -1.285144     -2.409751
  H      -4.076043     -2.912770     -2.099828
  H      -2.009000      0.022132     -3.529599
  H      -1.534229      0.638870     -1.885852
  H      -3.228907      0.771260     -2.447625
  H      -3.156423     -2.000769      0.189011
  H      -3.864782     -0.404765     -0.215044
  H      -2.120265     -0.507638      0.177695
  H       0.042812      3.793095      0.951568
  H       1.540618      3.965902     -0.021296
  H       1.468485      4.657961      1.631602
  H       0.014649      2.245187      3.018265
  H       1.440663      3.114719      3.677883
  H       1.490398      1.330235      3.469146
  H       3.635786      2.593200      0.594081
  H       3.614787      1.519025      2.029064
  H       3.597785      3.304361      2.244920
  Si      2.397754     -4.131912      0.417283
  C       3.411266     -5.575109     -0.291000
  C       3.163707     -3.581857      2.061997
  C       0.632461     -4.806491      0.770222
  H       4.475676     -5.286334     -0.405092
  H       3.038801     -5.901110     -1.283305
  H       3.366178     -6.447551      0.395894
  H       2.614153     -2.722062      2.495958
  H       4.217705     -3.271330      1.913713
  H       3.146856     -4.416868      2.794724
  H      -0.052484     -3.993522      1.092986
  H       0.654015     -5.553920      1.592372
  H       0.234266     -5.330087     -0.126209
  H       3.675319     -2.506502     -0.909576
  C       5.039529     -3.627427     -3.578896
  C       5.079198     -2.331563     -3.953028
  H       4.409755     -3.956781     -2.732402
  H       5.639577     -4.404952     -4.085469
  Si      6.121954     -1.615526     -5.355223
  H       4.439540     -1.637161     -3.371453
  C       7.126579     -2.993721     -6.184179
  C       7.287479     -0.294568     -4.647434
  C       4.971110     -0.799452     -6.628436
  H       7.817593     -3.480050     -5.465179
  H       7.738796     -2.586989     -7.015582
  H       6.466809     -3.779485     -6.606599
  H       7.986494     -0.731794     -3.905421
  H       6.715661      0.508506     -4.138045
  H       7.891443      0.177787     -5.450160
  H       4.276084     -1.539699     -7.075419
  H       5.552977     -0.336658     -7.452776
  H       4.359165     -0.001363     -6.159220
  H      -0.169237     -2.961893     -3.757083
  H       1.892042     -0.950883      0.546657
71
Coordinates from ORCA-job my_molecule E -2465.710573970748
  Pt      2.122334     -2.374507     -1.028929
  O      -0.467659      1.164554      0.285367
  O       0.082538     -1.688715     -1.360857
  P       1.024304      1.113171      0.531836
  P      -1.191477     -2.297156     -1.958456
  O      -1.582464     -3.719208     -1.264122
  O      -1.061930     -2.617757     -3.556418
  O       1.888981      1.241432     -0.883753
  O       1.651979     -0.218421      1.218962
  C       1.661378      2.470190      1.617933
  C      -2.670132     -1.221058     -1.836240
  C      -3.850981     -1.929779     -2.529048
  C      -2.336430      0.129442     -2.508021
  C      -2.947732     -1.002516     -0.332616
  C       1.159612      3.797285      1.017641
  C       1.058441      2.253493      3.021331
  C       3.198668      2.430067      1.670850
  H      -0.943973     -3.969043     -0.555599
  H       1.241849      1.285079     -1.614406
  H      -3.668011     -2.079242     -3.611228
  H      -4.757315     -1.300236     -2.412768
  H      -4.060118     -2.916601     -2.070632
  H      -2.027124      0.007631     -3.564896
  H      -1.545471      0.656744     -1.937785
  H      -3.245759      0.765341     -2.485709
  H      -3.131954     -1.960551      0.193268
  H      -3.862575     -0.381825     -0.234822
  H      -2.113606     -0.454258      0.152042
  H       0.054811      3.807045      0.938942
  H       1.579506      3.966021      0.005047
  H       1.477080      4.643933      1.662083
  H      -0.049529      2.240291      2.988397
  H       1.373793      3.080972      3.691750
  H       1.400221      1.297499      3.464994
  H       3.638196      2.559252      0.662064
  H       3.562269      1.468898      2.083361
  H       3.568551      3.251434      2.320725
  Si      2.415867     -4.116584      0.427663
  C       3.406982     -5.570688     -0.291449
  C       3.215465     -3.560830      2.055503
  C       0.654606     -4.782461      0.819983
  H       4.473326     -5.294072     -0.418039
  H       3.019063     -5.890336     -1.279499
  H       3.360156     -6.444024      0.394189
  H       2.681022     -2.693396      2.492553
  H       4.269546     -3.261432      1.886651
  H       3.204102     -4.389840      2.795264
  H      -0.027869     -3.967438      1.144365
  H       0.687255     -5.518264      1.652219
  H       0.241595     -5.317106     -0.062753
  H       3.668419     -2.518624     -0.902209
  C       5.035882     -3.634604     -3.600566
  C       5.081163     -2.336548     -3.967600
  H       4.409661     -3.964690     -2.751506
  H       5.628581     -4.412904     -4.113779
  Si      6.123328     -1.621180     -5.370782
  H       4.449624     -1.641705     -3.377251
  C       7.110805     -3.004261     -6.212505
  C       7.305352     -0.315511     -4.661211
  C       4.974159     -0.786194     -6.633685
  H       7.801276     -3.500572     -5.499792
  H       7.722278     -2.598695     -7.045032
  H       6.441871     -3.781895     -6.635596
  H       8.004503     -0.763911     -3.925992
  H       6.744035      0.489801     -4.143676
  H       7.909228      0.156298     -5.464318
  H       4.268641     -1.516421     -7.080715
  H       5.556044     -0.325054     -7.458938
  H       4.373510      0.015960     -6.156801
  H      -0.178250     -2.994002     -3.753424
  H       1.852812     -0.954469      0.540532
71
Coordinates from ORCA-job my_molecule E -2465.707792718257
  Pt      2.107316     -2.351573     -1.024324
  O      -0.472701      1.198542      0.269410
  O       0.090793     -1.618560     -1.402829
  P       1.023604      1.124939      0.544888
  P      -1.162029     -2.269278     -1.985732
  O      -1.519495     -3.700571     -1.279214
  O      -1.025922     -2.594317     -3.554652
  O       1.920655      1.246580     -0.854807
  O       1.605499     -0.238603      1.250744
  C       1.665195      2.471580      1.650900
  C      -2.647350     -1.245798     -1.876497
  C      -3.817500     -1.998818     -2.558743
  C      -2.350031      0.109006     -2.547474
  C      -2.918718     -1.026189     -0.386342
  C       1.192628      3.827416      1.040056
  C       1.028561      2.243952      3.046834
  C       3.215408      2.408672      1.735223
  H      -0.885396     -3.927762     -0.565388
  H       1.289136      1.291138     -1.612227
  H      -3.646924     -2.143803     -3.632238
  H      -4.729572     -1.403768     -2.440888
  H      -3.997826     -2.990903     -2.101291
  H      -2.053897     -0.006685     -3.596398
  H      -1.564861      0.663407     -1.982303
  H      -3.263193      0.711718     -2.524107
  H      -3.083026     -1.985763      0.143714
  H      -3.839271     -0.436151     -0.300411
  H      -2.097751     -0.445526      0.095766
  H       0.078221      3.855802      0.942150
  H       1.637873      4.003260      0.028861
  H       1.516084      4.673137      1.694572
  H      -0.083593      2.243237      2.988679
  H       1.339907      3.065291      3.726484
  H       1.354075      1.275702      3.501042
  H       3.684566      2.548784      0.732248
  H       3.558727      1.425560      2.149671
  H       3.587163      3.221697      2.403122
  Si      2.410701     -4.087246      0.442286
  C       3.376350     -5.556517     -0.288614
  C       3.244586     -3.526882      2.058138
  C       0.648759     -4.743269      0.872819
  H       4.444774     -5.297201     -0.430145
  H       2.969464     -5.869910     -1.272254
  H       3.326536     -6.430080      0.396163
  H       2.720277     -2.652087      2.499151
  H       4.302709     -3.236274      1.869748
  H       3.236180     -4.349481      2.804405
  H      -0.030198     -3.923956      1.195579
  H       0.689067     -5.465846      1.718701
  H       0.220717     -5.293918      0.003211
  H       3.644271     -2.522334     -0.886614
  C       5.004223     -3.638821     -3.616966
  C       5.061103     -2.337929     -3.975956
  H       4.382205     -3.966584     -2.764759
  H       5.584918     -4.421567     -4.137765
  Si      6.100449     -1.626531     -5.380989
  H       4.441206     -1.639438     -3.374527
  C       7.066051     -3.018073     -6.236073
  C       7.301107     -0.337958     -4.673324
  C       4.951721     -0.770926     -6.630683
  H       7.756548     -3.526163     -5.531241
  H       7.674643     -2.614886     -7.070394
  H       6.386376     -3.786522     -6.657439
  H       8.001385     -0.799363     -3.946934
  H       6.752934      0.471315     -4.146660
  H       7.902121      0.132042     -5.478070
  H       4.235327     -1.490820     -7.075547
  H       5.531930     -0.312710     -7.457246
  H       4.364393      0.036851     -6.146219
  H      -0.143682     -2.962306     -3.762209
  H       1.818805     -0.976713      0.544012
71
Coordinates from ORCA-job my_molecule E -2465.708534532612
  Pt      2.118532     -2.347138     -1.014434
  O      -0.442862      1.182456      0.270349
  O       0.108164     -1.599302     -1.419999
  P       1.034910      1.113988      0.545971
  P      -1.140252     -2.255360     -2.004526
  O      -1.459798     -3.676310     -1.300342
  O      -1.011796     -2.584197     -3.577199
  O       1.922380      1.239571     -0.849620
  O       1.606705     -0.229691      1.252785
  C       1.660492      2.454690      1.649678
  C      -2.653575     -1.231789     -1.882725
  C      -3.833544     -1.974274     -2.563894
  C      -2.367712      0.121965     -2.559867
  C      -2.925282     -1.024193     -0.375405
  C       1.180150      3.779905      1.048096
  C       1.046072      2.230825      3.041921
  C       3.181796      2.413631      1.725180
  H      -0.819588     -3.891314     -0.583206
  H       1.280769      1.285686     -1.609649
  H      -3.660894     -2.107173     -3.651059
  H      -4.770387     -1.381558     -2.438827
  H      -3.999126     -2.970518     -2.100050
  H      -2.070688      0.007325     -3.629010
  H      -1.572247      0.667992     -1.995587
  H      -3.302254      0.730730     -2.531498
  H      -3.081497     -1.985864      0.159989
  H      -3.862963     -0.430843     -0.277051
  H      -2.094936     -0.455270      0.103535
  H       0.085168      3.794895      0.955843
  H       1.607474      3.950327      0.038795
  H       1.493079      4.619332      1.701621
  H      -0.042627      2.212516      2.978179
  H       1.341470      3.042262      3.725511
  H       1.380979      1.288879      3.489099
  H       3.630398      2.556219      0.726414
  H       3.530811      1.454096      2.126395
  H       3.548863      3.217979      2.395718
  Si      2.422419     -4.080815      0.450833
  C       3.385197     -5.551411     -0.280853
  C       3.253431     -3.511460      2.069598
  C       0.659714     -4.735760      0.879339
  H       4.453245     -5.297958     -0.429772
  H       2.972899     -5.864858     -1.261376
  H       3.335624     -6.422023      0.405432
  H       2.724738     -2.635295      2.506746
  H       4.312808     -3.218111      1.886342
  H       3.243573     -4.331345      2.818215
  H      -0.017260     -3.916317      1.201951
  H       0.697480     -5.462429      1.722334
  H       0.227402     -5.284297      0.010107
  H       3.656061     -2.536896     -0.863669
  C       5.007835     -3.645338     -3.615314
  C       5.065880     -2.343876     -3.970093
  H       4.389488     -3.973200     -2.762001
  H       5.582888     -4.428545     -4.141814
  Si      6.098797     -1.632618     -5.377154
  H       4.448518     -1.644860     -3.363361
  C       7.056519     -3.024600     -6.239102
  C       7.305039     -0.350034     -4.674663
  C       4.947252     -0.772611     -6.617513
  H       7.748603     -3.535336     -5.538858
  H       7.662016     -2.621451     -7.074756
  H       6.373157     -3.789784     -6.658452
  H       8.008047     -0.815984     -3.954512
  H       6.761802      0.459317     -4.142892
  H       7.901952      0.119214     -5.481516
  H       4.228090     -1.489923     -7.059071
  H       5.524873     -0.315371     -7.445473
  H       4.364440      0.036027     -6.128599
  H      -0.154726     -2.954594     -3.809529
  H       1.820323     -0.964683      0.550407
71
Coordinates from ORCA-job my_molecule E -2465.692495848641
  Pt      2.119242     -2.368665     -1.027704
  O      -0.470300      1.163712      0.252320
  O       0.097977     -1.634447     -1.418705
  P       1.010934      1.078113      0.513911
  P      -1.197002     -2.296496     -1.979267
  O      -1.526938     -3.698133     -1.215669
  O      -1.109328     -2.687852     -3.627176
  O       1.895271      1.218230     -0.883214
  O       1.618135     -0.250764      1.189036
  C       1.651065      2.426727      1.615851
  C      -2.715738     -1.191090     -1.853492
  C      -3.880292     -1.897325     -2.518561
  C      -2.412016      0.152438     -2.563028
  C      -2.990713     -0.953870     -0.339998
  C       1.175177      3.778666      1.040337
  C       1.018345      2.210917      3.008037
  C       3.196697      2.348611      1.684373
  H      -0.864562     -3.911499     -0.481744
  H       1.331975      1.252702     -1.586187
  H      -3.695683     -2.059095     -3.612578
  H      -4.810816     -1.248547     -2.402436
  H      -4.062561     -2.879805     -2.032599
  H      -2.109315      0.007115     -3.643928
  H      -1.620140      0.670165     -2.015424
  H      -3.345568      0.818432     -2.534907
  H      -3.158028     -1.907477      0.200482
  H      -3.921548     -0.309061     -0.230547
  H      -2.167374     -0.427742      0.118517
  H       0.067522      3.815550      0.950636
  H       1.604568      3.952865      0.048871
  H       1.500056      4.603037      1.696768
  H      -0.122782      2.242827      2.974989
  H       1.367431      3.039193      3.691988
  H       1.327087      1.205586      3.419883
  H       3.653637      2.486083      0.690048
  H       3.536915      1.365151      2.084652
  H       3.577904      3.153139      2.347513
  Si      2.448268     -4.094106      0.447252
  C       3.417024     -5.557668     -0.282157
  C       3.274679     -3.516560      2.038835
  C       0.714012     -4.743530      0.894133
  H       4.481025     -5.295129     -0.430334
  H       3.009404     -5.876940     -1.260742
  H       3.374509     -6.425477      0.407305
  H       2.753571     -2.643173      2.474894
  H       4.310506     -3.219577      1.849583
  H       3.281936     -4.337452      2.781483
  H       0.055912     -3.922393      1.224129
  H       0.766463     -5.472126      1.725274
  H       0.270395     -5.282295      0.045394
  H       3.657626     -2.552082     -0.884773
  C       5.034176     -3.645059     -3.619340
  C       5.081953     -2.347070     -3.976880
  H       4.413611     -3.976483     -2.767117
  H       5.621802     -4.422466     -4.140864
  Si      6.129500     -1.621970     -5.372481
  H       4.458025     -1.652670     -3.380838
  C       7.128310     -2.995564     -6.218613
  C       7.306049     -0.317954     -4.646830
  C       4.986914     -0.784055     -6.636497
  H       7.814795     -3.491599     -5.503277
  H       7.747161     -2.582039     -7.045552
  H       6.463390     -3.773564     -6.653508
  H       8.003029     -0.770002     -3.912471
  H       6.739735      0.481168     -4.124533
  H       7.915507      0.161571     -5.444950
  H       4.285356     -1.514749     -7.094786
  H       5.576555     -0.315074     -7.455895
  H       4.379370      0.012494     -6.155006
  H      -0.188073     -3.117967     -3.791093
  H       1.832580     -0.972579      0.531294
71
Coordinates from ORCA-job my_molecule E -2465.705606083220
  Pt      2.112538     -2.359335     -1.026742
  O      -0.464072      1.177463      0.260810
  O       0.098579     -1.625782     -1.416892
  P       1.023698      1.095032      0.523167
  P      -1.189851     -2.290927     -1.975632
  O      -1.539334     -3.705570     -1.218222
  O      -1.096642     -2.673336     -3.605986
  O       1.901612      1.221110     -0.874242
  O       1.615063     -0.239404      1.203556
  C       1.665812      2.445322      1.619994
  C      -2.694515     -1.216528     -1.851953
  C      -3.860896     -1.943944     -2.524050
  C      -2.377086      0.125299     -2.552801
  C      -2.968656     -0.974228     -0.341853
  C       1.186303      3.784005      1.033892
  C       1.037554      2.224919      3.009618
  C       3.212989      2.385572      1.687188
  H      -0.899479     -3.914082     -0.505683
  H       1.214047      1.248158     -1.631085
  H      -3.681058     -2.116379     -3.607641
  H      -4.762272     -1.308128     -2.411698
  H      -4.063119     -2.920701     -2.049197
  H      -2.071286     -0.024574     -3.607660
  H      -1.590684      0.658106     -2.002925
  H      -3.281776      0.766766     -2.538233
  H      -3.141838     -1.925876      0.192599
  H      -3.882651     -0.344730     -0.239285
  H      -2.138585     -0.428598      0.129917
  H       0.078330      3.807245      0.946631
  H       1.617112      3.953421      0.032654
  H       1.509203      4.620901      1.686523
  H      -0.092259      2.238395      2.972719
  H       1.375513      3.051806      3.689249
  H       1.356108      1.241147      3.429964
  H       3.672278      2.522958      0.688747
  H       3.559961      1.409672      2.090859
  H       3.586860      3.196428      2.348572
  Si      2.427641     -4.092028      0.441324
  C       3.391013     -5.559717     -0.289102
  C       3.255688     -3.525711      2.041739
  C       0.681594     -4.740172      0.876003
  H       4.458802     -5.301943     -0.434515
  H       2.982692     -5.873019     -1.269178
  H       3.341659     -6.431514      0.398219
  H       2.737403     -2.652319      2.479389
  H       4.299379     -3.233119      1.854204
  H       3.255601     -4.349618      2.785485
  H       0.014549     -3.919168      1.207254
  H       0.728038     -5.471100      1.706860
  H       0.243597     -5.277726      0.017555
  H       3.653870     -2.552489     -0.879566
  C       5.022473     -3.643792     -3.619272
  C       5.076765     -2.342461     -3.973243
  H       4.399480     -3.975687     -2.767845
  H       5.605319     -4.422436     -4.143167
  Si      6.125276     -1.615450     -5.369099
  H       4.455006     -1.647348     -3.372288
  C       7.111476     -2.992290     -6.225588
  C       7.313165     -0.322046     -4.639092
  C       4.984615     -0.760797     -6.626875
  H       7.796852     -3.498444     -5.514620
  H       7.730362     -2.577820     -7.051988
  H       6.440287     -3.763674     -6.662870
  H       8.009159     -0.783262     -3.908672
  H       6.755012      0.478617     -4.110578
  H       7.922936      0.158812     -5.436580
  H       4.275887     -1.483944     -7.087301
  H       5.574070     -0.290887     -7.445968
  H       4.385439      0.037630     -6.140258
  H      -0.198397     -3.089274     -3.766865
  H       1.830102     -0.964157      0.543709
71
Coordinates from ORCA-job my_molecule E -2465.710418790035
  Pt      2.114510     -2.353355     -1.025008
  O      -0.459479      1.185690      0.263792
  O       0.102718     -1.617009     -1.416883
  P       1.028142      1.109532      0.540505
  P      -1.160778     -2.270959     -1.977394
  O      -1.504186     -3.676724     -1.246093
  O      -1.052848     -2.634836     -3.567215
  O       1.920977      1.243449     -0.857397
  O       1.617646     -0.231207      1.236522
  C       1.659168      2.456994      1.640589
  C      -2.666659     -1.227284     -1.866038
  C      -3.835719     -1.968524     -2.549909
  C      -2.357745      0.115888     -2.559664
  C      -2.944440     -1.000017     -0.367606
  C       1.180877      3.791539      1.039363
  C       1.027859      2.236980      3.031030
  C       3.193366      2.404342      1.721443
  H      -0.863943     -3.881010     -0.528292
  H       1.281344      1.273190     -1.602721
  H      -3.654808     -2.132189     -3.624997
  H      -4.744961     -1.354192     -2.444688
  H      -4.031498     -2.949530     -2.078750
  H      -2.050367     -0.026281     -3.608195
  H      -1.568014      0.663465     -2.003672
  H      -3.268034      0.737802     -2.552298
  H      -3.112008     -1.956686      0.164319
  H      -3.859745     -0.390666     -0.274709
  H      -2.113201     -0.437487      0.114265
  H       0.079171      3.812233      0.943694
  H       1.621479      3.959191      0.030910
  H       1.494489      4.633377      1.691656
  H      -0.076158      2.240069      2.976863
  H       1.343697      3.050317      3.713115
  H       1.350141      1.273631      3.464559
  H       3.654641      2.541421      0.721709
  H       3.538837      1.436741      2.129886
  H       3.559254      3.214765      2.385110
  Si      2.423790     -4.091697      0.441687
  C       3.382728     -5.560046     -0.291683
  C       3.256354     -3.527827      2.050114
  C       0.669819     -4.743137      0.877399
  H       4.451456     -5.304486     -0.439354
  H       2.970015     -5.870364     -1.272753
  H       3.332732     -6.433411      0.394459
  H       2.735998     -2.653260      2.488337
  H       4.311254     -3.233877      1.864039
  H       3.250641     -4.351499      2.796773
  H      -0.000942     -3.921601      1.211702
  H       0.714706     -5.478131      1.710386
  H       0.227968     -5.282201      0.009716
  H       3.651696     -2.549019     -0.875848
  C       5.007206     -3.642090     -3.622078
  C       5.065251     -2.340568     -3.975931
  H       4.386918     -3.973590     -2.770260
  H       5.584802     -4.422787     -4.149143
  Si      6.107829     -1.623441     -5.377574
  H       4.449205     -1.641621     -3.372416
  C       7.077827     -3.008845     -6.234922
  C       7.306895     -0.337452     -4.661656
  C       4.964027     -0.765242     -6.628722
  H       7.764755     -3.518097     -5.527880
  H       7.691553     -2.601923     -7.064959
  H       6.399684     -3.775064     -6.663305
  H       8.004931     -0.801627     -3.935263
  H       6.757815      0.468067     -4.132481
  H       7.911281      0.135378     -5.463472
  H       4.249754     -1.483969     -7.079879
  H       5.548359     -0.302893     -7.451378
  H       4.373897      0.038150     -6.142063
  H      -0.190959     -3.028260     -3.741822
  H       1.831342     -0.962979      0.554520
71
Coordinates from ORCA-job my_molecule E -2465.706456579390
  Pt      2.120096     -2.353950     -1.022877
  O      -0.460231      1.198304      0.269031
  O       0.111717     -1.610561     -1.424150
  P       1.022310      1.123864      0.554697
  P      -1.143449     -2.264485     -1.995028
  O      -1.486041     -3.679469     -1.264668
  O      -1.000118     -2.612913     -3.554093
  O       1.922275      1.253865     -0.841671
  O       1.606877     -0.220279      1.263584
  C       1.655349      2.464952      1.664586
  C      -2.644895     -1.227421     -1.895535
  C      -3.813456     -1.979115     -2.598708
  C      -2.344222      0.127213     -2.581274
  C      -2.933606     -1.005316     -0.385617
  C       1.186082      3.801968      1.057486
  C       1.020592      2.247019      3.057095
  C       3.182695      2.408687      1.760111
  H      -0.831720     -3.869805     -0.537735
  H       1.281834      1.280096     -1.582490
  H      -3.625179     -2.129846     -3.690936
  H      -4.749827     -1.372993     -2.491761
  H      -3.994131     -2.976507     -2.125008
  H      -2.031826     -0.004400     -3.649959
  H      -1.555686      0.679860     -2.009425
  H      -3.274162      0.749172     -2.566796
  H      -3.100505     -1.970252      0.145701
  H      -3.861104     -0.398498     -0.295642
  H      -2.102680     -0.436758      0.112649
  H       0.086237      3.828068      0.951209
  H       1.629596      3.971763      0.054070
  H       1.501401      4.639082      1.716060
  H      -0.072242      2.250301      2.986254
  H       1.328526      3.053485      3.745479
  H       1.338828      1.288218      3.503104
  H       3.643856      2.545060      0.763330
  H       3.520913      1.442510      2.171089
  H       3.552130      3.215779      2.429466
  Si      2.426847     -4.091737      0.448250
  C       3.390241     -5.558398     -0.282475
  C       3.258324     -3.521853      2.060388
  C       0.671085     -4.748126      0.886059
  H       4.458148     -5.301657     -0.433692
  H       2.976060     -5.872187     -1.262960
  H       3.342751     -6.428763      0.406129
  H       2.731047     -2.646600      2.496144
  H       4.316278     -3.224292      1.875565
  H       3.252252     -4.341956      2.810524
  H      -0.002441     -3.926539      1.221138
  H       0.718014     -5.481220      1.722143
  H       0.227356     -5.291402      0.017164
  H       3.653470     -2.553369     -0.869747
  C       5.002655     -3.647047     -3.623930
  C       5.056427     -2.347086     -3.980069
  H       4.386436     -3.977772     -2.769564
  H       5.578385     -4.427995     -4.152912
  Si      6.084691     -1.634253     -5.389415
  H       4.443428     -1.648004     -3.374086
  C       7.046950     -3.021244     -6.250746
  C       7.286401     -0.347453     -4.689514
  C       4.929575     -0.780667     -6.629996
  H       7.740215     -3.528628     -5.549359
  H       7.651129     -2.616382     -7.085883
  H       6.366228     -3.787569     -6.669801
  H       7.991173     -0.810291     -3.969349
  H       6.741079      0.459332     -4.157755
  H       7.880840      0.122079     -5.497465
  H       4.214054     -1.500772     -7.070813
  H       5.504813     -0.321485     -7.457670
  H       4.343445      0.024118     -6.140888
  H      -0.063674     -3.032023     -3.705590
  H       1.824398     -0.962210      0.560639
71
Coordinates from ORCA-job my_molecule E -2465.710543101873
  Pt      2.119826     -2.353528     -1.023070
  O      -0.455712      1.187408      0.261020
  O       0.114610     -1.609484     -1.425345
  P       1.023761      1.115087      0.541942
  P      -1.156674     -2.269458     -1.993357
  O      -1.500950     -3.689483     -1.244750
  O      -1.026118     -2.638822     -3.573592
  O       1.921203      1.245986     -0.854110
  O       1.610224     -0.229062      1.248122
  C       1.656240      2.457791      1.651966
  C      -2.652379     -1.222834     -1.885505
  C      -3.819264     -1.965380     -2.573832
  C      -2.348355      0.123661     -2.571978
  C      -2.935115     -0.997413     -0.382554
  C       1.185281      3.798580      1.050341
  C       1.020002      2.235881      3.042739
  C       3.190606      2.399421      1.743492
  H      -0.860797     -3.888450     -0.524608
  H       1.283991      1.272380     -1.591283
  H      -3.634232     -2.117885     -3.659736
  H      -4.748398     -1.354090     -2.462936
  H      -4.001781     -2.956120     -2.101699
  H      -2.041708     -0.010020     -3.634807
  H      -1.562292      0.670023     -2.011764
  H      -3.272891      0.748641     -2.554198
  H      -3.104225     -1.956902      0.147478
  H      -3.860186     -0.384960     -0.287053
  H      -2.109097     -0.438132      0.104403
  H       0.081474      3.825470      0.945233
  H       1.626103      3.971102      0.050813
  H       1.502182      4.634001      1.710881
  H      -0.084669      2.241979      2.975686
  H       1.333296      3.048099      3.732128
  H       1.338534      1.268149      3.484484
  H       3.654014      2.537412      0.747168
  H       3.531010      1.426926      2.153399
  H       3.560213      3.207563      2.413598
  Si      2.427335     -4.088252      0.448617
  C       3.392423     -5.555571     -0.280353
  C       3.257325     -3.518173      2.059692
  C       0.673399     -4.744103      0.885022
  H       4.460299     -5.298985     -0.431402
  H       2.979033     -5.870575     -1.260332
  H       3.344731     -6.425011      0.409319
  H       2.730837     -2.643782      2.495408
  H       4.310940     -3.221477      1.875417
  H       3.252903     -4.338448      2.808964
  H       0.000152     -3.923828      1.219043
  H       0.721797     -5.475356      1.721079
  H       0.231346     -5.287781      0.020191
  H       3.655376     -2.553757     -0.869386
  C       5.007790     -3.646955     -3.622371
  C       5.061644     -2.346704     -3.978275
  H       4.390531     -3.977668     -2.767978
  H       5.584416     -4.427630     -4.150293
  Si      6.093437     -1.629415     -5.384849
  H       4.447315     -1.647599     -3.373344
  C       7.061565     -3.013535     -6.247037
  C       7.291941     -0.341058     -4.676425
  C       4.940761     -0.774078     -6.628413
  H       7.753544     -3.521525     -5.544148
  H       7.668770     -2.604835     -7.080027
  H       6.383221     -3.781336     -6.671514
  H       7.995225     -0.804523     -3.954644
  H       6.743612      0.464053     -4.143945
  H       7.889635      0.132666     -5.481850
  H       4.226491     -1.494971     -7.074666
  H       5.519029     -0.311294     -7.454075
  H       4.351441      0.029190     -6.138849
  H      -0.138061     -3.045012     -3.753156
  H       1.826380     -0.962957      0.557952
71
Coordinates from ORCA-job my_molecule E -2465.710730153220
  Pt      2.117572     -2.355244     -1.019050
  O      -0.464931      1.187927      0.259704
  O       0.111705     -1.611111     -1.421427
  P       1.026602      1.108801      0.542455
  P      -1.147342     -2.265360     -1.986824
  O      -1.486893     -3.668705     -1.256601
  O      -1.027087     -2.626527     -3.574272
  O       1.918631      1.239684     -0.853618
  O       1.614531     -0.237986      1.242476
  C       1.656404      2.451847      1.647485
  C      -2.653170     -1.221749     -1.881895
  C      -3.816019     -1.962926     -2.568080
  C      -2.346091      0.124443     -2.572821
  C      -2.939654     -0.997780     -0.382955
  C       1.182131      3.788496      1.048236
  C       1.021839      2.231472      3.035424
  C       3.192692      2.396241      1.733111
  H      -0.839457     -3.874618     -0.529369
  H       1.276059      1.267045     -1.597612
  H      -3.628583     -2.116800     -3.645046
  H      -4.733871     -1.353361     -2.462310
  H      -4.005466     -2.946526     -2.099529
  H      -2.038019     -0.010635     -3.625111
  H      -1.562063      0.671058     -2.016369
  H      -3.263017      0.744981     -2.562966
  H      -3.108692     -1.955186      0.147737
  H      -3.862831     -0.390212     -0.292318
  H      -2.116154     -0.437246      0.101593
  H       0.079752      3.810785      0.947786
  H       1.624502      3.957711      0.043789
  H       1.494880      4.626826      1.703831
  H      -0.087185      2.235223      2.975063
  H       1.336798      3.046131      3.721259
  H       1.342907      1.266714      3.472183
  H       3.656621      2.533780      0.736533
  H       3.536142      1.427105      2.142165
  H       3.558820      3.204122      2.399144
  Si      2.426958     -4.088697      0.451643
  C       3.390503     -5.556285     -0.277034
  C       3.258515     -3.518750      2.059841
  C       0.674686     -4.743591      0.890275
  H       4.458274     -5.299886     -0.428648
  H       2.976391     -5.871704     -1.255817
  H       3.342754     -6.425696      0.413190
  H       2.734285     -2.645151      2.496557
  H       4.309415     -3.222825      1.873465
  H       3.256051     -4.340069      2.807954
  H       0.002499     -3.924598      1.224177
  H       0.724666     -5.474049      1.726113
  H       0.231917     -5.285645      0.028070
  H       3.652777     -2.556847     -0.865134
  C       5.005108     -3.648088     -3.619772
  C       5.059218     -2.347200     -3.975079
  H       4.388073     -3.979058     -2.764894
  H       5.581474     -4.428420     -4.148340
  Si      6.091605     -1.627471     -5.381761
  H       4.446000     -1.648261     -3.369508
  C       7.059427     -3.009882     -6.246141
  C       7.290916     -0.340161     -4.670476
  C       4.939723     -0.769706     -6.625006
  H       7.751021     -3.519034     -5.543810
  H       7.667648     -2.599448     -7.079103
  H       6.380689     -3.777343     -6.672431
  H       7.993826     -0.804686     -3.949168
  H       6.743142      0.463722     -4.136904
  H       7.889840      0.135751     -5.475436
  H       4.224577     -1.489916     -7.073393
  H       5.519022     -0.304996     -7.450574
  H       4.350659      0.032390     -6.134414
  H      -0.156947     -3.025003     -3.759227
  H       1.827538     -0.964567      0.561074
71
Coordinates from ORCA-job my_molecule E -2465.709375297272
  Pt      2.118856     -2.350179     -1.017992
  O      -0.443684      1.182041      0.259687
  O       0.115157     -1.602840     -1.426897
  P       1.034336      1.110193      0.539469
  P      -1.149709     -2.271391     -1.985562
  O      -1.487838     -3.680653     -1.246808
  O      -1.031702     -2.640849     -3.573427
  O       1.919946      1.240468     -0.853668
  O       1.619038     -0.221642      1.230977
  C       1.658255      2.452136      1.644535
  C      -2.649257     -1.235954     -1.876982
  C      -3.823290     -1.988851     -2.562214
  C      -2.331120      0.109180     -2.576543
  C      -2.927138     -1.000485     -0.368975
  C       1.187735      3.786865      1.047342
  C       1.019102      2.237809      3.032261
  C       3.194571      2.395887      1.723521
  H      -0.852049     -3.869059     -0.552377
  H       1.297353      1.275734     -1.595904
  H      -3.641988     -2.158551     -3.641467
  H      -4.726004     -1.381188     -2.458436
  H      -4.030695     -2.964362     -2.091873
  H      -2.027120     -0.037123     -3.634770
  H      -1.537220      0.665814     -2.021475
  H      -3.240757      0.727542     -2.571016
  H      -3.104523     -1.956089      0.170798
  H      -3.842658     -0.397517     -0.277691
  H      -2.091324     -0.428345      0.113067
  H       0.086248      3.809762      0.954740
  H       1.632971      3.948269      0.038248
  H       1.498685      4.630749      1.697511
  H      -0.087877      2.241245      2.973685
  H       1.331024      3.053278      3.717849
  H       1.337962      1.275775      3.468574
  H       3.666275      2.528735      0.723381
  H       3.535889      1.427691      2.134985
  H       3.556400      3.208490      2.385213
  Si      2.419053     -4.084846      0.449016
  C       3.375307     -5.556224     -0.281231
  C       3.253197     -3.515823      2.057885
  C       0.662392     -4.732717      0.885072
  H       4.443802     -5.302356     -0.433665
  H       2.957956     -5.869131     -1.259504
  H       3.324884     -6.426746      0.407778
  H       2.732227     -2.639013      2.494007
  H       4.306946     -3.224695      1.870714
  H       3.246415     -4.336687      2.807418
  H      -0.008632     -3.911713      1.214853
  H       0.708577     -5.461871      1.723699
  H       0.219328     -5.276980      0.023725
  H       3.651766     -2.560925     -0.859241
  C       4.996430     -3.647118     -3.622565
  C       5.055275     -2.344036     -3.972766
  H       4.378995     -3.979452     -2.767675
  H       5.569482     -4.427233     -4.155282
  Si      6.091028     -1.621119     -5.377207
  H       4.444752     -1.643906     -3.364215
  C       7.049365     -3.003548     -6.251223
  C       7.299638     -0.345183     -4.658116
  C       4.944342     -0.747813     -6.615057
  H       7.737931     -3.521687     -5.551975
  H       7.660308     -2.590748     -7.082181
  H       6.365216     -3.764601     -6.682594
  H       7.999679     -0.819238     -3.939854
  H       6.757924      0.458790     -4.118748
  H       7.901633      0.132931     -5.460937
  H       4.223615     -1.461382     -7.067984
  H       5.526442     -0.280697     -7.438750
  H       4.360981      0.054677     -6.118669
  H      -0.157869     -3.038603     -3.754715
  H       1.832077     -0.949641      0.560311
71
Coordinates from ORCA-job my_molecule E -2465.710958945422
  Pt      2.123561     -2.353901     -1.017060
  O      -0.450071      1.178267      0.260098
  O       0.122046     -1.600328     -1.430255
  P       1.028101      1.107445      0.543569
  P      -1.148267     -2.265523     -1.993870
  O      -1.489631     -3.682511     -1.251102
  O      -1.025278     -2.633933     -3.581505
  O       1.922376      1.238537     -0.851319
  O       1.616255     -0.225603      1.243819
  C       1.651890      2.451731      1.649995
  C      -2.648657     -1.222615     -1.885985
  C      -3.815914     -1.965250     -2.572341
  C      -2.336036      0.120608     -2.576244
  C      -2.930459     -0.993230     -0.382415
  C       1.179628      3.791245      1.046532
  C       1.011732      2.233285      3.039285
  C       3.187250      2.396020      1.735092
  H      -0.847093     -3.884531     -0.533743
  H       1.290723      1.268255     -1.591942
  H      -3.629412     -2.126192     -3.653292
  H      -4.734920     -1.352792     -2.465616
  H      -4.010036     -2.949500     -2.101502
  H      -2.029643     -0.018906     -3.633929
  H      -1.548253      0.669500     -2.019840
  H      -3.253339      0.744713     -2.565844
  H      -3.106734     -1.948739      0.151762
  H      -3.852741     -0.383889     -0.290178
  H      -2.101539     -0.429919      0.100617
  H       0.075501      3.815887      0.948623
  H       1.622951      3.956901      0.042106
  H       1.492128      4.634239      1.700762
  H      -0.092418      2.235483      2.974731
  H       1.320336      3.048620      3.725834
  H       1.332365      1.268330      3.481837
  H       3.653952      2.529893      0.737264
  H       3.530164      1.426250      2.147645
  H       3.551123      3.209324      2.399950
  Si      2.428613     -4.087534      0.453249
  C       3.389378     -5.557355     -0.276243
  C       3.260956     -3.517494      2.061451
  C       0.677025     -4.740889      0.894560
  H       4.456981     -5.302370     -0.430619
  H       2.971434     -5.872574     -1.253757
  H       3.341528     -6.426549      0.414298
  H       2.736388     -2.642736      2.497513
  H       4.313658     -3.222804      1.875406
  H       3.256979     -4.337987      2.810670
  H       0.003557     -3.921215      1.226985
  H       0.729682     -5.468363      1.733090
  H       0.233010     -5.288162      0.035124
  H       3.657334     -2.564909     -0.856915
  C       5.002028     -3.650314     -3.621687
  C       5.057550     -2.348501     -3.974192
  H       4.386610     -3.982493     -2.766189
  H       5.575361     -4.430615     -4.154022
  Si      6.087676     -1.626968     -5.381926
  H       4.447121     -1.648545     -3.365344
  C       7.047471     -3.010231     -6.254595
  C       7.294513     -0.346570     -4.669505
  C       4.934814     -0.759596     -6.618910
  H       7.739395     -3.525147     -5.556052
  H       7.654345     -2.598848     -7.087388
  H       6.364820     -3.773487     -6.681780
  H       7.997937     -0.816989     -3.951906
  H       6.752030      0.458037     -4.130879
  H       7.892092      0.129873     -5.474321
  H       4.215563     -1.475413     -7.067394
  H       5.512468     -0.294159     -7.444418
  H       4.350358      0.043426     -6.123653
  H      -0.148582     -3.038014     -3.773622
  H       1.832578     -0.958423      0.563523
71
Coordinates from ORCA-job my_molecule E -2465.710574935821
  Pt      2.120031     -2.353709     -1.014954
  O      -0.467394      1.183421      0.254792
  O       0.121933     -1.603703     -1.429404
  P       1.027972      1.108215      0.545624
  P      -1.132779     -2.264580     -1.989909
  O      -1.474321     -3.671691     -1.255472
  O      -1.011451     -2.627224     -3.572857
  O       1.929044      1.239483     -0.848372
  O       1.616683     -0.240471      1.255398
  C       1.652614      2.452627      1.649754
  C      -2.639421     -1.219689     -1.889974
  C      -3.798723     -1.963617     -2.573982
  C      -2.336812      0.129647     -2.585174
  C      -2.924651     -0.992493     -0.390790
  C       1.177797      3.784843      1.048869
  C       1.014180      2.231107      3.032982
  C       3.188879      2.402325      1.739573
  H      -0.836592     -3.881028     -0.542911
  H       1.293836      1.267649     -1.596295
  H      -3.610377     -2.121253     -3.653581
  H      -4.722737     -1.350256     -2.469561
  H      -3.983252     -2.953369     -2.098541
  H      -2.030463     -0.005589     -3.642210
  H      -1.554893      0.678366     -2.030017
  H      -3.259290      0.754873     -2.574912
  H      -3.094690     -1.951481      0.140902
  H      -3.850875     -0.381810     -0.302160
  H      -2.107219     -0.431143      0.093190
  H       0.075486      3.804374      0.946691
  H       1.616547      3.955693      0.052471
  H       1.488873      4.619208      1.705197
  H      -0.097655      2.233894      2.970615
  H       1.328906      3.048711      3.717917
  H       1.334553      1.264293      3.470462
  H       3.652534      2.539195      0.747098
  H       3.534833      1.436799      2.150578
  H       3.551996      3.211860      2.405008
  Si      2.426907     -4.089353      0.457139
  C       3.389577     -5.556772     -0.272323
  C       3.259211     -3.522985      2.066881
  C       0.675970     -4.745395      0.897819
  H       4.456468     -5.299875     -0.427027
  H       2.972139     -5.872338     -1.249363
  H       3.343375     -6.425763      0.418134
  H       2.734268     -2.650986      2.504751
  H       4.311439     -3.226984      1.881122
  H       3.256705     -4.344898      2.814725
  H       0.000134     -3.927636      1.230515
  H       0.729838     -5.472596      1.736424
  H       0.233337     -5.292153      0.037708
  H       3.653500     -2.562871     -0.853807
  C       4.998658     -3.647607     -3.618694
  C       5.052962     -2.347023     -3.972856
  H       4.384180     -3.980709     -2.762969
  H       5.572173     -4.427351     -4.150821
  Si      6.080647     -1.627535     -5.382538
  H       4.443572     -1.646591     -3.364725
  C       7.040839     -3.010408     -6.254225
  C       7.286632     -0.345554     -4.674774
  C       4.925016     -0.764343     -6.618458
  H       7.734012     -3.523111     -5.556675
  H       7.646152     -2.599997     -7.088307
  H       6.358743     -3.774477     -6.679019
  H       7.991454     -0.813313     -3.957909
  H       6.743925      0.458783     -4.137061
  H       7.882577      0.129774     -5.480928
  H       4.206617     -1.481236     -7.064388
  H       5.500914     -0.299645     -7.445267
  H       4.339705      0.038067     -6.123905
  H      -0.141526     -3.030108     -3.765956
  H       1.831089     -0.967242      0.572822
71
Coordinates from ORCA-job my_molecule E -2465.710301555236
  Pt      2.118160     -2.354951     -1.013713
  O      -0.458511      1.186601      0.252690
  O       0.128862     -1.589044     -1.443484
  P       1.028644      1.107118      0.542396
  P      -1.134706     -2.252383     -2.005705
  O      -1.459079     -3.660842     -1.276487
  O      -1.022400     -2.623231     -3.594357
  O       1.934131      1.229323     -0.846732
  O       1.610203     -0.242421      1.252534
  C       1.659109      2.452667      1.653047
  C      -2.647844     -1.226249     -1.893511
  C      -3.819841     -1.971960     -2.576750
  C      -2.350441      0.111743     -2.585083
  C      -2.924992     -0.993684     -0.391454
  C       1.189859      3.789993      1.048745
  C       1.023504      2.238275      3.041446
  C       3.191108      2.396788      1.745779
  H      -0.810795     -3.855418     -0.535612
  H       1.297114      1.258881     -1.596941
  H      -3.640766     -2.142588     -3.653803
  H      -4.732254     -1.364619     -2.471100
  H      -4.014834     -2.940860     -2.107455
  H      -2.051739     -0.026958     -3.638456
  H      -1.562124      0.667207     -2.033770
  H      -3.270312      0.722356     -2.572793
  H      -3.094371     -1.942601      0.141403
  H      -3.853747     -0.396905     -0.301256
  H      -2.098201     -0.425229      0.090149
  H       0.091932      3.811881      0.948089
  H       1.629232      3.954765      0.041925
  H       1.502409      4.631285      1.705926
  H      -0.083414      2.240410      2.975346
  H       1.335037      3.058255      3.728604
  H       1.342660      1.275463      3.483081
  H       3.660112      2.528913      0.745274
  H       3.532321      1.426284      2.165186
  H       3.551285      3.210648      2.412154
  Si      2.425374     -4.087416      0.458185
  C       3.387496     -5.556432     -0.272086
  C       3.261907     -3.517407      2.067391
  C       0.671842     -4.743447      0.903825
  H       4.455393     -5.302787     -0.430699
  H       2.967839     -5.873003     -1.248978
  H       3.341095     -6.423849      0.420322
  H       2.735446     -2.644344      2.503335
  H       4.314512     -3.220344      1.880739
  H       3.258389     -4.337163      2.817224
  H      -0.001954     -3.925709      1.240475
  H       0.726919     -5.470486      1.742663
  H       0.223031     -5.289398      0.044193
  H       3.651084     -2.571855     -0.845930
  C       4.998627     -3.652679     -3.622915
  C       5.055132     -2.351026     -3.974346
  H       4.384209     -3.986335     -2.766852
  H       5.570488     -4.432645     -4.157124
  Si      6.083383     -1.626532     -5.381724
  H       4.447257     -1.652434     -3.363940
  C       7.048841     -3.004647     -6.257718
  C       7.285618     -0.342597     -4.667640
  C       4.927677     -0.763389     -6.616068
  H       7.741606     -3.517480     -5.560110
  H       7.655606     -2.588719     -7.089922
  H       6.368443     -3.770177     -6.687439
  H       7.990873     -0.811123     -3.951855
  H       6.739428      0.458639     -4.127061
  H       7.882371      0.137385     -5.472731
  H       4.211951     -1.482758     -7.066898
  H       5.505760     -0.293249     -7.440810
  H       4.338517      0.035791     -6.117864
  H      -0.158953     -3.030818     -3.780706
  H       1.823796     -0.967230      0.569844
71
Coordinates from ORCA-job my_molecule E -2465.710885350036
  Pt      2.124455     -2.351807     -1.014456
  O      -0.444752      1.177302      0.255055
  O       0.137551     -1.585852     -1.447103
  P       1.025790      1.106246      0.543582
  P      -1.132348     -2.254512     -2.008732
  O      -1.456702     -3.672446     -1.264592
  O      -1.016282     -2.624845     -3.597114
  O       1.930000      1.233443     -0.844697
  O       1.605102     -0.229481      1.250831
  C       1.650575      2.450451      1.655831
  C      -2.642075     -1.222595     -1.893815
  C      -3.808214     -1.967126     -2.573616
  C      -2.345806      0.121632     -2.582296
  C      -2.919119     -0.996351     -0.392870
  C       1.184862      3.793620      1.049392
  C       1.005170      2.229440      3.041169
  C       3.185845      2.392480      1.752421
  H      -0.822030     -3.865785     -0.538419
  H       1.300899      1.259154     -1.587653
  H      -3.625293     -2.128331     -3.651858
  H      -4.728634     -1.360073     -2.465339
  H      -3.992600     -2.951058     -2.101010
  H      -2.045731     -0.012071     -3.639433
  H      -1.557532      0.671135     -2.030078
  H      -3.265607      0.739443     -2.565008
  H      -3.085862     -1.952644      0.143880
  H      -3.846437     -0.395809     -0.300035
  H      -2.090609     -0.428943      0.085089
  H       0.080454      3.820857      0.941767
  H       1.635320      3.959451      0.043102
  H       1.496683      4.635786      1.707705
  H      -0.096554      2.231475      2.967347
  H       1.310045      3.042075      3.730775
  H       1.322138      1.266623      3.485181
  H       3.657810      2.527581      0.757281
  H       3.524400      1.422053      2.167222
  H       3.547687      3.203391      2.422479
  Si      2.427970     -4.081632      0.458016
  C       3.388870     -5.553023     -0.269312
  C       3.260938     -3.509543      2.067655
  C       0.675232     -4.737392      0.899986
  H       4.456405     -5.300899     -0.428686
  H       2.967790     -5.870019     -1.244944
  H       3.341777     -6.419865      0.424113
  H       2.732942     -2.635678      2.502674
  H       4.313308     -3.212346      1.881855
  H       3.258111     -4.328623      2.818110
  H      -0.000076     -3.920038      1.233543
  H       0.729741     -5.463642      1.739989
  H       0.229525     -5.286085      0.041672
  H       3.656631     -2.572447     -0.843879
  C       4.998452     -3.654433     -3.623490
  C       5.055322     -2.352233     -3.974898
  H       4.385164     -3.987096     -2.766583
  H       5.568246     -4.435193     -4.158806
  Si      6.080849     -1.629927     -5.384916
  H       4.448587     -1.652151     -3.361925
  C       7.039800     -3.011285     -6.262336
  C       7.288346     -0.349603     -4.674709
  C       4.923698     -0.763068     -6.616673
  H       7.733479     -3.526723     -5.566494
  H       7.644758     -2.598091     -7.095697
  H       6.356658     -3.774186     -6.689506
  H       7.994620     -0.820399     -3.960581
  H       6.746549      0.453400     -4.132956
  H       7.883289      0.128225     -5.480701
  H       4.204955     -1.479529     -7.064919
  H       5.499347     -0.295323     -7.442531
  H       4.338637      0.037915     -6.118316
  H      -0.143533     -3.036347     -3.790660
  H       1.825323     -0.963378      0.566008
71
Coordinates from ORCA-job my_molecule E -2465.710773871499
  Pt      2.121171     -2.351782     -1.014332
  O      -0.459249      1.190969      0.253830
  O       0.131893     -1.588109     -1.448211
  P       1.029674      1.108390      0.548572
  P      -1.132443     -2.260243     -2.004942
  O      -1.467502     -3.679750     -1.259884
  O      -1.015797     -2.631766     -3.590690
  O       1.934938      1.237006     -0.840095
  O       1.609729     -0.236214      1.256605
  C       1.655820      2.452763      1.651789
  C      -2.640098     -1.226006     -1.894112
  C      -3.807937     -1.981466     -2.574865
  C      -2.341238      0.126449     -2.593065
  C      -2.918048     -0.995522     -0.386261
  C       1.186951      3.789063      1.050585
  C       1.009154      2.237969      3.036773
  C       3.192945      2.394906      1.741363
  H      -0.829464     -3.866197     -0.531827
  H       1.307374      1.268312     -1.586629
  H      -3.624138     -2.146245     -3.661486
  H      -4.734584     -1.373587     -2.467098
  H      -3.992846     -2.973640     -2.092334
  H      -2.039561     -0.010168     -3.659519
  H      -1.552774      0.682581     -2.039833
  H      -3.266247      0.747140     -2.577687
  H      -3.086958     -1.957041      0.152499
  H      -3.845570     -0.392397     -0.294307
  H      -2.092586     -0.424212      0.095010
  H       0.082861      3.815112      0.946502
  H       1.628117      3.956071      0.053947
  H       1.499613      4.623056      1.706155
  H      -0.101273      2.245437      2.971400
  H       1.319415      3.055525      3.720192
  H       1.324722      1.267755      3.480541
  H       3.662763      2.526571      0.747610
  H       3.534539      1.427541      2.156930
  H       3.554741      3.207121      2.404516
  Si      2.426037     -4.084566      0.459013
  C       3.384012     -5.555627     -0.271027
  C       3.258928     -3.517228      2.065999
  C       0.675330     -4.736369      0.900171
  H       4.451645     -5.303021     -0.429335
  H       2.962691     -5.871097     -1.246694
  H       3.336662     -6.423719      0.420869
  H       2.734271     -2.643825      2.503307
  H       4.309220     -3.221921      1.879462
  H       3.257009     -4.338926      2.813127
  H       0.002429     -3.918306      1.233953
  H       0.729673     -5.463757      1.738269
  H       0.229741     -5.283000      0.043999
  H       3.651620     -2.572964     -0.842708
  C       4.995779     -3.651723     -3.622762
  C       5.053557     -2.349320     -3.972992
  H       4.381759     -3.985723     -2.766293
  H       5.565840     -4.431826     -4.159012
  Si      6.081002     -1.626506     -5.382148
  H       4.448010     -1.648678     -3.360092
  C       7.036971     -3.007943     -6.261680
  C       7.291337     -0.349763     -4.669694
  C       4.925594     -0.754613     -6.612937
  H       7.729680     -3.526334     -5.566577
  H       7.643001     -2.594890     -7.094181
  H       6.352254     -3.768317     -6.690207
  H       7.996808     -0.823031     -3.956103
  H       6.751403      0.453221     -4.126520
  H       7.887195      0.128642     -5.474648
  H       4.204999     -1.468165     -7.062547
  H       5.501788     -0.286606     -7.437877
  H       4.342508      0.046437     -6.113690
  H      -0.148224     -3.038725     -3.786591
  H       1.825671     -0.963955      0.572593
71
Coordinates from ORCA-job my_molecule E -2465.710668720802
  Pt      2.123518     -2.353335     -1.010360
  O      -0.460585      1.182744      0.247900
  O       0.138577     -1.587354     -1.449812
  P       1.030418      1.104084      0.545523
  P      -1.116133     -2.254806     -2.005043
  O      -1.440587     -3.661017     -1.268553
  O      -0.999819     -2.621991     -3.582950
  O       1.936992      1.230454     -0.841122
  O       1.609172     -0.240639      1.251947
  C       1.649536      2.446988      1.654814
  C      -2.625480     -1.221309     -1.900255
  C      -3.779296     -1.968285     -2.576949
  C      -2.332747      0.124441     -2.593275
  C      -2.907450     -0.990515     -0.406105
  C       1.181250      3.779687      1.051671
  C       1.002530      2.229403      3.039252
  C       3.182580      2.394669      1.750654
  H      -0.805514     -3.849749     -0.542132
  H       1.304515      1.256719     -1.591025
  H      -3.592911     -2.132650     -3.652090
  H      -4.701480     -1.357290     -2.470944
  H      -3.961145     -2.950348     -2.102684
  H      -2.030324     -0.010907     -3.647021
  H      -1.553361      0.675635     -2.044330
  H      -3.254387      0.744179     -2.578021
  H      -3.072036     -1.943252      0.120842
  H      -3.835363     -0.385465     -0.313163
  H      -2.095222     -0.429482      0.072537
  H       0.081608      3.800340      0.946860
  H       1.625542      3.947252      0.052930
  H       1.489503      4.617126      1.709229
  H      -0.104575      2.230050      2.969921
  H       1.307341      3.048599      3.725757
  H       1.320141      1.266599      3.483124
  H       3.653509      2.528820      0.757902
  H       3.524243      1.429056      2.165642
  H       3.540595      3.205927      2.417852
  Si      2.427075     -4.083920      0.463910
  C       3.386984     -5.554455     -0.263658
  C       3.259573     -3.514546      2.072429
  C       0.674387     -4.735884      0.905093
  H       4.454083     -5.301223     -0.423946
  H       2.964846     -5.871936     -1.238384
  H       3.340963     -6.421197      0.429574
  H       2.733361     -2.641346      2.507660
  H       4.311505     -3.218661      1.886417
  H       3.256817     -4.334766      2.822252
  H      -0.000706     -3.917744      1.237996
  H       0.728577     -5.461722      1.744973
  H       0.228317     -5.282727      0.047172
  H       3.653225     -2.575048     -0.836081
  C       4.991898     -3.653510     -3.620133
  C       5.047242     -2.352131     -3.970881
  H       4.380503     -3.987811     -2.762781
  H       5.560657     -4.433077     -4.157841
  Si      6.067915     -1.629104     -5.383771
  H       4.443538     -1.652159     -3.357333
  C       7.021964     -3.009379     -6.266365
  C       7.278639     -0.350961     -4.677155
  C       4.906820     -0.759716     -6.609523
  H       7.717692     -3.526385     -5.574353
  H       7.623906     -2.595595     -7.101346
  H       6.336804     -3.770662     -6.691580
  H       7.987274     -0.822973     -3.966686
  H       6.739702      0.451346     -4.132319
  H       7.870447      0.127818     -5.484731
  H       4.186021     -1.474445     -7.055441
  H       5.479058     -0.291425     -7.436951
  H       4.324584      0.040699     -6.108444
  H      -0.128237     -3.031375     -3.778269
  H       1.825721     -0.965108      0.574064
71
Coordinates from ORCA-job my_molecule E -2465.710913862253
  Pt      2.128476     -2.351516     -1.011526
  O      -0.446016      1.174350      0.251548
  O       0.143774     -1.581361     -1.452930
  P       1.026408      1.104960      0.547180
  P      -1.119897     -2.252088     -2.011127
  O      -1.439368     -3.661427     -1.271826
  O      -1.006058     -2.623134     -3.599274
  O       1.935773      1.233950     -0.841347
  O       1.606862     -0.233415      1.258847
  C       1.646426      2.448223      1.661099
  C      -2.634030     -1.220849     -1.902647
  C      -3.798197     -1.966410     -2.585396
  C      -2.334291      0.121558     -2.592825
  C      -2.915666     -0.996948     -0.399551
  C       1.181723      3.793604      1.049536
  C       0.998509      2.222847      3.041370
  C       3.183026      2.389851      1.764543
  H      -0.803910     -3.855107     -0.539197
  H       1.301366      1.255675     -1.589021
  H      -3.611077     -2.122716     -3.662065
  H      -4.719017     -1.361073     -2.480063
  H      -3.983653     -2.946546     -2.115548
  H      -2.032034     -0.013047     -3.644748
  H      -1.547723      0.671867     -2.040158
  H      -3.252039      0.737477     -2.580332
  H      -3.083292     -1.952378      0.136457
  H      -3.844287     -0.395620     -0.308439
  H      -2.086737     -0.429019      0.081638
  H       0.077358      3.821383      0.937194
  H       1.640253      3.960448      0.042400
  H       1.491380      4.638166      1.707946
  H      -0.105927      2.225253      2.964521
  H       1.305555      3.036442      3.733151
  H       1.314957      1.261133      3.481544
  H       3.656553      2.527022      0.772999
  H       3.521176      1.418195      2.179150
  H       3.546240      3.198963      2.436013
  Si      2.430562     -4.080904      0.464724
  C       3.390643     -5.553230     -0.261434
  C       3.264149     -3.507482      2.074116
  C       0.677652     -4.735431      0.909562
  H       4.457951     -5.300347     -0.422890
  H       2.967112     -5.871392     -1.235779
  H       3.344735     -6.419721      0.433133
  H       2.736522     -2.634275      2.508916
  H       4.317586     -3.209148      1.887648
  H       3.261969     -4.326561      2.825583
  H       0.000983     -3.917119      1.241718
  H       0.734242     -5.459981      1.751855
  H       0.230360     -5.286709      0.051339
  H       3.658879     -2.576416     -0.836134
  C       4.993741     -3.655332     -3.621777
  C       5.049803     -2.353419     -3.973181
  H       4.382965     -3.988852     -2.763621
  H       5.561306     -4.435720     -4.159487
  Si      6.070527     -1.630560     -5.386829
  H       4.446583     -1.652594     -3.358715
  C       7.023531     -3.011935     -6.269642
  C       7.283205     -0.353142     -4.679756
  C       4.909170     -0.760127     -6.613130
  H       7.719097     -3.529484     -5.577442
  H       7.625862     -2.598265     -7.104994
  H       6.337465     -3.773084     -6.695308
  H       7.991719     -0.825990     -3.969235
  H       6.745297      0.449744     -4.134695
  H       7.875420      0.125399     -5.487560
  H       4.187249     -1.474756     -7.059280
  H       5.481774     -0.291960     -7.441073
  H       4.327275      0.040911     -6.111722
  H      -0.141206     -3.031924     -3.795032
  H       1.827585     -0.965653      0.573093
71
Coordinates from ORCA-job my_molecule E -2465.710804828249
  Pt      2.126212     -2.351710     -1.011341
  O      -0.450960      1.183870      0.254799
  O       0.143814     -1.578744     -1.454851
  P       1.028286      1.105778      0.549742
  P      -1.129224     -2.255633     -2.012262
  O      -1.459573     -3.678774     -1.261997
  O      -1.013331     -2.630591     -3.601158
  O       1.936406      1.232717     -0.837840
  O       1.608177     -0.236325      1.260672
  C       1.652825      2.453065      1.657814
  C      -2.632967     -1.222097     -1.903316
  C      -3.796708     -1.974208     -2.587303
  C      -2.333396      0.125658     -2.592706
  C      -2.914668     -0.992190     -0.403948
  C       1.182895      3.782048      1.054009
  C       1.011265      2.239212      3.043734
  C       3.182058      2.400130      1.750939
  H      -0.824945     -3.870923     -0.532279
  H       1.311333      1.256144     -1.580596
  H      -3.610821     -2.139682     -3.666945
  H      -4.713612     -1.366327     -2.484206
  H      -3.986682     -2.958894     -2.113210
  H      -2.030967     -0.010035     -3.652862
  H      -1.545706      0.680218     -2.037981
  H      -3.253638      0.745134     -2.578102
  H      -3.086076     -1.951396      0.129163
  H      -3.834587     -0.386867     -0.314776
  H      -2.089215     -0.422990      0.079493
  H       0.085832      3.803693      0.945851
  H       1.621626      3.948647      0.057686
  H       1.493946      4.616471      1.713477
  H      -0.091466      2.241398      2.974072
  H       1.317267      3.056924      3.730274
  H       1.327934      1.275040      3.489030
  H       3.652400      2.527933      0.752219
  H       3.522851      1.434615      2.170995
  H       3.541011      3.216816      2.415146
  Si      2.428857     -4.083229      0.465074
  C       3.388567     -5.555031     -0.262603
  C       3.260925     -3.512946      2.073080
  C       0.677999     -4.737768      0.907806
  H       4.455631     -5.302413     -0.424305
  H       2.965093     -5.873211     -1.236900
  H       3.342863     -6.421404      0.431655
  H       2.733697     -2.639755      2.508926
  H       4.311982     -3.215192      1.887233
  H       3.259430     -4.333213      2.822025
  H       0.002552     -3.919970      1.240505
  H       0.735328     -5.462258      1.748539
  H       0.231898     -5.289434      0.052652
  H       3.655861     -2.579413     -0.834995
  C       4.993237     -3.656025     -3.622633
  C       5.049905     -2.353368     -3.972934
  H       4.381939     -3.990251     -2.764417
  H       5.560953     -4.436321     -4.161171
  Si      6.071456     -1.628561     -5.385218
  H       4.447149     -1.652580     -3.357275
  C       7.024792     -3.008567     -6.270878
  C       7.284057     -0.352357     -4.674562
  C       4.910802     -0.754893     -6.610275
  H       7.720225     -3.528001     -5.579179
  H       7.627561     -2.593215     -7.104907
  H       6.338792     -3.768878     -6.698740
  H       7.992417     -0.827020     -3.964607
  H       6.745832      0.449785     -4.127508
  H       7.876665      0.127981     -5.481101
  H       4.188841     -1.468550     -7.058779
  H       5.483939     -0.284924     -7.436775
  H       4.328800      0.045436     -6.107039
  H      -0.138998     -3.042705     -3.796330
  H       1.827670     -0.966628      0.576287
71
Coordinates from ORCA-job my_molecule E -2465.710783114577
  Pt      2.127392     -2.355422     -1.006884
  O      -0.457371      1.180755      0.249727
  O       0.148052     -1.583190     -1.457287
  P       1.033541      1.099787      0.548137
  P      -1.110472     -2.254689     -2.012067
  O      -1.432036     -3.665100     -1.270205
  O      -0.995121     -2.626214     -3.592400
  O       1.940458      1.224425     -0.836235
  O       1.610390     -0.243491      1.255653
  C       1.655588      2.446141      1.654936
  C      -2.626108     -1.221431     -1.908031
  C      -3.789245     -1.971494     -2.591565
  C      -2.333054      0.129279     -2.603045
  C      -2.911423     -0.992228     -0.405049
  C       1.192559      3.785962      1.048557
  C       0.996797      2.231242      3.040971
  C       3.194132      2.386832      1.751002
  H      -0.802452     -3.854451     -0.542206
  H       1.311458      1.245549     -1.585446
  H      -3.601617     -2.136147     -3.678653
  H      -4.719476     -1.360580     -2.486861
  H      -3.971932     -2.959645     -2.110152
  H      -2.026458     -0.004701     -3.669957
  H      -1.547890      0.682626     -2.048002
  H      -3.263920      0.751733     -2.588178
  H      -3.077452     -1.950339      0.128799
  H      -3.842005     -0.386320     -0.314408
  H      -2.091804     -0.427135      0.076849
  H       0.087869      3.813274      0.941646
  H       1.641284      3.952143      0.052484
  H       1.502543      4.622782      1.704965
  H      -0.112653      2.237182      2.966994
  H       1.298357      3.048476      3.726162
  H       1.310237      1.259627      3.492400
  H       3.671786      2.518922      0.756344
  H       3.533230      1.416170      2.169503
  H       3.552694      3.199762      2.415109
  Si      2.429317     -4.083481      0.469922
  C       3.390558     -5.554531     -0.255284
  C       3.260610     -3.510737      2.078461
  C       0.676888     -4.736266      0.911121
  H       4.457177     -5.300662     -0.417995
  H       2.967539     -5.874006     -1.228801
  H       3.346014     -6.419517      0.439487
  H       2.732570     -2.637055      2.512478
  H       4.311313     -3.213018      1.892919
  H       3.259373     -4.329670      2.829170
  H       0.001456     -3.918237      1.242471
  H       0.732661     -5.459798      1.752737
  H       0.230560     -5.286477      0.056322
  H       3.657746     -2.581899     -0.826497
  C       4.991594     -3.655719     -3.618246
  C       5.045915     -2.353614     -3.968039
  H       4.382115     -3.991447     -2.759379
  H       5.558804     -4.434827     -4.159051
  Si      6.062086     -1.626747     -5.382760
  H       4.443887     -1.653773     -3.351523
  C       7.015746     -3.003424     -6.272680
  C       7.273555     -0.348810     -4.675789
  C       4.896300     -0.755586     -6.602308
  H       7.714112     -3.521422     -5.584283
  H       7.614919     -2.586399     -7.108055
  H       6.330372     -3.764587     -6.698511
  H       7.984805     -0.822023     -3.968833
  H       6.734996      0.451558     -4.126660
  H       7.862908      0.132780     -5.483735
  H       4.175109     -1.470196     -7.048396
  H       5.465913     -0.284163     -7.430085
  H       4.314108      0.042842     -6.096547
  H      -0.130152     -3.037289     -3.789667
  H       1.827556     -0.968642      0.576521
71
Coordinates from ORCA-job my_molecule E -2465.710874863686
  Pt      2.128852     -2.353651     -1.008350
  O      -0.456847      1.177502      0.251746
  O       0.148324     -1.578008     -1.461337
  P       1.026731      1.104638      0.550595
  P      -1.107390     -2.248224     -2.015064
  O      -1.432512     -3.655385     -1.274524
  O      -0.993343     -2.621903     -3.597096
  O       1.934958      1.232612     -0.835993
  O       1.605899     -0.237107      1.259221
  C       1.646347      2.446241      1.662478
  C      -2.619663     -1.220470     -1.911046
  C      -3.773583     -1.972118     -2.595250
  C      -2.321611      0.128028     -2.598597
  C      -2.907071     -0.998935     -0.411331
  C       1.181872      3.787260      1.055903
  C       0.999627      2.224267      3.038124
  C       3.183547      2.390076      1.765527
  H      -0.795544     -3.842045     -0.539495
  H       1.300959      1.253945     -1.587240
  H      -3.581839     -2.128303     -3.669081
  H      -4.696937     -1.368166     -2.491926
  H      -3.956025     -2.958372     -2.124646
  H      -2.015805     -0.004299     -3.647804
  H      -1.543354      0.679185     -2.045139
  H      -3.237525      0.743082     -2.587129
  H      -3.073394     -1.956577      0.119245
  H      -3.835922     -0.397499     -0.319930
  H      -2.088157     -0.431263      0.070848
  H       0.075138      3.814772      0.942590
  H       1.639592      3.952350      0.052834
  H       1.491204      4.629631      1.712402
  H      -0.109011      2.225971      2.963212
  H       1.308409      3.039084      3.728068
  H       1.316050      1.264697      3.475303
  H       3.650895      2.525432      0.781790
  H       3.523860      1.427129      2.176139
  H       3.547205      3.195417      2.435224
  Si      2.429187     -4.081482      0.469397
  C       3.389034     -5.554286     -0.255068
  C       3.260672     -3.507847      2.076617
  C       0.677585     -4.731864      0.915195
  H       4.455779     -5.300700     -0.417937
  H       2.964308     -5.874264     -1.228033
  H       3.344250     -6.419866      0.440433
  H       2.733301     -2.634930      2.510922
  H       4.311640     -3.209913      1.889497
  H       3.260031     -4.326972      2.827103
  H       0.003851     -3.913078      1.246643
  H       0.734517     -5.454844      1.757577
  H       0.228767     -5.281652      0.060898
  H       3.656321     -2.582389     -0.827366
  C       4.987811     -3.656637     -3.619586
  C       5.042352     -2.354806     -3.969752
  H       4.378934     -3.991522     -2.760573
  H       5.554099     -4.436022     -4.160156
  Si      6.058500     -1.630287     -5.385921
  H       4.441689     -1.653943     -3.353310
  C       7.007784     -3.010135     -6.274327
  C       7.274114     -0.354727     -4.681272
  C       4.892915     -0.757429     -6.606173
  H       7.705598     -3.529239     -5.585656
  H       7.607374     -2.595496     -7.110963
  H       6.320034     -3.769899     -6.698724
  H       7.985166     -0.828909     -3.974327
  H       6.738688      0.447068     -4.132892
  H       7.863489      0.125085     -5.490182
  H       4.169355     -1.470676     -7.050910
  H       5.462346     -0.287982     -7.435137
  H       4.313225      0.042438     -6.101655
  H      -0.128828     -3.030849     -3.788290
  H       1.826488     -0.967688      0.575746
71
Coordinates from ORCA-job my_molecule E -2465.710794094956
  Pt      2.132988     -2.352300     -1.006464
  O      -0.439102      1.171953      0.255442
  O       0.156990     -1.573312     -1.461334
  P       1.028498      1.100037      0.551374
  P      -1.111502     -2.249629     -2.019292
  O      -1.432384     -3.665123     -1.276572
  O      -0.996631     -2.622874     -3.606796
  O       1.941624      1.228559     -0.834908
  O       1.606852     -0.238789      1.267349
  C       1.646167      2.448522      1.659809
  C      -2.622650     -1.218576     -1.908538
  C      -3.784929     -1.963745     -2.594858
  C      -2.324409      0.124596     -2.594565
  C      -2.907289     -0.994412     -0.407418
  C       1.179668      3.782824      1.045426
  C       0.995875      2.233515      3.045156
  C       3.176807      2.391636      1.760143
  H      -0.798009     -3.855171     -0.544696
  H       1.311530      1.245416     -1.581180
  H      -3.595026     -2.122284     -3.669557
  H      -4.703883     -1.358105     -2.492110
  H      -3.972384     -2.943143     -2.126991
  H      -2.020797     -0.008293     -3.648007
  H      -1.537224      0.675748     -2.040233
  H      -3.244013      0.739894     -2.581616
  H      -3.077320     -1.950192      0.123367
  H      -3.830728     -0.389380     -0.316267
  H      -2.079935     -0.428913      0.077394
  H       0.084899      3.805467      0.932719
  H       1.630699      3.946415      0.042228
  H       1.485049      4.623313      1.703915
  H      -0.105600      2.235744      2.970096
  H       1.297207      3.054413      3.733247
  H       1.310911      1.271622      3.492468
  H       3.659190      2.516921      0.757836
  H       3.513676      1.418338      2.189780
  H       3.531306      3.214278      2.423074
  Si      2.431998     -4.082342      0.471276
  C       3.392307     -5.554499     -0.254682
  C       3.261499     -3.509565      2.082945
  C       0.678586     -4.737320      0.912667
  H       4.459107     -5.301653     -0.419189
  H       2.966963     -5.873919     -1.228056
  H       3.347960     -6.420163      0.441126
  H       2.731259     -2.636967      2.516528
  H       4.315313     -3.209686      1.899806
  H       3.258246     -4.328838      2.834131
  H       0.001185     -3.919400      1.244277
  H       0.735393     -5.461169      1.755310
  H       0.231505     -5.290308      0.055299
  H       3.661529     -2.583987     -0.823437
  C       4.990067     -3.657375     -3.620668
  C       5.046024     -2.354629     -3.969796
  H       4.382017     -3.992803     -2.761241
  H       5.554382     -4.437184     -4.162790
  Si      6.060294     -1.629362     -5.386257
  H       4.446751     -1.653839     -3.350978
  C       7.007253     -3.008943     -6.278407
  C       7.277482     -0.355493     -4.681464
  C       4.893606     -0.753409     -6.603369
  H       7.705844     -3.529964     -5.591399
  H       7.605679     -2.592996     -7.114992
  H       6.318393     -3.767678     -6.703316
  H       7.989447     -0.831737     -3.976372
  H       6.743239      0.446102     -4.130696
  H       7.865505      0.125015     -5.490575
  H       4.168945     -1.465750     -7.048345
  H       5.462286     -0.283131     -7.432329
  H       4.315252      0.046624     -6.096391
  H      -0.125935     -3.036229     -3.807793
  H       1.828806     -0.969124      0.581843
71
Coordinates from ORCA-job my_molecule E -2465.710976476797
  Pt      2.131362     -2.353174     -1.005920
  O      -0.452343      1.180339      0.247728
  O       0.156317     -1.574222     -1.463428
  P       1.033401      1.099519      0.547643
  P      -1.113788     -2.253835     -2.016703
  O      -1.436017     -3.669317     -1.266620
  O      -1.000561     -2.630601     -3.604103
  O       1.943771      1.224019     -0.837380
  O       1.611519     -0.244026      1.257937
  C       1.655097      2.445400      1.658248
  C      -2.624516     -1.220782     -1.913829
  C      -3.790049     -1.971444     -2.599652
  C      -2.326999      0.127345     -2.607241
  C      -2.909603     -0.989129     -0.413460
  C       1.192383      3.783094      1.050755
  C       0.998288      2.228870      3.042270
  C       3.189181      2.387669      1.760975
  H      -0.809473     -3.860691     -0.535869
  H       1.320175      1.239537     -1.582870
  H      -3.603343     -2.138805     -3.685973
  H      -4.712671     -1.360204     -2.497525
  H      -3.980034     -2.954024     -2.121251
  H      -2.020970     -0.008282     -3.671008
  H      -1.539453      0.684346     -2.051607
  H      -3.253943      0.747574     -2.594992
  H      -3.079157     -1.946706      0.120965
  H      -3.834955     -0.384427     -0.327260
  H      -2.086729     -0.420937      0.070375
  H       0.089635      3.809624      0.943626
  H       1.640463      3.949514      0.055919
  H       1.505243      4.622711      1.709679
  H      -0.105756      2.232198      2.962752
  H       1.297966      3.043672      3.730399
  H       1.311842      1.259867      3.494812
  H       3.657648      2.525947      0.773993
  H       3.527671      1.421191      2.168691
  H       3.556583      3.191646      2.432733
  Si      2.431352     -4.080850      0.474904
  C       3.392777     -5.553015     -0.248310
  C       3.262673     -3.507011      2.082278
  C       0.679496     -4.734552      0.917678
  H       4.459051     -5.298742     -0.413065
  H       2.968402     -5.874781     -1.220883
  H       3.349491     -6.416910      0.448581
  H       2.734443     -2.633571      2.515702
  H       4.313056     -3.207903      1.896181
  H       3.262228     -4.325560      2.833724
  H       0.002689     -3.916279      1.248627
  H       0.737577     -5.456081      1.761192
  H       0.233003     -5.288666      0.063982
  H       3.660220     -2.585047     -0.822685
  C       4.989527     -3.657217     -3.618390
  C       5.043591     -2.354854     -3.968767
  H       4.381749     -3.993198     -2.758165
  H       5.555197     -4.436507     -4.160453
  Si      6.057390     -1.626851     -5.385123
  H       4.443934     -1.654402     -3.351144
  C       7.009628     -3.002530     -6.278418
  C       7.270561     -0.349507     -4.677939
  C       4.889273     -0.753989     -6.602332
  H       7.709098     -3.521657     -5.591277
  H       7.607918     -2.583847     -7.114280
  H       6.323284     -3.763417     -6.704938
  H       7.982997     -0.823799     -3.972404
  H       6.732949      0.450261     -4.126641
  H       7.858924      0.133589     -5.486458
  H       4.166948     -1.468500     -7.048884
  H       5.457843     -0.280899     -7.430660
  H       4.307534      0.043689     -6.094201
  H      -0.129607     -3.047182     -3.796997
  H       1.830928     -0.970443      0.578847
71
Coordinates from ORCA-job my_molecule E -2465.710928216075
  Pt      2.133277     -2.355318     -1.003743
  O      -0.459159      1.176711      0.250252
  O       0.158736     -1.572486     -1.470792
  P       1.030500      1.101539      0.553852
  P      -1.095062     -2.245014     -2.022541
  O      -1.416261     -3.653581     -1.276909
  O      -0.981467     -2.620930     -3.602301
  O       1.938687      1.227661     -0.830393
  O       1.605878     -0.239330      1.262672
  C       1.647084      2.443931      1.665024
  C      -2.610546     -1.217586     -1.921508
  C      -3.760899     -1.971673     -2.609554
  C      -2.316981      0.138068     -2.609012
  C      -2.902042     -0.998601     -0.420983
  C       1.185583      3.779678      1.056820
  C       0.993930      2.225303      3.039736
  C       3.184776      2.386712      1.771942
  H      -0.785619     -3.837788     -0.539277
  H       1.308143      1.244051     -1.582938
  H      -3.566052     -2.126442     -3.687832
  H      -4.688813     -1.367811     -2.507834
  H      -3.939852     -2.965601     -2.135466
  H      -2.007278      0.009263     -3.667008
  H      -1.540261      0.689279     -2.051602
  H      -3.240641      0.756575     -2.595794
  H      -3.065786     -1.961746      0.111574
  H      -3.833589     -0.397644     -0.331663
  H      -2.085600     -0.430227      0.062715
  H       0.080125      3.806781      0.939132
  H       1.641811      3.947170      0.062996
  H       1.490966      4.614083      1.714473
  H      -0.114945      2.226671      2.961800
  H       1.299751      3.040160      3.728838
  H       1.308394      1.264552      3.480339
  H       3.670805      2.514942      0.776470
  H       3.522477      1.417199      2.197955
  H       3.537532      3.202958      2.434711
  Si      2.431630     -4.080693      0.477017
  C       3.392221     -5.554161     -0.244549
  C       3.261568     -3.503904      2.083453
  C       0.680505     -4.730172      0.922720
  H       4.458067     -5.299948     -0.410287
  H       2.966282     -5.876807     -1.215717
  H       3.349421     -6.417638      0.452673
  H       2.732376     -2.630307      2.515760
  H       4.311389     -3.205223      1.896475
  H       3.262114     -4.321357      2.835381
  H       0.007286     -3.911300      1.252819
  H       0.737907     -5.451359      1.766336
  H       0.231499     -5.281635      0.071528
  H       3.660051     -2.588881     -0.815871
  C       4.984716     -3.659383     -3.617213
  C       5.037534     -2.357087     -3.966504
  H       4.378778     -3.995620     -2.756420
  H       5.548890     -4.438193     -4.161309
  Si      6.046629     -1.630334     -5.386196
  H       4.439339     -1.656086     -3.346958
  C       6.991950     -3.007963     -6.282352
  C       7.264880     -0.356111     -4.684893
  C       4.874989     -0.755359     -6.598302
  H       7.693090     -3.528615     -5.598483
  H       7.587325     -2.591264     -7.120566
  H       6.302583     -3.766809     -6.705289
  H       7.979447     -0.831788     -3.982728
  H       6.731729      0.444453     -4.131850
  H       7.850103      0.125632     -5.495484
  H       4.149906     -1.467881     -7.041038
  H       5.440101     -0.283905     -7.428823
  H       4.297215      0.043209     -6.089014
  H      -0.121744     -3.031717     -3.794054
  H       1.826927     -0.970054      0.577671
71
Coordinates from ORCA-job my_molecule E -2465.711053960409
  Pt      2.134127     -2.355217     -1.002805
  O      -0.443124      1.169132      0.253519
  O       0.165297     -1.566609     -1.474446
  P       1.029922      1.096229      0.554565
  P      -1.092023     -2.243390     -2.028193
  O      -1.409057     -3.654625     -1.287745
  O      -0.975856     -2.619808     -3.606954
  O       1.948239      1.222611     -0.826966
  O       1.602908     -0.245074      1.271829
  C       1.646165      2.445131      1.663317
  C      -2.607539     -1.218836     -1.919278
  C      -3.764967     -1.968328     -2.607695
  C      -2.311262      0.124873     -2.603235
  C      -2.895731     -0.995988     -0.417061
  C       1.185840      3.783110      1.045889
  C       0.987571      2.234056      3.047313
  C       3.177170      2.386776      1.767053
  H      -0.774718     -3.834531     -0.552635
  H       1.317585      1.235324     -1.579007
  H      -3.572102     -2.124664     -3.682134
  H      -4.690781     -1.366465     -2.504696
  H      -3.946479     -2.951985     -2.138769
  H      -2.004755     -0.008023     -3.654444
  H      -1.530207      0.676755     -2.047924
  H      -3.230222      0.737297     -2.592120
  H      -3.065161     -1.949762      0.108847
  H      -3.822444     -0.392397     -0.323984
  H      -2.074494     -0.431909      0.069554
  H       0.087382      3.809281      0.931251
  H       1.644438      3.940801      0.040102
  H       1.489630      4.627868      1.701059
  H      -0.124023      2.242598      2.973557
  H       1.294057      3.059779      3.734561
  H       1.296769      1.264016      3.493226
  H       3.649085      2.517231      0.778647
  H       3.513030      1.421487      2.180796
  H       3.539964      3.197328      2.435960
  Si      2.430626     -4.082152      0.477531
  C       3.390778     -5.555494     -0.246718
  C       3.259806     -3.506067      2.089363
  C       0.676648     -4.734029      0.921959
  H       4.456924     -5.302293     -0.414009
  H       2.963421     -5.876844     -1.218498
  H       3.348239     -6.419664      0.450185
  H       2.727918     -2.633870      2.522677
  H       4.312838     -3.204688      1.905701
  H       3.258175     -4.324204      2.840651
  H       0.000514     -3.915266      1.252537
  H       0.733854     -5.455057      1.766399
  H       0.226909     -5.287310      0.067275
  H       3.659968     -2.591641     -0.812108
  C       4.982806     -3.659521     -3.620158
  C       5.037535     -2.356658     -3.966879
  H       4.377678     -3.996585     -2.759346
  H       5.544770     -4.438384     -4.166419
  Si      6.045684     -1.628737     -5.386298
  H       4.441588     -1.656184     -3.344552
  C       6.988237     -3.006317     -6.286387
  C       7.266295     -0.356843     -4.684487
  C       4.873379     -0.749893     -6.595100
  H       7.689604     -3.529266     -5.604250
  H       7.583008     -2.588565     -7.124439
  H       6.297380     -3.763587     -6.710047
  H       7.981620     -0.834850     -3.984345
  H       6.734827      0.443376     -4.129089
  H       7.850454      0.125445     -5.495054
  H       4.147035     -1.460993     -7.038391
  H       5.438021     -0.277443     -7.425311
  H       4.297238      0.048681     -6.083333
  H      -0.110492     -3.031750     -3.806642
  H       1.826790     -0.974165      0.588719
71
Coordinates from ORCA-job my_molecule E -2465.711003585005
  Pt      2.134912     -2.352542     -1.002813
  O      -0.447074      1.173784      0.248282
  O       0.167268     -1.563073     -1.474092
  P       1.030819      1.095783      0.549320
  P      -1.103847     -2.247132     -2.023775
  O      -1.421370     -3.660038     -1.274625
  O      -0.994564     -2.625646     -3.614969
  O       1.947299      1.221328     -0.833669
  O       1.608501     -0.248145      1.265001
  C       1.648205      2.443269      1.658263
  C      -2.617436     -1.217625     -1.916082
  C      -3.779314     -1.967508     -2.601966
  C      -2.321095      0.129689     -2.606605
  C      -2.903298     -0.992079     -0.416950
  C       1.185988      3.782827      1.046441
  C       0.990891      2.225222      3.034987
  C       3.185013      2.381034      1.767195
  H      -0.791188     -3.847415     -0.541300
  H       1.322692      1.231913     -1.582410
  H      -3.590499     -2.131700     -3.681136
  H      -4.697920     -1.359255     -2.500592
  H      -3.970351     -2.945446     -2.129907
  H      -2.016263     -0.003308     -3.662936
  H      -1.534539      0.686175     -2.053621
  H      -3.244708      0.744816     -2.594876
  H      -3.071597     -1.949801      0.115494
  H      -3.828784     -0.389362     -0.328887
  H      -2.079531     -0.423625      0.066367
  H       0.083017      3.811272      0.933989
  H       1.641230      3.946688      0.049125
  H       1.496754      4.625699      1.704505
  H      -0.102104      2.221514      2.943651
  H       1.277623      3.034219      3.723907
  H       1.309357      1.272303      3.490619
  H       3.665299      2.513675      0.777284
  H       3.520762      1.407075      2.188026
  H       3.544784      3.192224      2.434935
  Si      2.433261     -4.079820      0.480233
  C       3.393526     -5.553070     -0.242660
  C       3.262842     -3.504903      2.088426
  C       0.681660     -4.732300      0.924540
  H       4.459559     -5.299375     -0.410375
  H       2.966568     -5.876023     -1.213795
  H       3.351575     -6.416432      0.455648
  H       2.733164     -2.632654      2.521524
  H       4.313206     -3.204138      1.903528
  H       3.262654     -4.323795      2.839627
  H       0.004933     -3.913968      1.255008
  H       0.740718     -5.452779      1.768975
  H       0.233430     -5.287273      0.071785
  H       3.661808     -2.591776     -0.812846
  C       4.985672     -3.658637     -3.618900
  C       5.040050     -2.355854     -3.966958
  H       4.380385     -3.995778     -2.757701
  H       5.548286     -4.437435     -4.164368
  Si      6.050072     -1.626842     -5.385429
  H       4.444166     -1.655372     -3.346084
  C       6.995681     -3.002738     -6.284824
  C       7.268897     -0.354005     -4.679901
  C       4.879268     -0.748289     -6.596636
  H       7.696260     -3.525372     -5.601165
  H       7.592307     -2.583408     -7.121796
  H       6.305992     -3.760794     -6.710969
  H       7.983169     -0.831686     -3.978279
  H       6.735583      0.445361     -4.124736
  H       7.855006      0.129992     -5.489450
  H       4.153680     -1.460072     -7.042541
  H       5.445710     -0.274242     -7.425914
  H       4.301231      0.049200     -6.084916
  H      -0.121824     -3.045431     -3.809916
  H       1.830888     -0.973849      0.586774
71
Coordinates from ORCA-job my_molecule E -2465.711144608830
  Pt      2.137484     -2.354456     -0.999620
  O      -0.452258      1.174462      0.248797
  O       0.171313     -1.561802     -1.481014
  P       1.031986      1.097455      0.554282
  P      -1.092321     -2.244467     -2.032279
  O      -1.406950     -3.659069     -1.279132
  O      -0.979277     -2.622873     -3.615540
  O       1.941109      1.221053     -0.828565
  O       1.604633     -0.240800      1.265823
  C       1.650474      2.442221      1.668033
  C      -2.606314     -1.218427     -1.931589
  C      -3.761890     -1.971738     -2.623487
  C      -2.315335      0.138099     -2.618145
  C      -2.897512     -0.998333     -0.431915
  C       1.192366      3.775083      1.058875
  C       0.993863      2.228377      3.046936
  C       3.182759      2.386401      1.776383
  H      -0.783811     -3.843131     -0.539373
  H       1.319252      1.229550     -1.577358
  H      -3.569261     -2.128799     -3.707960
  H      -4.689133     -1.366376     -2.521695
  H      -3.944604     -2.962396     -2.150018
  H      -2.005173      0.010635     -3.681121
  H      -1.533974      0.693393     -2.057307
  H      -3.244822      0.756070     -2.604904
  H      -3.062571     -1.963190      0.101954
  H      -3.827100     -0.397835     -0.346221
  H      -2.077472     -0.427659      0.055076
  H       0.091014      3.801023      0.943216
  H       1.644111      3.941405      0.068190
  H       1.502156      4.611408      1.719619
  H      -0.117591      2.235813      2.972913
  H       1.307683      3.048286      3.737262
  H       1.300816      1.256414      3.486805
  H       3.663495      2.516431      0.782315
  H       3.518066      1.419680      2.196619
  H       3.540704      3.200373      2.444118
  Si      2.434108     -4.078262      0.485044
  C       3.394910     -5.552728     -0.234211
  C       3.264293     -3.498597      2.090734
  C       0.682652     -4.729455      0.931350
  H       4.460329     -5.298561     -0.403554
  H       2.967453     -5.878099     -1.204056
  H       3.353990     -6.414332      0.465744
  H       2.733180     -2.624835      2.520819
  H       4.314502     -3.197975      1.904023
  H       3.264881     -4.314677      2.845341
  H       0.007212     -3.910216      1.260377
  H       0.741848     -5.448430      1.777707
  H       0.233606     -5.286390      0.081314
  H       3.663118     -2.594526     -0.805653
  C       4.982242     -3.662048     -3.616545
  C       5.034463     -2.358970     -3.965277
  H       4.379006     -3.999336     -2.753972
  H       5.543984     -4.440639     -4.163482
  Si      6.038450     -1.629721     -5.387142
  H       4.438587     -1.658291     -3.342809
  C       6.981214     -3.004960     -6.290048
  C       7.258469     -0.356561     -4.686591
  C       4.862573     -0.752403     -6.593211
  H       7.684708     -3.527223     -5.609449
  H       7.573802     -2.585396     -7.128978
  H       6.290651     -3.763182     -6.713038
  H       7.975547     -0.834072     -3.988038
  H       6.726671      0.442545     -4.129282
  H       7.840805      0.127612     -5.498260
  H       4.136349     -1.464635     -7.035596
  H       5.425110     -0.278502     -7.424478
  H       4.286040      0.044809     -6.079512
  H      -0.114615     -3.039091     -3.809708
  H       1.828258     -0.971879      0.582557
71
Coordinates from ORCA-job my_molecule E -2465.711100173829
  Pt      2.140007     -2.354155     -0.999849
  O      -0.447879      1.169350      0.248794
  O       0.177424     -1.557460     -1.486054
  P       1.035345      1.094522      0.558606
  P      -1.076270     -2.237284     -2.033523
  O      -1.391264     -3.646536     -1.288205
  O      -0.964416     -2.619492     -3.612630
  O       1.960582      1.219573     -0.820613
  O       1.603743     -0.248536      1.279632
  C       1.643139      2.440506      1.668464
  C      -2.596493     -1.214315     -1.929307
  C      -3.748186     -1.969044     -2.618418
  C      -2.301814      0.134366     -2.614772
  C      -2.887600     -0.992291     -0.425965
  C       1.186083      3.776894      1.042014
  C       0.973230      2.225722      3.047469
  C       3.174627      2.382086      1.786167
  H      -0.762560     -3.821761     -0.550858
  H       1.331438      1.228400     -1.576938
  H      -3.553110     -2.125267     -3.694466
  H      -4.675904     -1.367614     -2.516815
  H      -3.926225     -2.958985     -2.145544
  H      -1.993224      0.002142     -3.667797
  H      -1.525251      0.686248     -2.058395
  H      -3.220622      0.748337     -2.603465
  H      -3.055281     -1.948411      0.098865
  H      -3.815765     -0.388713     -0.333602
  H      -2.071456     -0.428860      0.061526
  H       0.087798      3.803707      0.912904
  H       1.653937      3.939115      0.043371
  H       1.479268      4.612725      1.697921
  H      -0.133198      2.227778      2.956904
  H       1.262402      3.046130      3.734331
  H       1.285020      1.262820      3.507747
  H       3.657037      2.512156      0.798571
  H       3.509743      1.418469      2.209688
  H       3.526475      3.191745      2.453564
  Si      2.433756     -4.078940      0.484325
  C       3.392402     -5.554608     -0.236525
  C       3.262805     -3.502103      2.093263
  C       0.681286     -4.726811      0.931607
  H       4.457874     -5.301430     -0.406691
  H       2.962587     -5.878539     -1.205840
  H       3.351396     -6.417165      0.462406
  H       2.731615     -2.630506      2.526210
  H       4.313258     -3.200822      1.907795
  H       3.263483     -4.319800      2.844585
  H       0.007175     -3.907557      1.261183
  H       0.739401     -5.445502      1.777115
  H       0.230297     -5.279884      0.081256
  H       3.663503     -2.597717     -0.802397
  C       4.977784     -3.662046     -3.619507
  C       5.031677     -2.358904     -3.965495
  H       4.375751     -3.999885     -2.756710
  H       5.536847     -4.440642     -4.168978
  Si      6.033185     -1.629939     -5.389223
  H       4.440036     -1.657645     -3.340276
  C       6.969399     -3.006971     -6.296067
  C       7.258645     -0.360576     -4.691991
  C       4.855247     -0.748085     -6.590736
  H       7.673469     -3.532205     -5.618631
  H       7.560491     -2.588481     -7.136242
  H       6.275802     -3.762451     -6.717705
  H       7.977192     -0.840265     -3.996560
  H       6.731223      0.439138     -4.132583
  H       7.838871      0.122847     -5.504623
  H       4.126323     -1.457665     -7.031630
  H       5.415487     -0.274319     -7.423037
  H       4.282024      0.049599     -6.075102
  H      -0.105902     -3.033519     -3.804480
  H       1.829141     -0.977416      0.594048
71
Coordinates from ORCA-job my_molecule E -2465.711113350949
  Pt      2.132931     -2.357857     -0.997755
  O      -0.448044      1.167726      0.252118
  O       0.174786     -1.556102     -1.490562
  P       1.024697      1.092968      0.552495
  P      -1.083220     -2.239432     -2.038115
  O      -1.392092     -3.649255     -1.293807
  O      -0.971008     -2.617590     -3.617602
  O       1.941078      1.215892     -0.824861
  O       1.598152     -0.250852      1.266840
  C       1.647039      2.444133      1.659955
  C      -2.601277     -1.219495     -1.926601
  C      -3.754866     -1.972574     -2.616757
  C      -2.310894      0.128766     -2.609321
  C      -2.891455     -1.002020     -0.426869
  C       1.191547      3.786070      1.055144
  C       0.989748      2.235699      3.034419
  C       3.188014      2.377005      1.762226
  H      -0.755819     -3.824305     -0.555394
  H       1.315486      1.219584     -1.579259
  H      -3.560001     -2.128826     -3.690249
  H      -4.681476     -1.373015     -2.515825
  H      -3.936475     -2.956087     -2.148892
  H      -2.003592      0.000525     -3.665117
  H      -1.530413      0.685235     -2.054474
  H      -3.237527      0.738369     -2.596510
  H      -3.056834     -1.959722      0.100115
  H      -3.821185     -0.403917     -0.335385
  H      -2.071928     -0.432683      0.058486
  H       0.085520      3.817775      0.948922
  H       1.647829      3.940101      0.054438
  H       1.509216      4.637015      1.709707
  H      -0.115520      2.240294      2.953619
  H       1.292296      3.053947      3.723047
  H       1.300902      1.275808      3.477677
  H       3.667689      2.503421      0.775249
  H       3.519561      1.403011      2.177561
  H       3.555358      3.193333      2.428624
  Si      2.429882     -4.082531      0.487177
  C       3.390378     -5.556326     -0.235532
  C       3.258219     -3.502607      2.097613
  C       0.676612     -4.733293      0.933218
  H       4.455900     -5.302435     -0.406244
  H       2.961304     -5.880754     -1.205566
  H       3.350510     -6.418270      0.463376
  H       2.725149     -2.629565      2.529237
  H       4.310254     -3.200168      1.914111
  H       3.257793     -4.319573      2.849761
  H      -0.000242     -3.914088      1.262381
  H       0.735868     -5.451658      1.779215
  H       0.225378     -5.289914      0.081316
  H       3.657496     -2.602211     -0.798510
  C       4.977385     -3.661481     -3.618834
  C       5.030292     -2.358402     -3.962957
  H       4.375120     -4.000985     -2.756640
  H       5.537621     -4.438818     -4.169591
  Si      6.035077     -1.625955     -5.383312
  H       4.436581     -1.659193     -3.337621
  C       6.976852     -2.999321     -6.291642
  C       7.257441     -0.355817     -4.678930
  C       4.859400     -0.743693     -6.585738
  H       7.679643     -3.524355     -5.612766
  H       7.570744     -2.577675     -7.129335
  H       6.284895     -3.755591     -6.717921
  H       7.974804     -0.836070     -3.982361
  H       6.726416      0.441742     -4.118299
  H       7.840401      0.130285     -5.489276
  H       4.132352     -1.454150     -7.031287
  H       5.422868     -0.266688     -7.415352
  H       4.282800      0.052029     -6.068145
  H      -0.103328     -3.033643     -3.818692
  H       1.824221     -0.978522      0.591948
71
Coordinates from ORCA-job my_molecule E -2465.711231232915
  Pt      2.143177     -2.351298     -0.997080
  O      -0.444636      1.169712      0.244766
  O       0.185564     -1.549032     -1.491422
  P       1.034582      1.092027      0.554345
  P      -1.084189     -2.239857     -2.038579
  O      -1.393625     -3.654130     -1.283047
  O      -0.974671     -2.620645     -3.627994
  O       1.952895      1.216070     -0.826845
  O       1.605626     -0.248103      1.273137
  C       1.646582      2.437332      1.668672
  C      -2.600696     -1.215510     -1.935416
  C      -3.759499     -1.967353     -2.626142
  C      -2.309294      0.138234     -2.621997
  C      -2.890462     -0.995947     -0.436115
  C       1.189136      3.771271      1.049661
  C       0.984402      2.221825      3.046057
  C       3.174742      2.381135      1.787564
  H      -0.773658     -3.836825     -0.542373
  H       1.333248      1.218268     -1.576644
  H      -3.569305     -2.126340     -3.710820
  H      -4.683113     -1.360614     -2.523350
  H      -3.946736     -2.950177     -2.155212
  H      -2.000681      0.010335     -3.678560
  H      -1.526649      0.695559     -2.063739
  H      -3.235715      0.752268     -2.610985
  H      -3.055579     -1.959465      0.097828
  H      -3.819836     -0.396100     -0.350604
  H      -2.068213     -0.424458      0.050447
  H       0.090035      3.797875      0.926214
  H       1.649035      3.937061      0.056721
  H       1.493966      4.610272      1.711256
  H      -0.118492      2.224368      2.960370
  H       1.285124      3.039261      3.737099
  H       1.293608      1.257370      3.494813
  H       3.658680      2.512018      0.795706
  H       3.508801      1.413936      2.215232
  H       3.525757      3.192762      2.456776
  Si      2.437054     -4.074988      0.491386
  C       3.396059     -5.551194     -0.226428
  C       3.267185     -3.496033      2.096892
  C       0.685788     -4.725333      0.939423
  H       4.461349     -5.297662     -0.398889
  H       2.966099     -5.878205     -1.194815
  H       3.356387     -6.411971      0.475669
  H       2.736018     -2.623266      2.526793
  H       4.316982     -3.194205      1.910493
  H       3.267974     -4.312629      2.851677
  H       0.009853     -3.906025      1.267854
  H       0.746345     -5.442607      1.787526
  H       0.235682     -5.284256      0.090651
  H       3.666862     -2.599465     -0.797201
  C       4.978674     -3.662831     -3.617142
  C       5.031810     -2.359269     -3.964540
  H       4.378067     -4.000946     -2.753117
  H       5.537005     -4.441426     -4.166985
  Si      6.031600     -1.629191     -5.388933
  H       4.440398     -1.658371     -3.339221
  C       6.967374     -3.004672     -6.297848
  C       7.257202     -0.360207     -4.690549
  C       4.852728     -0.746368     -6.589104
  H       7.672313     -3.530358     -5.620834
  H       7.557640     -2.584398     -7.138062
  H       6.273625     -3.760172     -6.719807
  H       7.976126     -0.840918     -3.995819
  H       6.729799      0.438663     -4.129514
  H       7.836907      0.124850     -5.503477
  H       4.123193     -1.455928     -7.030248
  H       5.412562     -0.271703     -7.421569
  H       4.280314      0.050736     -6.072019
  H      -0.104079     -3.043384     -3.821135
  H       1.831506     -0.976121      0.591241
71
Coordinates from ORCA-job my_molecule E -2465.711355007320
  Pt      2.142807     -2.356339     -0.991898
  O      -0.446104      1.170517      0.252344
  O       0.188910     -1.544966     -1.500102
  P       1.033730      1.093540      0.563554
  P      -1.070221     -2.236332     -2.044576
  O      -1.381556     -3.650130     -1.288746
  O      -0.958137     -2.628004     -3.622022
  O       1.955067      1.215695     -0.812361
  O       1.598822     -0.245200      1.282341
  C       1.644010      2.440372      1.672283
  C      -2.586065     -1.215406     -1.942191
  C      -3.733352     -1.973841     -2.638112
  C      -2.294683      0.138587     -2.624841
  C      -2.881727     -0.993929     -0.442104
  C       1.193099      3.776602      1.050601
  C       0.968153      2.231233      3.046247
  C       3.180374      2.374766      1.791275
  H      -0.753117     -3.813357     -0.545314
  H       1.334842      1.216371     -1.567996
  H      -3.535175     -2.130737     -3.716608
  H      -4.659965     -1.374261     -2.539374
  H      -3.913458     -2.964874     -2.168317
  H      -1.983807      0.008993     -3.688373
  H      -1.515944      0.694047     -2.062601
  H      -3.222692      0.754360     -2.610955
  H      -3.051154     -1.954657      0.080445
  H      -3.805868     -0.390134     -0.352623
  H      -2.067131     -0.428642      0.050591
  H       0.093143      3.808251      0.921897
  H       1.659735      3.938270      0.061299
  H       1.491571      4.609515      1.707543
  H      -0.136784      2.237098      2.952824
  H       1.258562      3.048085      3.733510
  H       1.275151      1.266626      3.504842
  H       3.668754      2.502877      0.805761
  H       3.510163      1.406812      2.211144
  H       3.538968      3.185159      2.458833
  Si      2.436662     -4.078262      0.494463
  C       3.393381     -5.555698     -0.226148
  C       3.266942     -3.495993      2.101363
  C       0.683605     -4.724182      0.943672
  H       4.458224     -5.303199     -0.400550
  H       2.960741     -5.882145     -1.193420
  H       3.354559     -6.416209      0.474550
  H       2.734535     -2.622839      2.532779
  H       4.317513     -3.194190      1.915107
  H       3.268521     -4.311864      2.854556
  H       0.009811     -3.903928      1.272086
  H       0.742918     -5.441218      1.791207
  H       0.230615     -5.281899      0.096332
  H       3.664012     -2.608144     -0.787961
  C       4.972559     -3.665943     -3.620328
  C       5.024863     -2.361677     -3.963066
  H       4.374181     -4.005743     -2.755546
  H       5.528646     -4.443354     -4.175205
  Si      6.019588     -1.628968     -5.389204
  H       4.435704     -1.661250     -3.333169
  C       6.953760     -3.002332     -6.305097
  C       7.246373     -0.360343     -4.693720
  C       4.835493     -0.745734     -6.581586
  H       7.661057     -3.528830     -5.632515
  H       7.541404     -2.580665     -7.146090
  H       6.259015     -3.757367     -6.726726
  H       7.968789     -0.841426     -4.003543
  H       6.719874      0.437073     -4.128684
  H       7.822830      0.126040     -5.507504
  H       4.106322     -1.455611     -7.022172
  H       5.392259     -0.268179     -7.414437
  H       4.262237      0.049454     -6.059821
  H      -0.098925     -3.043196     -3.817110
  H       1.827321     -0.975897      0.601353
71
Coordinates from ORCA-job my_molecule E -2465.711096855849
  Pt      2.138584     -2.355883     -0.994269
  O      -0.453624      1.165722      0.247505
  O       0.190534     -1.544934     -1.505185
  P       1.030510      1.088580      0.558064
  P      -1.059430     -2.230292     -2.047682
  O      -1.362174     -3.637127     -1.300303
  O      -0.949921     -2.610741     -3.628132
  O       1.959432      1.208107     -0.817373
  O       1.595854     -0.258438      1.282979
  C       1.646706      2.442101      1.668717
  C      -2.588837     -1.217000     -1.941490
  C      -3.737936     -1.974213     -2.633065
  C      -2.303749      0.136096     -2.623103
  C      -2.882463     -1.005854     -0.437532
  C       1.194596      3.778039      1.047753
  C       0.983186      2.236254      3.047512
  C       3.179697      2.383202      1.781115
  H      -0.740140     -3.813259     -0.558869
  H       1.334477      1.203826     -1.577336
  H      -3.540945     -2.123769     -3.707962
  H      -4.672293     -1.378292     -2.531404
  H      -3.908707     -2.967137     -2.161426
  H      -1.993878      0.011767     -3.672371
  H      -1.530483      0.689766     -2.065909
  H      -3.226234      0.742888     -2.612278
  H      -3.044012     -1.965624      0.089011
  H      -3.818820     -0.409815     -0.346416
  H      -2.067225     -0.436186      0.049977
  H       0.094875      3.803432      0.931420
  H       1.656976      3.928788      0.043797
  H       1.502676      4.631710      1.702518
  H      -0.122081      2.236072      2.961225
  H       1.280132      3.062824      3.734703
  H       1.292882      1.276978      3.502696
  H       3.661564      2.505953      0.790455
  H       3.510868      1.416671      2.204386
  H       3.538745      3.203149      2.447984
  Si      2.430219     -4.080647      0.494336
  C       3.388998     -5.557103     -0.224628
  C       3.259226     -3.502938      2.103596
  C       0.677551     -4.729203      0.943896
  H       4.454142     -5.303692     -0.398564
  H       2.957269     -5.883260     -1.192677
  H       3.350275     -6.418218      0.476814
  H       2.726454     -2.631715      2.534175
  H       4.310050     -3.200231      1.919059
  H       3.259198     -4.319533      2.857179
  H       0.001448     -3.909515      1.272130
  H       0.737973     -5.444458      1.792171
  H       0.225224     -5.286466      0.095516
  H       3.660562     -2.608736     -0.786535
  C       4.969494     -3.664655     -3.618434
  C       5.023237     -2.360726     -3.961918
  H       4.370653     -4.005278     -2.754230
  H       5.525634     -4.442135     -4.172422
  Si      6.021108     -1.626788     -5.386950
  H       4.434798     -1.660671     -3.333104
  C       6.954722     -2.999841     -6.302992
  C       7.249769     -0.360151     -4.686474
  C       4.839710     -0.739598     -6.582135
  H       7.659970     -3.528661     -5.628802
  H       7.545009     -2.576644     -7.142836
  H       6.259131     -3.753405     -6.727814
  H       7.970396     -0.843332     -3.995108
  H       6.724082      0.436687     -4.121112
  H       7.828247      0.127782     -5.499202
  H       4.109257     -1.448009     -7.025885
  H       5.398679     -0.260686     -7.413914
  H       4.267231      0.054899     -6.060250
  H      -0.089494     -3.027132     -3.822055
  H       1.824740     -0.986052      0.601551
71
Coordinates from ORCA-job my_molecule E -2465.711249457419
  Pt      2.145699     -2.351302     -0.992183
  O      -0.439736      1.165780      0.244368
  O       0.197363     -1.536441     -1.505970
  P       1.032309      1.093031      0.555388
  P      -1.061964     -2.230286     -2.047288
  O      -1.360334     -3.634721     -1.295885
  O      -0.950794     -2.611725     -3.629346
  O       1.956406      1.216609     -0.820886
  O       1.603130     -0.247634      1.277004
  C       1.638904      2.435744      1.670543
  C      -2.585466     -1.214020     -1.943099
  C      -3.740555     -1.967642     -2.635761
  C      -2.292659      0.134973     -2.625900
  C      -2.879876     -0.999446     -0.445360
  C       1.185686      3.773817      1.054110
  C       0.968781      2.218333      3.037808
  C       3.170305      2.371235      1.801754
  H      -0.734021     -3.806629     -0.553150
  H       1.334120      1.208737     -1.575390
  H      -3.545548     -2.126167     -3.714312
  H      -4.668763     -1.365744     -2.535457
  H      -3.927137     -2.947129     -2.166774
  H      -1.981851      0.007609     -3.676437
  H      -1.513607      0.692604     -2.069774
  H      -3.217694      0.742874     -2.617995
  H      -3.045477     -1.958999      0.084547
  H      -3.813012     -0.403143     -0.358088
  H      -2.059916     -0.427500      0.041222
  H       0.082590      3.807306      0.919012
  H       1.656171      3.943050      0.068354
  H       1.488771      4.607887      1.718398
  H      -0.141358      2.227355      2.945847
  H       1.271635      3.033123      3.731924
  H       1.274117      1.250376      3.480826
  H       3.660831      2.504925      0.819944
  H       3.500680      1.399691      2.231060
  H       3.518628      3.176525      2.472812
  Si      2.438572     -4.073290      0.499084
  C       3.393966     -5.551620     -0.219586
  C       3.270692     -3.492172      2.103928
  C       0.686349     -4.719137      0.951663
  H       4.458978     -5.299318     -0.396161
  H       2.959770     -5.879698     -1.185829
  H       3.356039     -6.411310      0.483300
  H       2.740721     -2.618471      2.534180
  H       4.320403     -3.190757      1.916673
  H       3.271725     -4.308276      2.858190
  H       0.010511     -3.898100      1.277910
  H       0.747991     -5.432926      1.801999
  H       0.232696     -5.280167      0.104983
  H       3.667303     -2.607490     -0.786258
  C       4.969203     -3.664794     -3.619521
  C       5.022433     -2.361491     -3.963431
  H       4.372565     -4.004391     -2.753956
  H       5.523281     -4.442699     -4.174824
  Si      6.016804     -1.631028     -5.391139
  H       4.436069     -1.660723     -3.334512
  C       6.945443     -3.006614     -6.306643
  C       7.248675     -0.366229     -4.696759
  C       4.833525     -0.744110     -6.583559
  H       7.652385     -3.534859     -5.634057
  H       7.532927     -2.586517     -7.148652
  H       6.247960     -3.759401     -6.726696
  H       7.970421     -0.849674     -4.006742
  H       6.725685      0.432185     -4.131526
  H       7.825280      0.119009     -5.511329
  H       4.100848     -1.451236     -7.022511
  H       5.390069     -0.268928     -7.417365
  H       4.264710      0.052638     -6.062390
  H      -0.077592     -3.034384     -3.824830
  H       1.831546     -0.973828      0.602589
71
Coordinates from ORCA-job my_molecule E -2465.711256803818
  Pt      2.147010     -2.356073     -0.989277
  O      -0.443034      1.166119      0.250915
  O       0.200454     -1.539103     -1.508159
  P       1.034250      1.087935      0.564724
  P      -1.068142     -2.236849     -2.051486
  O      -1.376428     -3.654829     -1.289165
  O      -0.958506     -2.629998     -3.634658
  O       1.955766      1.209332     -0.811363
  O       1.599010     -0.251054      1.285890
  C       1.644541      2.437877      1.674509
  C      -2.583139     -1.214597     -1.949231
  C      -3.731954     -1.970019     -2.647348
  C      -2.293963      0.142312     -2.631106
  C      -2.878984     -0.994990     -0.449701
  C       1.194644      3.772702      1.048382
  C       0.971088      2.231475      3.050028
  C       3.175944      2.376634      1.793168
  H      -0.753901     -3.821917     -0.542665
  H       1.339290      1.201916     -1.564460
  H      -3.534676     -2.127891     -3.728226
  H      -4.653289     -1.367247     -2.548745
  H      -3.917860     -2.956608     -2.180893
  H      -1.982846      0.017018     -3.697066
  H      -1.513615      0.699431     -2.067200
  H      -3.226221      0.757642     -2.616018
  H      -3.047490     -1.959117      0.075248
  H      -3.802769     -0.392437     -0.363622
  H      -2.062573     -0.427776      0.044284
  H       0.096244      3.802178      0.922546
  H       1.664104      3.928366      0.052269
  H       1.495454      4.617195      1.704475
  H      -0.127941      2.234298      2.958277
  H       1.263590      3.049537      3.738138
  H       1.277419      1.271314      3.506188
  H       3.664398      2.500956      0.803182
  H       3.505163      1.411779      2.218935
  H       3.531266      3.192917      2.460162
  Si      2.438620     -4.077858      0.501172
  C       3.394932     -5.556225     -0.217042
  C       3.268689     -3.496731      2.106293
  C       0.687097     -4.724048      0.951624
  H       4.459509     -5.303135     -0.393488
  H       2.961380     -5.884783     -1.183343
  H       3.357501     -6.415613      0.485956
  H       2.736382     -2.623358      2.535989
  H       4.318922     -3.194554      1.920207
  H       3.269856     -4.312304      2.860800
  H       0.013045     -3.903703      1.279061
  H       0.748758     -5.439086      1.800929
  H       0.233821     -5.285177      0.106889
  H       3.667235     -2.613433     -0.780267
  C       4.970121     -3.667440     -3.618757
  C       5.022204     -2.362454     -3.961150
  H       4.373717     -4.008430     -2.752531
  H       5.524269     -4.444461     -4.175672
  Si      6.013671     -1.627202     -5.389065
  H       4.435013     -1.662403     -3.328917
  C       6.944026     -2.999062     -6.310746
  C       7.243764     -0.360891     -4.693112
  C       4.826884     -0.739713     -6.576999
  H       7.652889     -3.527852     -5.640981
  H       7.529567     -2.575311     -7.152469
  H       6.247528     -3.752765     -6.732304
  H       7.967523     -0.844494     -4.005688
  H       6.719643      0.435561     -4.124387
  H       7.818402      0.127687     -5.507513
  H       4.095406     -1.447962     -7.017252
  H       5.381590     -0.260536     -7.410576
  H       4.256255      0.054809     -6.051900
  H      -0.095485     -3.050735     -3.827382
  H       1.829273     -0.981514      0.603779
71
Coordinates from ORCA-job my_molecule E -2465.711404389039
  Pt      2.145978     -2.355357     -0.990922
  O      -0.448366      1.168355      0.243597
  O       0.205921     -1.532281     -1.520116
  P       1.033771      1.090011      0.560560
  P      -1.052726     -2.224844     -2.060386
  O      -1.350049     -3.638458     -1.308870
  O      -0.946554     -2.607571     -3.641570
  O       1.964044      1.206507     -0.810559
  O       1.596862     -0.251546      1.282550
  C       1.644207      2.439552      1.673302
  C      -2.579732     -1.215313     -1.950707
  C      -3.730460     -1.976392     -2.641677
  C      -2.297409      0.139116     -2.632392
  C      -2.869550     -1.001680     -0.446717
  C       1.196906      3.774146      1.053189
  C       0.964804      2.233543      3.046018
  C       3.181972      2.373316      1.797508
  H      -0.726731     -3.811821     -0.568036
  H       1.346448      1.193946     -1.569352
  H      -3.535725     -2.123118     -3.722358
  H      -4.669290     -1.386176     -2.536698
  H      -3.895972     -2.973182     -2.168705
  H      -1.986981      0.013433     -3.686164
  H      -1.523518      0.700247     -2.074571
  H      -3.223081      0.744083     -2.621080
  H      -3.028639     -1.962613      0.081019
  H      -3.806364     -0.412214     -0.355541
  H      -2.053247     -0.428580      0.039802
  H       0.100475      3.802834      0.918584
  H       1.663661      3.936179      0.068627
  H       1.495726      4.606653      1.714473
  H      -0.139197      2.238639      2.949159
  H       1.255276      3.051600      3.734358
  H       1.269144      1.268829      3.506883
  H       3.673498      2.497663      0.812302
  H       3.508312      1.405107      2.220067
  H       3.541928      3.190315      2.467002
  Si      2.434430     -4.074346      0.501691
  C       3.392114     -5.553631     -0.213949
  C       3.263215     -3.493146      2.111034
  C       0.680032     -4.719671      0.951292
  H       4.456716     -5.301242     -0.391142
  H       2.958258     -5.883384     -1.179896
  H       3.354809     -6.411639      0.489960
  H       2.729869     -2.619129      2.540066
  H       4.315507     -3.192326      1.926543
  H       3.262240     -4.307866      2.866581
  H       0.002388     -3.898952      1.275144
  H       0.740593     -5.429884      1.804193
  H       0.228424     -5.283146      0.105863
  H       3.664909     -2.615133     -0.777057
  C       4.967701     -3.668517     -3.618844
  C       5.019803     -2.364304     -3.960726
  H       4.371897     -4.009327     -2.752626
  H       5.521224     -4.445666     -4.176632
  Si      6.010306     -1.629280     -5.389335
  H       4.434367     -1.664506     -3.328190
  C       6.939774     -3.000983     -6.312483
  C       7.241569     -0.363588     -4.694362
  C       4.822432     -0.741579     -6.575658
  H       7.648793     -3.530202     -5.643632
  H       7.525157     -2.576990     -7.154477
  H       6.242500     -3.754229     -6.734304
  H       7.965945     -0.847191     -4.007929
  H       6.717995      0.432689     -4.125008
  H       7.815675      0.124857     -5.509116
  H       4.090632     -1.449703     -7.015927
  H       5.376734     -0.261696     -7.409392
  H       4.251566      0.052430     -6.049323
  H      -0.088139     -3.024514     -3.836262
  H       1.829534     -0.983884      0.603416
71
Coordinates from ORCA-job my_molecule E -2465.711334421226
  Pt      2.146661     -2.353863     -0.987009
  O      -0.445789      1.161328      0.245201
  O       0.208357     -1.531577     -1.519786
  P       1.031208      1.086996      0.561818
  P      -1.040408     -2.226321     -2.058120
  O      -1.334764     -3.632359     -1.306634
  O      -0.930667     -2.611335     -3.636361
  O       1.963386      1.209620     -0.811198
  O       1.594697     -0.257625      1.289403
  C       1.638944      2.432585      1.675140
  C      -2.569319     -1.212649     -1.954915
  C      -3.713410     -1.970760     -2.651696
  C      -2.283268      0.141513     -2.636153
  C      -2.868633     -1.001022     -0.455021
  C       1.191859      3.771843      1.051003
  C       0.966613      2.221018      3.044400
  C       3.166577      2.369302      1.806326
  H      -0.709069     -3.796182     -0.561688
  H       1.340892      1.195877     -1.571973
  H      -3.512676     -2.129902     -3.723997
  H      -4.638364     -1.370347     -2.556151
  H      -3.897486     -2.954280     -2.184456
  H      -1.970272      0.018157     -3.691195
  H      -1.510666      0.699041     -2.076870
  H      -3.213353      0.748476     -2.626584
  H      -3.031292     -1.962816      0.070381
  H      -3.803746     -0.404350     -0.367175
  H      -2.055603     -0.431057      0.035122
  H       0.088697      3.804973      0.921864
  H       1.666560      3.927358      0.053910
  H       1.495904      4.621076      1.708555
  H      -0.143217      2.229053      2.951062
  H       1.267773      3.041579      3.736465
  H       1.270068      1.254445      3.493220
  H       3.657441      2.496952      0.823360
  H       3.494986      1.401464      2.239833
  H       3.511898      3.177737      2.474574
  Si      2.437263     -4.073950      0.507726
  C       3.392776     -5.553134     -0.208936
  C       3.266664     -3.491441      2.113563
  C       0.685576     -4.717730      0.960909
  H       4.456960     -5.300281     -0.388127
  H       2.956955     -5.883152     -1.173360
  H       3.356945     -6.411555      0.495466
  H       2.734661     -2.619301      2.543132
  H       4.315610     -3.188432      1.927738
  H       3.268449     -4.306988      2.867255
  H       0.010632     -3.896502      1.285245
  H       0.747542     -5.429310      1.812606
  H       0.230837     -5.279418      0.117054
  H       3.665969     -2.614818     -0.772075
  C       4.961245     -3.666429     -3.617966
  C       5.013497     -2.362458     -3.959754
  H       4.367911     -4.007920     -2.750661
  H       5.512325     -4.443436     -4.177319
  Si      6.000809     -1.629312     -5.391129
  H       4.430528     -1.661870     -3.326346
  C       6.922543     -3.003399     -6.315871
  C       7.237787     -0.367718     -4.700467
  C       4.811607     -0.737579     -6.574236
  H       7.632282     -3.535064     -5.648980
  H       7.506100     -2.581283     -7.159626
  H       6.221946     -3.753775     -6.734869
  H       7.963061     -0.853804     -4.016168
  H       6.719150      0.429483     -4.129975
  H       7.809876      0.119377     -5.516784
  H       4.076226     -1.442796     -7.011608
  H       5.363617     -0.259719     -7.409587
  H       4.246036      0.057644     -6.047587
  H      -0.065256     -3.032007     -3.833142
  H       1.825659     -0.982620      0.611312
71
Coordinates from ORCA-job my_molecule E -2465.711522257050
  Pt      2.147976     -2.354892     -0.985562
  O      -0.440203      1.161838      0.245809
  O       0.213857     -1.524925     -1.526156
  P       1.032394      1.083090      0.561348
  P      -1.048339     -2.227584     -2.061867
  O      -1.345328     -3.639171     -1.302959
  O      -0.942332     -2.619372     -3.643574
  O       1.958033      1.203558     -0.810496
  O       1.591976     -0.259729      1.284208
  C       1.642443      2.433270      1.673076
  C      -2.569487     -1.217262     -1.954644
  C      -3.721356     -1.976270     -2.649630
  C      -2.285922      0.137812     -2.634932
  C      -2.863972     -1.000810     -0.457041
  C       1.198792      3.771410      1.047188
  C       0.966057      2.229682      3.044645
  C       3.173308      2.368259      1.798875
  H      -0.723326     -3.793363     -0.552447
  H       1.343066      1.187112     -1.568588
  H      -3.528304     -2.122948     -3.736718
  H      -4.657138     -1.381081     -2.541240
  H      -3.895515     -2.965094     -2.184266
  H      -1.974274      0.012641     -3.688275
  H      -1.512368      0.701611     -2.075060
  H      -3.213729      0.741899     -2.626099
  H      -3.029698     -1.961959      0.063736
  H      -3.789211     -0.402488     -0.368065
  H      -2.049146     -0.431442      0.035334
  H       0.096962      3.806036      0.911538
  H       1.677192      3.929628      0.055486
  H       1.499473      4.613669      1.706944
  H      -0.135709      2.233916      2.950405
  H       1.260971      3.050917      3.734678
  H       1.268936      1.271535      3.497781
  H       3.667203      2.491956      0.812546
  H       3.498055      1.398979      2.227653
  H       3.525620      3.182125      2.467163
  Si      2.436177     -4.075175      0.508455
  C       3.389743     -5.555925     -0.207886
  C       3.267034     -3.491932      2.113240
  C       0.683545     -4.717906      0.962606
  H       4.454308     -5.304037     -0.387905
  H       2.953461     -5.886180     -1.172474
  H       3.353308     -6.413985      0.497255
  H       2.734421     -2.618110      2.540915
  H       4.317138     -3.189788      1.927055
  H       3.267465     -4.306266      2.869297
  H       0.010937     -3.896613      1.289839
  H       0.745514     -5.431176      1.813404
  H       0.226125     -5.278927      0.119596
  H       3.665513     -2.621760     -0.767356
  C       4.961221     -3.668734     -3.619538
  C       5.014322     -2.363312     -3.958827
  H       4.367945     -4.011463     -2.752132
  H       5.511516     -4.445031     -4.180911
  Si      6.002208     -1.625685     -5.388420
  H       4.431454     -1.663811     -3.323093
  C       6.926283     -2.995896     -6.317988
  C       7.237693     -0.364193     -4.692246
  C       4.813287     -0.731775     -6.569423
  H       7.635593     -3.529136     -5.651749
  H       7.511074     -2.569694     -7.159962
  H       6.226283     -3.746266     -6.741009
  H       7.962986     -0.851872     -4.009078
  H       6.717434      0.430696     -4.118554
  H       7.810579      0.126754     -5.507301
  H       4.079291     -1.437720     -7.011259
  H       5.366676     -0.249008     -7.402824
  H       4.245340      0.060579     -6.038902
  H      -0.073513     -3.039427     -3.838736
  H       1.824989     -0.986527      0.607207
71
Coordinates from ORCA-job my_molecule E -2465.711309731309
  Pt      2.152916     -2.353431     -0.984530
  O      -0.443893      1.163788      0.243745
  O       0.222205     -1.520382     -1.532005
  P       1.034703      1.085000      0.565551
  P      -1.042315     -2.223086     -2.069957
  O      -1.333661     -3.637217     -1.310641
  O      -0.936000     -2.612550     -3.653013
  O       1.967895      1.203978     -0.804715
  O       1.592172     -0.256190      1.293225
  C       1.644164      2.433039      1.678854
  C      -2.571869     -1.213323     -1.965241
  C      -3.713963     -1.973032     -2.664171
  C      -2.293035      0.145823     -2.644486
  C      -2.868938     -1.003863     -0.461821
  C       1.201259      3.766042      1.054017
  C       0.959081      2.227294      3.049035
  C       3.181211      2.364391      1.807249
  H      -0.718532     -3.804768     -0.560370
  H       1.355580      1.181476     -1.563952
  H      -3.512343     -2.126614     -3.735669
  H      -4.637042     -1.378145     -2.568894
  H      -3.892901     -2.961608     -2.200217
  H      -1.978486      0.026283     -3.705182
  H      -1.519375      0.707075     -2.080177
  H      -3.229073      0.751819     -2.632394
  H      -3.027394     -1.970777      0.069713
  H      -3.807764     -0.411750     -0.373920
  H      -2.050707     -0.428777      0.028981
  H       0.108337      3.795053      0.917610
  H       1.668690      3.925363      0.070696
  H       1.499470      4.598757      1.715699
  H      -0.142991      2.233925      2.945554
  H       1.244840      3.043343      3.737617
  H       1.260225      1.262096      3.514047
  H       3.673326      2.488962      0.824165
  H       3.504812      1.396461      2.228584
  H       3.544015      3.179774      2.478609
  Si      2.439321     -4.069721      0.513494
  C       3.395253     -5.551577     -0.199579
  C       3.269661     -3.483281      2.120931
  C       0.684769     -4.713954      0.966932
  H       4.459252     -5.299188     -0.381104
  H       2.958741     -5.884419     -1.163489
  H       3.360490     -6.407555      0.507286
  H       2.734503     -2.608825      2.547729
  H       4.322123     -3.180488      1.935363
  H       3.270081     -4.296067      2.879449
  H       0.007623     -3.892264      1.290152
  H       0.747484     -5.422768      1.822190
  H       0.230429     -5.281904      0.124268
  H       3.669953     -2.620336     -0.763082
  C       4.962185     -3.669818     -3.617992
  C       5.013664     -2.364868     -3.958502
  H       4.370723     -4.011970     -2.749307
  H       5.511898     -4.446559     -4.180087
  Si      5.996333     -1.628543     -5.391384
  H       4.431741     -1.664894     -3.321928
  C       6.918696     -2.999451     -6.322694
  C       7.232728     -0.365664     -4.701343
  C       4.801747     -0.737493     -6.568411
  H       7.631046     -3.531268     -5.659285
  H       7.499468     -2.574439     -7.166759
  H       6.218301     -3.750588     -6.741967
  H       7.961030     -0.851650     -4.020549
  H       6.713390      0.429783     -4.126844
  H       7.801928      0.124027     -5.518314
  H       4.067342     -1.444055     -7.005738
  H       5.350935     -0.256311     -7.403991
  H       4.234424      0.055667     -6.037181
  H      -0.074802     -3.032950     -3.846277
  H       1.827236     -0.987588      0.608509
71
Coordinates from ORCA-job my_molecule E -2465.711635059011
  Pt      2.151889     -2.352848     -0.983042
  O      -0.445510      1.163981      0.241927
  O       0.222418     -1.515939     -1.537212
  P       1.033902      1.086181      0.566099
  P      -1.031621     -2.219995     -2.071028
  O      -1.322413     -3.630784     -1.310852
  O      -0.923591     -2.612733     -3.648513
  O       1.973571      1.203898     -0.801603
  O       1.591926     -0.254479      1.295512
  C       1.637682      2.431218      1.679958
  C      -2.560161     -1.211845     -1.968089
  C      -3.702680     -1.977963     -2.665822
  C      -2.276670      0.144014     -2.649155
  C      -2.858698     -0.998452     -0.466786
  C       1.196042      3.766188      1.053619
  C       0.954337      2.224202      3.046005
  C       3.168968      2.362528      1.818099
  H      -0.701940     -3.787799     -0.562875
  H       1.359337      1.179882     -1.562841
  H      -3.501518     -2.124866     -3.744642
  H      -4.641092     -1.389060     -2.566029
  H      -3.870249     -2.975338     -2.194973
  H      -1.961281      0.018709     -3.706633
  H      -1.506169      0.707868     -2.086494
  H      -3.207323      0.748777     -2.640973
  H      -3.022391     -1.960528      0.055251
  H      -3.791447     -0.403378     -0.377961
  H      -2.047422     -0.427980      0.026656
  H       0.098390      3.797928      0.922643
  H       1.669435      3.917942      0.062429
  H       1.496997      4.612409      1.710784
  H      -0.152382      2.234417      2.943894
  H       1.248652      3.039898      3.737092
  H       1.253281      1.255498      3.503054
  H       3.667778      2.485216      0.834938
  H       3.492458      1.395575      2.253154
  H       3.516653      3.175480      2.486173
  Si      2.439175     -4.070029      0.516094
  C       3.390382     -5.553421     -0.199183
  C       3.272787     -3.486605      2.118542
  C       0.687304     -4.708908      0.974593
  H       4.454274     -5.302250     -0.381752
  H       2.951175     -5.885122     -1.161737
  H       3.355464     -6.410015      0.506857
  H       2.742689     -2.613016      2.548624
  H       4.321199     -3.184923      1.929554
  H       3.275885     -4.301134      2.872746
  H       0.013557     -3.886002      1.298232
  H       0.751193     -5.416885      1.828627
  H       0.229755     -5.274165      0.135501
  H       3.667837     -2.623539     -0.760552
  C       4.955256     -3.669901     -3.619658
  C       5.007786     -2.364888     -3.958205
  H       4.364932     -4.012537     -2.750599
  H       5.502771     -4.446514     -4.183895
  Si      5.989183     -1.628732     -5.392134
  H       4.429162     -1.664773     -3.320332
  C       6.905542     -3.000916     -6.326067
  C       7.230411     -0.370107     -4.703700
  C       4.794568     -0.732985     -6.566115
  H       7.617958     -3.535290     -5.664710
  H       7.485415     -2.576819     -7.170959
  H       6.202439     -3.749477     -6.744172
  H       7.958791     -0.858701     -4.024774
  H       6.714828      0.425979     -4.127717
  H       7.798890      0.118986     -5.521173
  H       4.057202     -1.436610     -7.002038
  H       5.342572     -0.252715     -7.402426
  H       4.231139      0.061061     -6.033787
  H      -0.064059     -3.030766     -3.843203
  H       1.827693     -0.982855      0.619841
71
Coordinates from ORCA-job my_molecule E -2465.711449271494
  Pt      2.151469     -2.357353     -0.980572
  O      -0.440623      1.154338      0.245709
  O       0.228680     -1.519934     -1.540233
  P       1.031935      1.076885      0.565350
  P      -1.024214     -2.222639     -2.074372
  O      -1.312139     -3.630610     -1.317531
  O      -0.916413     -2.613954     -3.654115
  O       1.962893      1.196139     -0.803161
  O       1.587542     -0.268003      1.293895
  C       1.641217      2.431322      1.677885
  C      -2.554488     -1.216078     -1.968253
  C      -3.701854     -1.972584     -2.668609
  C      -2.274001      0.140031     -2.643729
  C      -2.855730     -1.008211     -0.469905
  C       1.203570      3.773612      1.046086
  C       0.959967      2.231492      3.049999
  C       3.170521      2.365787      1.809062
  H      -0.694974     -3.785459     -0.563386
  H       1.346759      1.166083     -1.565382
  H      -3.505466     -2.126761     -3.751291
  H      -4.629969     -1.373129     -2.564856
  H      -3.885588     -2.953074     -2.207659
  H      -1.958164      0.020887     -3.694120
  H      -1.506327      0.700511     -2.081045
  H      -3.204575      0.740764     -2.636203
  H      -3.018524     -1.971232      0.051743
  H      -3.787456     -0.413932     -0.384077
  H      -2.044208     -0.436830      0.023950
  H       0.097766      3.813669      0.898558
  H       1.690080      3.932983      0.058533
  H       1.500698      4.610844      1.708016
  H      -0.141430      2.234433      2.954519
  H       1.255788      3.060057      3.740110
  H       1.260752      1.276568      3.504891
  H       3.664594      2.486437      0.825378
  H       3.492628      1.398766      2.239728
  H       3.522274      3.181078      2.478080
  Si      2.437047     -4.074950      0.518691
  C       3.389751     -5.557580     -0.195267
  C       3.268341     -3.489852      2.124089
  C       0.683767     -4.715313      0.976519
  H       4.453724     -5.305431     -0.378968
  H       2.951132     -5.890137     -1.158001
  H       3.355812     -6.414005      0.512196
  H       2.735009     -2.616013      2.550203
  H       4.319404     -3.187305      1.938361
  H       3.268150     -4.302913      2.882282
  H       0.010586     -3.892443      1.300738
  H       0.747148     -5.424182      1.831101
  H       0.224489     -5.280190      0.135996
  H       3.667056     -2.629268     -0.753790
  C       4.952351     -3.671532     -3.618861
  C       5.004362     -2.365785     -3.956163
  H       4.363359     -4.016018     -2.749282
  H       5.499003     -4.447026     -4.184668
  Si      5.984603     -1.625389     -5.389910
  H       4.425429     -1.666786     -3.316382
  C       6.902205     -2.993872     -6.328779
  C       7.225247     -0.366519     -4.696956
  C       4.789233     -0.727062     -6.561993
  H       7.614724     -3.530026     -5.668081
  H       7.482863     -2.565266     -7.172790
  H       6.199102     -3.742358     -6.750722
  H       7.954217     -0.856717     -4.019321
  H       6.709004      0.426954     -4.117884
  H       7.793768      0.126711     -5.513952
  H       4.052258     -1.431435     -7.002324
  H       5.338141     -0.241601     -7.397194
  H       4.224525      0.063744     -6.025886
  H      -0.048172     -3.035391     -3.849426
  H       1.823685     -0.994696      0.615522
71
Coordinates from ORCA-job my_molecule E -2465.711775894420
  Pt      2.156360     -2.353218     -0.978726
  O      -0.438308      1.160546      0.241290
  O       0.238829     -1.500715     -1.551027
  P       1.034357      1.080523      0.567497
  P      -1.020324     -2.213184     -2.079020
  O      -1.302782     -3.622895     -1.317428
  O      -0.917537     -2.609425     -3.659402
  O       1.971145      1.197906     -0.797793
  O       1.585966     -0.262858      1.298320
  C       1.637069      2.429990      1.680687
  C      -2.551196     -1.212516     -1.972028
  C      -3.692209     -1.978739     -2.669731
  C      -2.276604      0.147004     -2.649823
  C      -2.849983     -1.005939     -0.473842
  C       1.199250      3.764100      1.049292
  C       0.945441      2.228126      3.046423
  C       3.168377      2.360206      1.820618
  H      -0.681804     -3.773086     -0.564607
  H       1.361720      1.164819     -1.562362
  H      -3.493064     -2.124056     -3.748072
  H      -4.627762     -1.390905     -2.567493
  H      -3.861406     -2.970493     -2.206057
  H      -1.962194      0.027654     -3.704350
  H      -1.507831      0.714041     -2.088437
  H      -3.210739      0.745201     -2.641210
  H      -3.007199     -1.972454      0.051310
  H      -3.785624     -0.417182     -0.386411
  H      -2.037498     -0.429104      0.017509
  H       0.103015      3.796232      0.913942
  H       1.677145      3.913613      0.057513
  H       1.496572      4.609498      1.706888
  H      -0.158375      2.237121      2.939656
  H       1.232629      3.047091      3.736702
  H       1.242608      1.265268      3.508345
  H       3.669825      2.482748      0.840358
  H       3.488021      1.391161      2.252527
  H       3.519009      3.172471      2.490842
  Si      2.439881     -4.069539      0.521883
  C       3.386971     -5.555616     -0.193177
  C       3.274527     -3.484818      2.125516
  C       0.686004     -4.705291      0.982954
  H       4.451284     -5.307104     -0.379239
  H       2.944953     -5.887711     -1.154481
  H       3.352034     -6.411367      0.514494
  H       2.743498     -2.608473      2.552292
  H       4.326140     -3.185232      1.938014
  H       3.273586     -4.297726      2.883629
  H       0.013949     -3.881337      1.305940
  H       0.749498     -5.412418      1.839250
  H       0.224986     -5.272147      0.144955
  H       3.669530     -2.634153     -0.749862
  C       4.950197     -3.673538     -3.622418
  C       5.004324     -2.367188     -3.957233
  H       4.362413     -4.017535     -2.752096
  H       5.493548     -4.449621     -4.191035
  Si      5.981880     -1.627925     -5.392324
  H       4.428910     -1.667687     -3.314609
  C       6.893472     -2.997881     -6.334516
  C       7.226777     -0.372974     -4.703128
  C       4.784866     -0.726625     -6.559096
  H       7.607063     -3.535743     -5.677080
  H       7.471812     -2.570799     -7.179718
  H       6.187840     -3.744259     -6.753834
  H       7.956764     -0.865095     -4.028418
  H       6.713866      0.421424     -4.122211
  H       7.793522      0.118831     -5.521057
  H       4.045646     -1.428685     -6.996614
  H       5.331630     -0.242623     -7.395264
  H       4.223406      0.065411     -6.021185
  H      -0.049993     -3.030128     -3.852169
  H       1.824627     -0.989729      0.622025
71
Coordinates from ORCA-job my_molecule E -2465.711464274350
  Pt      2.153662     -2.350049     -0.978995
  O      -0.447208      1.163328      0.237972
  O       0.241128     -1.505066     -1.559855
  P       1.031084      1.082127      0.570134
  P      -1.012985     -2.216592     -2.091715
  O      -1.291884     -3.631405     -1.327380
  O      -0.904915     -2.612896     -3.668961
  O       1.982486      1.197281     -0.791172
  O       1.577041     -0.262980      1.304834
  C       1.642184      2.423461      1.688498
  C      -2.550085     -1.215921     -1.988191
  C      -3.690486     -1.985900     -2.689377
  C      -2.278402      0.141329     -2.668816
  C      -2.849057     -1.000107     -0.481202
  C       1.212700      3.763013      1.062108
  C       0.956372      2.217962      3.048302
  C       3.173879      2.347015      1.835240
  H      -0.686359     -3.780071     -0.572026
  H       1.375737      1.161465     -1.554404
  H      -3.490150     -2.140103     -3.768180
  H      -4.625022     -1.396608     -2.591272
  H      -3.857541     -2.979124     -2.219719
  H      -1.962886      0.018418     -3.730116
  H      -1.508942      0.709332     -2.101996
  H      -3.215388      0.741276     -2.658425
  H      -3.011069     -1.958675      0.033741
  H      -3.783375     -0.403035     -0.390212
  H      -2.041760     -0.432283      0.019066
  H       0.112832      3.803728      0.916318
  H       1.691116      3.920458      0.083080
  H       1.518272      4.598737      1.726576
  H      -0.147659      2.231199      2.940422
  H       1.255314      3.032048      3.741976
  H       1.248415      1.250085      3.503886
  H       3.676476      2.466619      0.854125
  H       3.489390      1.377402      2.269841
  H       3.526641      3.160598      2.506873
  Si      2.438560     -4.059916      0.528748
  C       3.390045     -5.546720     -0.180655
  C       3.274063     -3.470160      2.130078
  C       0.685805     -4.696513      0.992537
  H       4.452856     -5.295695     -0.368254
  H       2.949008     -5.883253     -1.140721
  H       3.358277     -6.399055      0.529616
  H       2.741022     -2.595767      2.556266
  H       4.322695     -3.167695      1.939585
  H       3.278791     -4.280071      2.889093
  H       0.010355     -3.872065      1.313074
  H       0.752329     -5.397772      1.851751
  H       0.226243     -5.268371      0.157834
  H       3.666814     -2.627941     -0.744326
  C       4.947709     -3.670524     -3.618620
  C       4.998834     -2.365622     -3.955782
  H       4.361794     -4.014495     -2.747100
  H       5.492023     -4.446388     -4.186993
  Si      5.971944     -1.627098     -5.393577
  H       4.423791     -1.666578     -3.313223
  C       6.886714     -2.996085     -6.334926
  C       7.214096     -0.367271     -4.710118
  C       4.769011     -0.733323     -6.558922
  H       7.603250     -3.530146     -5.678689
  H       7.461770     -2.569734     -7.181659
  H       6.183037     -3.744973     -6.750896
  H       7.947212     -0.854911     -4.036280
  H       6.699517      0.426697     -4.130066
  H       7.777508      0.123483     -5.529629
  H       4.031822     -1.438000     -6.992204
  H       5.311877     -0.250559     -7.396786
  H       4.205403      0.058264     -6.022089
  H      -0.048346     -3.030794     -3.866921
  H       1.818929     -0.993770      0.620965
71
Coordinates from ORCA-job my_molecule E -2465.711698523021
  Pt      2.157945     -2.356795     -0.971599
  O      -0.445188      1.154872      0.244201
  O       0.247718     -1.497494     -1.562226
  P       1.031988      1.075973      0.573654
  P      -1.002130     -2.214578     -2.088003
  O      -1.280473     -3.622690     -1.318166
  O      -0.893683     -2.617098     -3.662613
  O       1.979933      1.187945     -0.787430
  O       1.582916     -0.261372      1.313102
  C       1.631645      2.431485      1.685446
  C      -2.535120     -1.211032     -1.988889
  C      -3.669510     -1.978794     -2.694547
  C      -2.255239      0.147952     -2.664016
  C      -2.841359     -1.003561     -0.488334
  C       1.199789      3.769466      1.047291
  C       0.936802      2.237164      3.055068
  C       3.161128      2.361064      1.827484
  H      -0.660845     -3.772928     -0.565784
  H       1.372310      1.140261     -1.552007
  H      -3.462792     -2.127080     -3.771748
  H      -4.606065     -1.390104     -2.599160
  H      -3.840038     -2.973973     -2.227768
  H      -1.931346      0.026058     -3.718662
  H      -1.494672      0.715363     -2.095263
  H      -3.189740      0.748963     -2.662556
  H      -3.000146     -1.970918      0.039872
  H      -3.781119     -0.416787     -0.407121
  H      -2.032957     -0.421929      0.006332
  H       0.100464      3.808778      0.897586
  H       1.686848      3.922484      0.065236
  H       1.493330      4.607159      1.706763
  H      -0.164242      2.245162      2.948134
  H       1.224626      3.061480      3.743918
  H       1.231584      1.273769      3.521607
  H       3.662594      2.475528      0.844620
  H       3.478744      1.397261      2.263640
  H       3.511530      3.180151      2.495007
  Si      2.441429     -4.073915      0.532807
  C       3.382962     -5.562700     -0.184546
  C       3.282975     -3.491747      2.129541
  C       0.690385     -4.703911      1.003097
  H       4.446623     -5.314814     -0.373713
  H       2.936894     -5.894389     -1.144125
  H       3.349603     -6.418619      0.523217
  H       2.758468     -2.616780      2.560352
  H       4.330269     -3.192177      1.936748
  H       3.286306     -4.305836      2.883766
  H       0.021279     -3.877144      1.325632
  H       0.757946     -5.407052      1.860801
  H       0.224626     -5.273270      0.171523
  H       3.669409     -2.644257     -0.738396
  C       4.938234     -3.676670     -3.623899
  C       4.992381     -2.369309     -3.955381
  H       4.354238     -4.022855     -2.751615
  H       5.477570     -4.452046     -4.197792
  Si      5.963714     -1.625835     -5.393427
  H       4.421898     -1.670449     -3.308735
  C       6.864666     -2.994741     -6.347292
  C       7.217281     -0.377787     -4.704771
  C       4.762607     -0.714029     -6.550361
  H       7.578995     -3.540165     -5.695131
  H       7.441215     -2.564519     -7.192873
  H       6.153586     -3.735902     -6.768536
  H       7.949436     -0.876020     -4.035998
  H       6.710842      0.415906     -4.117018
  H       7.780630      0.116798     -5.523730
  H       4.018789     -1.412102     -6.988349
  H       5.305620     -0.226157     -7.387188
  H       4.206417      0.076604     -6.005153
  H      -0.033609     -3.034746     -3.857673
  H       1.825400     -0.987322      0.647241
71
Coordinates from ORCA-job my_molecule E -2465.711566510492
  Pt      2.166393     -2.355753     -0.971375
  O      -0.434187      1.151674      0.245856
  O       0.261581     -1.492276     -1.565409
  P       1.033994      1.075218      0.577168
  P      -0.997514     -2.207785     -2.089702
  O      -1.280248     -3.611142     -1.324957
  O      -0.894081     -2.611689     -3.670094
  O       1.971703      1.192638     -0.785571
  O       1.584499     -0.265130      1.315156
  C       1.629854      2.428225      1.687914
  C      -2.529415     -1.209026     -1.987362
  C      -3.670642     -1.972326     -2.690183
  C      -2.251304      0.150130     -2.662340
  C      -2.836922     -1.006054     -0.494099
  C       1.194464      3.757467      1.048970
  C       0.931386      2.230478      3.049102
  C       3.161686      2.359154      1.835586
  H      -0.661251     -3.759015     -0.567929
  H       1.363500      1.140622     -1.553425
  H      -3.468057     -2.119395     -3.769970
  H      -4.605664     -1.382325     -2.590160
  H      -3.847876     -2.957150     -2.229831
  H      -1.930466      0.034515     -3.710985
  H      -1.488459      0.717083     -2.097582
  H      -3.186432      0.744409     -2.659236
  H      -2.997691     -1.971737      0.027538
  H      -3.771296     -0.419200     -0.413019
  H      -2.029474     -0.428377      0.001188
  H       0.100936      3.786986      0.906678
  H       1.682818      3.900719      0.054728
  H       1.487114      4.608696      1.704629
  H      -0.173807      2.238159      2.937269
  H       1.214757      3.051875      3.738502
  H       1.226645      1.272768      3.512606
  H       3.669202      2.477722      0.859347
  H       3.478646      1.390612      2.273621
  H       3.507892      3.172098      2.503882
  Si      2.445018     -4.069931      0.533826
  C       3.386296     -5.560334     -0.180496
  C       3.284118     -3.486822      2.137396
  C       0.688116     -4.697870      1.001571
  H       4.451000     -5.313309     -0.370731
  H       2.940271     -5.893214     -1.139948
  H       3.352508     -6.415282      0.529326
  H       2.754844     -2.609007      2.564156
  H       4.338836     -3.188800      1.949292
  H       3.280696     -4.299606      2.898055
  H       0.019676     -3.870698      1.323942
  H       0.752290     -5.402022      1.861633
  H       0.220794     -5.266746      0.166613
  H       3.676543     -2.645959     -0.735503
  C       4.940745     -3.677718     -3.624302
  C       4.994394     -2.370362     -3.955427
  H       4.358159     -4.023854     -2.751330
  H       5.478356     -4.452672     -4.199465
  Si      5.961787     -1.627409     -5.395665
  H       4.424313     -1.671695     -3.306753
  C       6.864897     -2.994901     -6.349701
  C       7.212886     -0.375559     -4.711659
  C       4.756053     -0.721672     -6.550210
  H       7.582471     -3.536120     -5.699592
  H       7.437766     -2.565273     -7.197403
  H       6.155368     -3.738773     -6.766789
  H       7.947597     -0.870227     -4.043938
  H       6.704855      0.417127     -4.124335
  H       7.774026      0.118602     -5.532277
  H       4.013621     -1.422134     -6.985042
  H       5.296583     -0.234448     -7.388646
  H       4.198513      0.068199     -6.005186
  H      -0.020858     -3.036283     -3.855914
  H       1.829491     -0.994846      0.640082
71
Coordinates from ORCA-job my_molecule E -2465.711946579450
  Pt      2.160033     -2.351616     -0.968657
  O      -0.438950      1.154759      0.240554
  O       0.265889     -1.478808     -1.579776
  P       1.033650      1.073352      0.574277
  P      -0.987657     -2.203457     -2.101175
  O      -1.254958     -3.613077     -1.332466
  O      -0.884342     -2.606052     -3.677116
  O       1.981829      1.183461     -0.783162
  O       1.573696     -0.271724      1.314409
  C       1.636604      2.425044      1.687350
  C      -2.528269     -1.214620     -1.994676
  C      -3.663350     -1.989380     -2.695504
  C      -2.263973      0.147740     -2.671221
  C      -2.831690     -1.011718     -0.495051
  C       1.209191      3.762122      1.050361
  C       0.938977      2.229871      3.049674
  C       3.165596      2.351682      1.836735
  H      -0.640226     -3.751815     -0.574795
  H       1.380292      1.134245     -1.554163
  H      -3.461405     -2.134126     -3.773134
  H      -4.602734     -1.408736     -2.595450
  H      -3.825680     -2.983372     -2.231365
  H      -1.945982      0.031794     -3.726497
  H      -1.501473      0.722668     -2.106737
  H      -3.203755      0.736655     -2.665550
  H      -2.984589     -1.978248      0.024796
  H      -3.771738     -0.428191     -0.408466
  H      -2.027233     -0.432135      0.000986
  H       0.110961      3.801339      0.901207
  H       1.697277      3.912396      0.066773
  H       1.506517      4.604489      1.710464
  H      -0.163607      2.240139      2.937319
  H       1.225857      3.052089      3.739252
  H       1.230596      1.267132      3.515920
  H       3.672477      2.468285      0.858387
  H       3.479757      1.384027      2.275387
  H       3.512532      3.165523      2.506275
  Si      2.438996     -4.064171      0.538351
  C       3.377819     -5.556433     -0.175710
  C       3.280324     -3.480188      2.138007
  C       0.684538     -4.690290      1.008731
  H       4.441831     -5.311867     -0.368309
  H       2.929753     -5.889818     -1.133575
  H       3.344137     -6.409766      0.534613
  H       2.752718     -2.602165      2.564533
  H       4.331197     -3.182961      1.947436
  H       3.279505     -4.291510      2.897058
  H       0.015489     -3.862987      1.329540
  H       0.750620     -5.391607      1.868922
  H       0.216807     -5.260652      0.177729
  H       3.668252     -2.649207     -0.726094
  C       4.933524     -3.677081     -3.624285
  C       4.989263     -2.369265     -3.953160
  H       4.351408     -4.023723     -2.751030
  H       5.469179     -4.452227     -4.201399
  Si      5.956577     -1.624961     -5.392712
  H       4.421504     -1.671194     -3.302030
  C       6.856618     -2.992051     -6.350387
  C       7.210396     -0.376693     -4.707539
  C       4.751256     -0.715055     -6.543931
  H       7.573783     -3.535883     -5.702228
  H       7.429395     -2.561606     -7.197485
  H       6.145632     -3.733794     -6.768402
  H       7.945030     -0.873981     -4.041951
  H       6.704348      0.415640     -4.117836
  H       7.771230      0.118213     -5.527569
  H       4.007741     -1.413439     -6.979509
  H       5.291668     -0.226720     -7.381557
  H       4.195125      0.074430     -5.996705
  H      -0.020544     -3.026642     -3.873038
  H       1.819070     -0.998832      0.638449
71
Coordinates from ORCA-job my_molecule E -2465.711905436473
  Pt      2.167796     -2.355752     -0.966703
  O      -0.442911      1.154586      0.241254
  O       0.271226     -1.489814     -1.583032
  P       1.031424      1.073664      0.580954
  P      -0.980454     -2.210975     -2.105226
  O      -1.257232     -3.616911     -1.330906
  O      -0.872657     -2.623181     -3.680867
  O       1.986010      1.187757     -0.775350
  O       1.575831     -0.266563      1.322863
  C       1.630679      2.422043      1.696044
  C      -2.517056     -1.210612     -2.010283
  C      -3.646893     -1.977293     -2.723049
  C      -2.239417      0.147716     -2.681791
  C      -2.830233     -1.000453     -0.508963
  C       1.207861      3.756810      1.055329
  C       0.927481      2.227529      3.054505
  C       3.161861      2.342702      1.852491
  H      -0.646643     -3.753451     -0.571366
  H       1.382432      1.117595     -1.539209
  H      -3.435918     -2.128169     -3.802429
  H      -4.584627     -1.386196     -2.628948
  H      -3.819915     -2.968339     -2.260642
  H      -1.908023      0.026804     -3.733782
  H      -1.486090      0.716269     -2.106709
  H      -3.176467      0.746398     -2.684074
  H      -2.990201     -1.964953      0.014926
  H      -3.770362     -0.412793     -0.429894
  H      -2.025275     -0.418717     -0.007846
  H       0.113358      3.796462      0.902185
  H       1.700192      3.901833      0.072620
  H       1.502040      4.598831      1.714816
  H      -0.175313      2.241584      2.938063
  H       1.217499      3.045766      3.746748
  H       1.214213      1.264195      3.517907
  H       3.673407      2.455270      0.875483
  H       3.471072      1.374798      2.292617
  H       3.513213      3.159256      2.521730
  Si      2.445539     -4.064785      0.547812
  C       3.386029     -5.557692     -0.162769
  C       3.288392     -3.475367      2.145670
  C       0.690288     -4.688758      1.021823
  H       4.448609     -5.308892     -0.356644
  H       2.938166     -5.895017     -1.119746
  H       3.356042     -6.409081      0.549493
  H       2.761608     -2.597260      2.572163
  H       4.338744     -3.177249      1.952563
  H       3.290579     -4.284863      2.906266
  H       0.020738     -3.858746      1.340191
  H       0.758977     -5.385039      1.885922
  H       0.221526     -5.265401      0.193586
  H       3.674971     -2.649499     -0.722353
  C       4.930401     -3.677496     -3.623201
  C       4.981559     -2.370678     -3.953121
  H       4.352581     -4.025387     -2.747694
  H       5.465756     -4.451408     -4.202815
  Si      5.940603     -1.625199     -5.397548
  H       4.415966     -1.672675     -3.301545
  C       6.838780     -2.990310     -6.359784
  C       7.195281     -0.374451     -4.718642
  C       4.727398     -0.718113     -6.542883
  H       7.559616     -3.533667     -5.714805
  H       7.407591     -2.558665     -7.209031
  H       6.126822     -3.732586     -6.775673
  H       7.934026     -0.869878     -4.055966
  H       6.690227      0.417102     -4.127061
  H       7.751572      0.120788     -5.541183
  H       3.983313     -1.417925     -6.974813
  H       5.262371     -0.228803     -7.382978
  H       4.171888      0.070046     -5.993038
  H      -0.007765     -3.038522     -3.870702
  H       1.824209     -0.994971      0.651128
71
Coordinates from ORCA-job my_molecule E -2465.711947089455
  Pt      2.169599     -2.348126     -0.964391
  O      -0.436440      1.150300      0.232656
  O       0.290912     -1.461731     -1.602457
  P       1.036814      1.069325      0.573497
  P      -0.958503     -2.194592     -2.114225
  O      -1.210468     -3.600455     -1.339293
  O      -0.860044     -2.597463     -3.692610
  O       1.992620      1.178172     -0.781515
  O       1.573655     -0.270973      1.316567
  C       1.631320      2.420157      1.690455
  C      -2.507672     -1.216708     -2.009007
  C      -3.639179     -1.994872     -2.712148
  C      -2.248018      0.148468     -2.681418
  C      -2.814124     -1.020954     -0.510788
  C       1.210703      3.754072      1.043844
  C       0.921308      2.225250      3.047153
  C       3.162178      2.343345      1.854006
  H      -0.599968     -3.739540     -0.577488
  H       1.391502      1.102442     -1.549652
  H      -3.436168     -2.137147     -3.792098
  H      -4.581682     -1.417643     -2.610982
  H      -3.800384     -2.989832     -2.248051
  H      -1.928853      0.042224     -3.740198
  H      -1.487222      0.718795     -2.114597
  H      -3.194459      0.735345     -2.667577
  H      -2.966449     -1.987730      0.004258
  H      -3.753751     -0.442690     -0.425468
  H      -2.013928     -0.438544     -0.011873
  H       0.118368      3.790902      0.882317
  H       1.707865      3.901010      0.062716
  H       1.498382      4.594616      1.705566
  H      -0.180961      2.236517      2.925014
  H       1.205604      3.046951      3.738808
  H       1.207196      1.263558      3.515790
  H       3.676447      2.457562      0.879273
  H       3.470245      1.375802      2.293127
  H       3.511982      3.160321      2.526772
  Si      2.438520     -4.058777      0.552533
  C       3.370459     -5.557233     -0.156181
  C       3.283064     -3.476157      2.148417
  C       0.682913     -4.673614      1.028553
  H       4.434242     -5.314642     -0.352807
  H       2.918314     -5.893201     -1.111468
  H       3.337101     -6.408579      0.557862
  H       2.761736     -2.596104      2.572940
  H       4.333419     -3.183643      1.956062
  H       3.280095     -4.286031      2.909035
  H       0.017660     -3.841620      1.346685
  H       0.750301     -5.369678      1.892396
  H       0.209832     -5.246386      0.203204
  H       3.672263     -2.659408     -0.706128
  C       4.919607     -3.678458     -3.623970
  C       4.976564     -2.369696     -3.949639
  H       4.342628     -4.027296     -2.748202
  H       5.448921     -4.453037     -4.207628
  Si      5.935859     -1.622240     -5.394000
  H       4.416190     -1.671558     -3.293653
  C       6.817394     -2.989466     -6.366635
  C       7.204646     -0.386366     -4.710808
  C       4.726595     -0.695751     -6.532029
  H       7.534383     -3.545674     -5.725193
  H       7.388945     -2.555886     -7.214497
  H       6.096637     -3.722004     -6.787175
  H       7.941188     -0.893352     -4.052934
  H       6.709733      0.405885     -4.112546
  H       7.761623      0.110806     -5.532693
  H       3.974729     -1.387084     -6.967952
  H       5.262745     -0.203351     -7.370744
  H       4.179926      0.092412     -5.975547
  H       0.003123     -3.014979     -3.882912
  H       1.824528     -1.000713      0.643763
71
Coordinates from ORCA-job my_molecule E -2465.711942680839
  Pt      2.174802     -2.352646     -0.958947
  O      -0.431447      1.143655      0.240287
  O       0.304712     -1.459567     -1.609398
  P       1.037316      1.062525      0.578778
  P      -0.952170     -2.190332     -2.123942
  O      -1.210349     -3.600325     -1.352792
  O      -0.850847     -2.593286     -3.699012
  O       1.986163      1.170765     -0.776211
  O       1.572756     -0.282647      1.323086
  C       1.636501      2.417795      1.689708
  C      -2.498526     -1.212819     -2.015183
  C      -3.627741     -1.991034     -2.723256
  C      -2.237909      0.155624     -2.682783
  C      -2.809579     -1.025856     -0.515521
  C       1.217069      3.754099      1.046689
  C       0.927382      2.231174      3.049311
  C       3.161065      2.343755      1.848149
  H      -0.598725     -3.729488     -0.588174
  H       1.387516      1.092927     -1.549385
  H      -3.420019     -2.126531     -3.798504
  H      -4.569577     -1.419014     -2.624490
  H      -3.787898     -2.989234     -2.265658
  H      -1.915323      0.048328     -3.735284
  H      -1.477822      0.730711     -2.113791
  H      -3.178307      0.736710     -2.678520
  H      -2.959815     -1.999572     -0.004918
  H      -3.753560     -0.445777     -0.424480
  H      -2.009885     -0.449012     -0.011198
  H       0.115285      3.797533      0.892307
  H       1.711737      3.899152      0.066976
  H       1.514454      4.600267      1.706094
  H      -0.173321      2.241364      2.929180
  H       1.206237      3.057541      3.736369
  H       1.214788      1.271122      3.524816
  H       3.674401      2.454116      0.871730
  H       3.471458      1.380499      2.295110
  H       3.500682      3.158968      2.514236
  Si      2.438555     -4.060955      0.556977
  C       3.371589     -5.559884     -0.149002
  C       3.278668     -3.475973      2.158269
  C       0.678643     -4.675409      1.026464
  H       4.435854     -5.317293     -0.346583
  H       2.919979     -5.898212     -1.103730
  H       3.338710     -6.409424      0.567047
  H       2.753083     -2.594280      2.579866
  H       4.332946     -3.183731      1.970755
  H       3.271230     -4.285103      2.921353
  H       0.013111     -3.844418      1.343133
  H       0.743511     -5.372602      1.891045
  H       0.206283     -5.248976      0.200005
  H       3.675839     -2.667862     -0.694595
  C       4.918964     -3.681615     -3.622771
  C       4.974720     -2.371888     -3.945868
  H       4.344051     -4.032068     -2.745968
  H       5.446107     -4.454925     -4.209777
  Si      5.926596     -1.621451     -5.392825
  H       4.415262     -1.675013     -3.285817
  C       6.814770     -2.983783     -6.367684
  C       7.188062     -0.376774     -4.716184
  C       4.707816     -0.706547     -6.524965
  H       7.539220     -3.530934     -5.731771
  H       7.377303     -2.549747     -7.218936
  H       6.099122     -3.722811     -6.780325
  H       7.930011     -0.877013     -4.061409
  H       6.688572      0.412603     -4.116945
  H       7.739790      0.121877     -5.540029
  H       3.960849     -1.403291     -6.956086
  H       5.238204     -0.212861     -7.365577
  H       4.156378      0.078980     -5.967226
  H       0.016721     -3.009911     -3.897562
  H       1.822285     -1.006946      0.647432
71
Coordinates from ORCA-job my_molecule E -2465.712156950481
  Pt      2.175055     -2.352242     -0.953524
  O      -0.434166      1.142447      0.238714
  O       0.312565     -1.453417     -1.620280
  P       1.036626      1.059547      0.581497
  P      -0.937601     -2.190525     -2.132868
  O      -1.189604     -3.600075     -1.358619
  O      -0.834150     -2.599420     -3.706457
  O       1.993942      1.164877     -0.769296
  O       1.568016     -0.286940      1.328523
  C       1.636093      2.413042      1.693506
  C      -2.486596     -1.214318     -2.028768
  C      -3.609144     -1.991625     -2.743775
  C      -2.228675      0.154241     -2.692437
  C      -2.803042     -1.023469     -0.530145
  C       1.222357      3.749129      1.044854
  C       0.923056      2.227680      3.048850
  C       3.163750      2.330179      1.859201
  H      -0.583061     -3.723369     -0.592177
  H       1.398365      1.075494     -1.541938
  H      -3.398326     -2.127673     -3.822488
  H      -4.553948     -1.416964     -2.644462
  H      -3.768610     -2.989029     -2.289438
  H      -1.900221      0.047687     -3.745598
  H      -1.475898      0.729761     -2.117531
  H      -3.173202      0.736036     -2.689929
  H      -2.952865     -1.995528     -0.016027
  H      -3.747054     -0.447586     -0.447550
  H      -2.005900     -0.438528     -0.024379
  H       0.127799      3.792372      0.884506
  H       1.720823      3.889636      0.064640
  H       1.514608      4.593546      1.703532
  H      -0.178075      2.242164      2.924770
  H       1.206319      3.052066      3.737902
  H       1.205377      1.265725      3.522207
  H       3.681374      2.439674      0.886512
  H       3.467879      1.361330      2.304905
  H       3.510255      3.145221      2.527995
  Si      2.439479     -4.056607      0.568495
  C       3.369560     -5.557980     -0.136738
  C       3.283745     -3.468398      2.164803
  C       0.681385     -4.666442      1.045343
  H       4.432522     -5.315816     -0.338161
  H       2.915144     -5.898367     -1.089216
  H       3.339224     -6.405351      0.580674
  H       2.760036     -2.585800      2.586258
  H       4.335449     -3.176801      1.973522
  H       3.279469     -4.275319      2.928005
  H       0.017279     -3.833120      1.359661
  H       0.749218     -5.358741      1.912709
  H       0.205808     -5.243991      0.224078
  H       3.673598     -2.671249     -0.683509
  C       4.908660     -3.681433     -3.622171
  C       4.963540     -2.371849     -3.943221
  H       4.337459     -4.033081     -2.743554
  H       5.433089     -4.453951     -4.212983
  Si      5.909930     -1.618804     -5.392488
  H       4.408040     -1.675740     -3.280063
  C       6.794718     -2.978627     -6.374393
  C       7.174034     -0.375547     -4.717409
  C       4.686867     -0.701309     -6.517885
  H       7.520053     -3.529040     -5.741372
  H       7.356601     -2.541564     -7.225651
  H       6.076704     -3.715742     -6.789275
  H       7.918534     -0.877277     -4.066513
  H       6.676564      0.412335     -4.114199
  H       7.722866      0.125159     -5.542138
  H       3.938956     -1.397672     -6.949662
  H       5.214603     -0.203852     -7.358631
  H       4.136100      0.081740     -5.955238
  H       0.030995     -3.015327     -3.903711
  H       1.819958     -1.012332      0.652299
71
Coordinates from ORCA-job my_molecule E -2465.712185390303
  Pt      2.190687     -2.356328     -0.948659
  O      -0.434515      1.134274      0.242060
  O       0.331323     -1.456752     -1.626555
  P       1.037517      1.054623      0.587850
  P      -0.921339     -2.187673     -2.137772
  O      -1.178545     -3.592212     -1.360852
  O      -0.819638     -2.599972     -3.715016
  O       1.995761      1.163338     -0.765940
  O       1.575097     -0.281974      1.338182
  C       1.630661      2.408728      1.699525
  C      -2.471664     -1.206696     -2.043943
  C      -3.591736     -1.982894     -2.768579
  C      -2.203741      0.162883     -2.706335
  C      -2.798881     -1.018791     -0.543994
  C       1.218939      3.741129      1.045379
  C       0.912906      2.224134      3.052501
  C       3.159166      2.327757      1.869043
  H      -0.572742     -3.721418     -0.593038
  H       1.398699      1.049526     -1.530751
  H      -3.370733     -2.122726     -3.844781
  H      -4.534771     -1.405245     -2.680317
  H      -3.760581     -2.980776     -2.311178
  H      -1.863510      0.057760     -3.757343
  H      -1.457487      0.735903     -2.123892
  H      -3.149818      0.747997     -2.711336
  H      -2.958217     -1.989658     -0.039293
  H      -3.741375     -0.435302     -0.462129
  H      -2.004716     -0.443166     -0.027593
  H       0.124739      3.783184      0.878365
  H       1.723608      3.879677      0.067580
  H       1.507246      4.585211      1.704079
  H      -0.188777      2.238213      2.924662
  H       1.195803      3.047531      3.741946
  H       1.192979      1.264019      3.525982
  H       3.678794      2.431099      0.894409
  H       3.462142      1.364169      2.317381
  H       3.507472      3.150376      2.535225
  Si      2.446016     -4.059276      0.580464
  C       3.378976     -5.561584     -0.117703
  C       3.285946     -3.469190      2.179558
  C       0.684407     -4.666837      1.052808
  H       4.441040     -5.315725     -0.320126
  H       2.925319     -5.907155     -1.068974
  H       3.351332     -6.406488      0.603408
  H       2.762723     -2.586246      2.598600
  H       4.339840     -3.178247      1.990901
  H       3.278818     -4.275321      2.945099
  H       0.018414     -3.831230      1.364527
  H       0.752130     -5.355954      1.922933
  H       0.210056     -5.248493      0.231213
  H       3.687256     -2.677073     -0.670750
  C       4.905375     -3.683076     -3.618357
  C       4.955950     -2.373510     -3.939805
  H       4.339765     -4.036860     -2.737069
  H       5.427404     -4.454209     -4.213186
  Si      5.890752     -1.618124     -5.395802
  H       4.403987     -1.677588     -3.274098
  C       6.766891     -2.976513     -6.385930
  C       7.160598     -0.375949     -4.728552
  C       4.658240     -0.698387     -6.511460
  H       7.497045     -3.529413     -5.758639
  H       7.322503     -2.537958     -7.240565
  H       6.045030     -3.711880     -6.797056
  H       7.910019     -0.878792     -4.082954
  H       6.668277      0.411250     -4.121232
  H       7.702892      0.125792     -5.556753
  H       3.906073     -1.393337     -6.937469
  H       5.178177     -0.200759     -7.355799
  H       4.113349      0.084119     -5.945099
  H       0.048079     -3.013785     -3.901829
  H       1.830879     -1.008903      0.666917
71
Coordinates from ORCA-job my_molecule E -2465.712351684430
  Pt      2.197721     -2.357770     -0.939138
  O      -0.430597      1.122579      0.243652
  O       0.356716     -1.445383     -1.647583
  P       1.040604      1.043690      0.591179
  P      -0.894450     -2.179787     -2.158892
  O      -1.148391     -3.585950     -1.380893
  O      -0.788566     -2.593930     -3.733134
  O       2.000285      1.148121     -0.759801
  O       1.573644     -0.293784      1.344766
  C       1.634048      2.401042      1.700725
  C      -2.446542     -1.206465     -2.065584
  C      -3.560300     -1.980632     -2.799587
  C      -2.180734      0.165110     -2.716866
  C      -2.782245     -1.027721     -0.569332
  C       1.228900      3.732064      1.041039
  C       0.908145      2.222944      3.051620
  C       3.160527      2.317233      1.879918
  H      -0.552875     -3.705340     -0.604938
  H       1.406726      1.013498     -1.526212
  H      -3.334227     -2.110551     -3.875561
  H      -4.507268     -1.408018     -2.710006
  H      -3.725728     -2.980943     -2.351175
  H      -1.837163      0.068067     -3.767829
  H      -1.436558      0.735067     -2.128192
  H      -3.128695      0.745760     -2.719616
  H      -2.938942     -2.001805     -0.066499
  H      -3.728052     -0.453177     -0.493267
  H      -1.992510     -0.446209     -0.048104
  H       0.135111      3.775798      0.869030
  H       1.737403      3.866191      0.065889
  H       1.517510      4.578546      1.699503
  H      -0.192026      2.237120      2.916441
  H       1.185212      3.049070      3.738933
  H       1.184606      1.264632      3.533705
  H       3.685632      2.416792      0.908089
  H       3.459465      1.354824      2.335309
  H       3.504621      3.139211      2.544813
  Si      2.446507     -4.054859      0.598939
  C       3.374521     -5.562558     -0.094466
  C       3.289402     -3.461682      2.193656
  C       0.684679     -4.653507      1.078413
  H       4.435866     -5.318093     -0.302497
  H       2.917140     -5.912308     -1.042297
  H       3.349396     -6.403969      0.630937
  H       2.768200     -2.576223      2.609299
  H       4.342508     -3.173730      2.003185
  H       3.281289     -4.264713      2.961969
  H       0.023722     -3.815147      1.389454
  H       0.754738     -5.338928      1.950698
  H       0.203630     -5.236625      0.263670
  H       3.689069     -2.688108     -0.645479
  C       4.888773     -3.685681     -3.615651
  C       4.938560     -2.374917     -3.932643
  H       4.329738     -4.042318     -2.731318
  H       5.404466     -4.455173     -4.217970
  Si      5.861254     -1.613650     -5.393610
  H       4.393228     -1.680528     -3.259924
  C       6.730783     -2.966996     -6.396573
  C       7.135122     -0.372505     -4.731229
  C       4.618677     -0.691039     -6.495566
  H       7.466097     -3.522288     -5.777458
  H       7.279784     -2.524070     -7.253545
  H       6.006138     -3.701070     -6.805679
  H       7.890203     -0.876900     -4.093438
  H       6.646530      0.411571     -4.116829
  H       7.670605      0.133308     -5.561806
  H       3.865122     -1.386124     -6.920917
  H       5.131960     -0.186727     -7.341035
  H       4.075418      0.086729     -5.920498
  H       0.077774     -3.006782     -3.921676
  H       1.832404     -1.021034      0.671574
71
Coordinates from ORCA-job my_molecule E -2465.712446647930
  Pt      2.208369     -2.362567     -0.928381
  O      -0.427052      1.108847      0.252764
  O       0.381619     -1.442433     -1.656979
  P       1.042486      1.035116      0.596858
  P      -0.871280     -2.177458     -2.170181
  O      -1.123129     -3.585974     -1.391534
  O      -0.760229     -2.589261     -3.740001
  O       1.999521      1.133225     -0.754579
  O       1.577662     -0.306162      1.357398
  C       1.635288      2.399698      1.697942
  C      -2.422578     -1.203839     -2.079092
  C      -3.531279     -1.974527     -2.824292
  C      -2.154796      0.174033     -2.722165
  C      -2.767735     -1.034833     -0.583287
  C       1.230927      3.729112      1.030814
  C       0.909882      2.229203      3.048166
  C       3.162170      2.313833      1.877348
  H      -0.527438     -3.700097     -0.615527
  H       1.409111      0.981281     -1.522602
  H      -3.298894     -2.099047     -3.900892
  H      -4.477082     -1.401248     -2.736213
  H      -3.701053     -2.977134     -2.384535
  H      -1.803493      0.080911     -3.769455
  H      -1.415841      0.744785     -2.125540
  H      -3.100264      0.752137     -2.732897
  H      -2.925951     -2.015685     -0.087498
  H      -3.713844     -0.459310     -0.508263
  H      -1.982399     -0.457811     -0.052901
  H       0.139789      3.771606      0.858139
  H       1.740501      3.856794      0.054360
  H       1.516116      4.579450      1.684221
  H      -0.189542      2.242316      2.914695
  H       1.187940      3.061402      3.731765
  H       1.186601      1.272585      3.533165
  H       3.688179      2.410197      0.909381
  H       3.460298      1.348456      2.337511
  H       3.506149      3.135262      2.538124
  Si      2.445329     -4.057540      0.612454
  C       3.374123     -5.566696     -0.074995
  C       3.281754     -3.465781      2.210477
  C       0.679882     -4.651094      1.081918
  H       4.435309     -5.321464     -0.284292
  H       2.916722     -5.920784     -1.021300
  H       3.350206     -6.405297      0.653902
  H       2.759982     -2.579959      2.624440
  H       4.335919     -3.179298      2.024933
  H       3.269300     -4.269130      2.977391
  H       0.019871     -3.812410      1.388917
  H       0.746235     -5.336381      1.954976
  H       0.200566     -5.233969      0.267573
  H       3.695624     -2.698665     -0.621466
  C       4.878265     -3.687520     -3.610176
  C       4.925653     -2.375488     -3.923110
  H       4.324830     -4.047447     -2.723278
  H       5.388928     -4.454840     -4.219157
  Si      5.835146     -1.608387     -5.389350
  H       4.385318     -1.683072     -3.243585
  C       6.702181     -2.955949     -6.402314
  C       7.108669     -0.363437     -4.734601
  C       4.580129     -0.689227     -6.478526
  H       7.444087     -3.509343     -5.791166
  H       7.242849     -2.509457     -7.262347
  H       5.977388     -3.691789     -6.807119
  H       7.870544     -0.865358     -4.103970
  H       6.621039      0.417410     -4.114880
  H       7.635906      0.145852     -5.568064
  H       3.827537     -1.386786     -6.900005
  H       5.084809     -0.179981     -7.326180
  H       4.036548      0.084303     -5.896845
  H       0.108296     -3.001169     -3.936937
  H       1.836640     -1.029462      0.682934
71
Coordinates from ORCA-job my_molecule E -2465.712594562386
  Pt      2.220916     -2.366305     -0.918774
  O      -0.425076      1.099415      0.257098
  O       0.406834     -1.435303     -1.669595
  P       1.045799      1.026449      0.602819
  P      -0.845098     -2.173004     -2.181412
  O      -1.096991     -3.578595     -1.400527
  O      -0.733397     -2.591355     -3.751312
  O       2.002488      1.122309     -0.748673
  O       1.579865     -0.312461      1.366576
  C       1.638873      2.393830      1.699845
  C      -2.398884     -1.202241     -2.096718
  C      -3.500156     -1.969854     -2.854048
  C      -2.127535      0.177142     -2.731733
  C      -2.756745     -1.039682     -0.604553
  C       1.239829      3.722571      1.026360
  C       0.908902      2.229312      3.047901
  C       3.163188      2.307167      1.882615
  H      -0.502653     -3.689443     -0.623382
  H       1.415696      0.944544     -1.514556
  H      -3.257652     -2.087613     -3.927804
  H      -4.449108     -1.398802     -2.771012
  H      -3.670683     -2.975104     -2.420650
  H      -1.765896      0.088700     -3.776271
  H      -1.394593      0.745678     -2.125923
  H      -3.075138      0.753908     -2.748442
  H      -2.918917     -2.021327     -0.113610
  H      -3.702645     -0.466736     -0.536483
  H      -1.975230     -0.462369     -0.066040
  H       0.146947      3.768482      0.848468
  H       1.754854      3.845846      0.051896
  H       1.524826      4.574794      1.677764
  H      -0.190798      2.243848      2.909786
  H       1.184768      3.062269      3.729362
  H       1.182369      1.273200      3.537973
  H       3.691361      2.395711      0.912998
  H       3.459192      1.346498      2.349036
  H       3.505435      3.133422      2.538707
  Si      2.446011     -4.058018      0.627826
  C       3.375629     -5.569509     -0.053583
  C       3.276980     -3.463555      2.230328
  C       0.675516     -4.646851      1.091099
  H       4.436109     -5.323124     -0.265167
  H       2.917956     -5.928178     -0.998141
  H       3.353885     -6.404862      0.678714
  H       2.753727     -2.575593      2.640512
  H       4.334110     -3.178893      2.049477
  H       3.259085     -4.265047      2.999581
  H       0.015181     -3.806060      1.394383
  H       0.738779     -5.329921      1.966947
  H       0.196522     -5.232042      0.275899
  H       3.704223     -2.707184     -0.599359
  C       4.866603     -3.688955     -3.605990
  C       4.911172     -2.376115     -3.915373
  H       4.319989     -4.051837     -2.716081
  H       5.372004     -4.454327     -4.221980
  Si      5.806447     -1.603461     -5.387465
  H       4.376456     -1.685350     -3.229446
  C       6.668877     -2.945730     -6.411650
  C       7.081533     -0.356034     -4.740561
  C       4.538804     -0.685944     -6.462869
  H       7.417564     -3.498562     -5.808784
  H       7.200984     -2.495587     -7.274946
  H       5.942683     -3.682427     -6.812332
  H       7.850432     -0.856685     -4.117693
  H       6.596258      0.421753     -4.114831
  H       7.600184      0.156669     -5.577128
  H       3.785557     -1.385004     -6.880354
  H       5.034625     -0.172203     -7.312902
  H       3.996758      0.083773     -5.874080
  H       0.136759     -3.001044     -3.941997
  H       1.841961     -1.035745      0.692355
71
Coordinates from ORCA-job my_molecule E -2465.712703565505
  Pt      2.236992     -2.370326     -0.908755
  O      -0.422454      1.084129      0.265077
  O       0.431406     -1.433718     -1.678324
  P       1.049451      1.016450      0.607622
  P      -0.818750     -2.167357     -2.193995
  O      -1.071856     -3.573043     -1.414886
  O      -0.705240     -2.582317     -3.767037
  O       2.001713      1.107244     -0.747001
  O       1.586391     -0.312567      1.372455
  C       1.640263      2.389648      1.697902
  C      -2.375109     -1.198346     -2.114380
  C      -3.472380     -1.963251     -2.884001
  C      -2.099857      0.184176     -2.740473
  C      -2.743828     -1.044526     -0.620801
  C       1.244391      3.712213      1.016453
  C       0.903049      2.232332      3.045569
  C       3.164123      2.304355      1.886781
  H      -0.480397     -3.683610     -0.632667
  H       1.417929      0.901368     -1.504987
  H      -3.221897     -2.079694     -3.956263
  H      -4.419085     -1.390853     -2.806336
  H      -3.649182     -2.968903     -2.455407
  H      -1.728545      0.102979     -3.780807
  H      -1.374836      0.748387     -2.124305
  H      -3.048044      0.760485     -2.760011
  H      -2.909558     -2.027422     -0.139998
  H      -3.691863     -0.470864     -0.553724
  H      -1.965535     -0.473100     -0.070196
  H       0.150694      3.756638      0.834980
  H       1.762204      3.830118      0.044603
  H       1.530562      4.569558      1.665919
  H      -0.196054      2.246138      2.901021
  H       1.173038      3.067052      3.722321
  H       1.173694      1.279342      3.546446
  H       3.695975      2.383734      0.915732
  H       3.457856      1.349564      2.360356
  H       3.506138      3.137762      2.538000
  Si      2.449510     -4.059705      0.642726
  C       3.379520     -5.573901     -0.031518
  C       3.274239     -3.467510      2.245413
  C       0.677417     -4.642180      1.099263
  H       4.438997     -5.326156     -0.244231
  H       2.921819     -5.937127     -0.974104
  H       3.359337     -6.406328      0.704269
  H       2.752715     -2.578294      2.652574
  H       4.330672     -3.186479      2.067354
  H       3.251837     -4.268342      3.014772
  H       0.018737     -3.799486      1.400190
  H       0.737313     -5.324207      1.974750
  H       0.199440     -5.225915      0.284617
  H       3.716176     -2.714726     -0.576815
  C       4.853740     -3.690659     -3.598666
  C       4.894834     -2.377047     -3.905275
  H       4.314415     -4.056794     -2.705773
  H       5.354125     -4.453857     -4.221258
  Si      5.776816     -1.599101     -5.383335
  H       4.365976     -1.688208     -3.213062
  C       6.631863     -2.937498     -6.417471
  C       7.056521     -0.351393     -4.743297
  C       4.498355     -0.679842     -6.447150
  H       7.386062     -3.491976     -5.821007
  H       7.157153     -2.484119     -7.284029
  H       5.902430     -3.673537     -6.814831
  H       7.831207     -0.852540     -4.126905
  H       6.575635      0.424223     -4.112184
  H       7.567622      0.164557     -5.583096
  H       3.741898     -1.378742     -6.861159
  H       4.986368     -0.162320     -7.299711
  H       3.960518      0.086918     -5.852339
  H       0.166361     -2.988044     -3.954104
  H       1.853286     -1.040186      0.700599
71
Coordinates from ORCA-job my_molecule E -2465.712951512966
  Pt      2.258043     -2.375219     -0.893529
  O      -0.419704      1.067018      0.273565
  O       0.470458     -1.422681     -1.693547
  P       1.053586      1.003423      0.615930
  P      -0.780162     -2.159762     -2.210775
  O      -1.034986     -3.562514     -1.427883
  O      -0.659882     -2.580450     -3.781592
  O       2.007009      1.087980     -0.740117
  O       1.590085     -0.321554      1.391298
  C       1.643863      2.384358      1.696637
  C      -2.338819     -1.195024     -2.141197
  C      -3.425583     -1.956114     -2.929683
  C      -2.057543      0.191313     -2.753455
  C      -2.726975     -1.055328     -0.653264
  C       1.253724      3.702402      1.001916
  C       0.903587      2.239414      3.044171
  C       3.167857      2.296205      1.891884
  H      -0.446334     -3.670573     -0.644673
  H       1.430380      0.838772     -1.491999
  H      -3.160566     -2.061394     -3.997668
  H      -4.376341     -1.388055     -2.860361
  H      -3.603335     -2.967130     -2.510315
  H      -1.672551      0.119025     -3.791213
  H      -1.339161      0.751559     -2.122884
  H      -3.008031      0.765580     -2.780333
  H      -2.897152     -2.042793     -0.183561
  H      -3.677862     -0.484385     -0.593759
  H      -1.956333     -0.488767     -0.087683
  H       0.161825      3.747549      0.812398
  H       1.777519      3.811751      0.031638
  H       1.536898      4.562550      1.646847
  H      -0.194660      2.252771      2.898431
  H       1.176186      3.080738      3.716388
  H       1.171101      1.291977      3.550108
  H       3.702713      2.366393      0.922603
  H       3.457653      1.343889      2.374969
  H       3.511309      3.133072      2.537295
  Si      2.450668     -4.062648      0.665275
  C       3.381710     -5.579987     -0.001292
  C       3.266199     -3.469696      2.274965
  C       0.672032     -4.639176      1.111152
  H       4.440554     -5.330743     -0.216200
  H       2.923809     -5.948544     -0.941997
  H       3.363771     -6.408826      0.738676
  H       2.743323     -2.578091      2.677882
  H       4.326405     -3.191802      2.104450
  H       3.234971     -4.269469      3.046087
  H       0.012813     -3.794204      1.407258
  H       0.726343     -5.318978      1.989481
  H       0.195774     -5.224899      0.294699
  H       3.731450     -2.725853     -0.543290
  C       4.834223     -3.691652     -3.591031
  C       4.871716     -2.376526     -3.891500
  H       4.305540     -4.062635     -2.693837
  H       5.325934     -4.451752     -4.224449
  Si      5.732089     -1.590223     -5.377844
  H       4.352331     -1.690585     -3.189248
  C       6.578395     -2.921581     -6.427950
  C       7.015028     -0.339449     -4.750305
  C       4.435150     -0.672554     -6.420831
  H       7.342837     -3.475082     -5.843964
  H       7.089975     -2.463612     -7.299754
  H       5.846620     -3.658802     -6.817598
  H       7.799902     -0.839043     -4.145599
  H       6.538819      0.432149     -4.110774
  H       7.512911      0.181140     -5.594829
  H       3.676434     -1.372818     -6.827432
  H       4.909458     -0.149848     -7.277376
  H       3.901942      0.089684     -5.816318
  H       0.215279     -2.979780     -3.964051
  H       1.862089     -1.046860      0.723047
71
Coordinates from ORCA-job my_molecule E -2465.713233531892
  Pt      2.279968     -2.382084     -0.873434
  O      -0.417834      1.044270      0.290079
  O       0.510609     -1.416657     -1.700744
  P       1.056854      0.988479      0.625439
  P      -0.739387     -2.153021     -2.226903
  O      -0.992879     -3.558021     -1.447407
  O      -0.609247     -2.568075     -3.796602
  O       2.007560      1.062573     -0.732748
  O       1.595622     -0.337749      1.413699
  C       1.648225      2.381803      1.687351
  C      -2.301771     -1.189840     -2.161131
  C      -3.378535     -1.943302     -2.970419
  C      -2.016480      0.206278     -2.755652
  C      -2.708730     -1.067342     -0.678030
  C       1.259351      3.693118      0.976394
  C       0.908600      2.253306      3.033651
  C       3.171776      2.293857      1.881786
  H      -0.404388     -3.666570     -0.664720
  H       1.439341      0.771292     -1.479215
  H      -3.101255     -2.036256     -4.037841
  H      -4.330688     -1.376420     -2.905120
  H      -3.560227     -2.960326     -2.564602
  H      -1.617155      0.145807     -3.789462
  H      -1.308770      0.762728     -2.109521
  H      -2.967242      0.778465     -2.791076
  H      -2.885088     -2.062559     -0.222036
  H      -3.657429     -0.497432     -0.625998
  H      -1.946453     -0.507539     -0.096839
  H       0.168525      3.737184      0.784005
  H       1.786445      3.789676      0.005430
  H       1.537700      4.559236      1.609880
  H      -0.191125      2.266588      2.888359
  H       1.183191      3.102126      3.696462
  H       1.175710      1.310116      3.547782
  H       3.706216      2.349688      0.912400
  H       3.461134      1.347196      2.376367
  H       3.515538      3.138609      2.515347
  Si      2.452317     -4.071248      0.687571
  C       3.386316     -5.589558      0.026782
  C       3.253390     -3.481741      2.307968
  C       0.667151     -4.644513      1.113206
  H       4.445014     -5.338844     -0.188386
  H       2.929292     -5.961946     -0.913102
  H       3.369698     -6.415878      0.769369
  H       2.728200     -2.589293      2.708184
  H       4.317999     -3.206980      2.149292
  H       3.211383     -4.283008      3.077303
  H       0.005632     -3.799606      1.403395
  H       0.711436     -5.325733      1.991767
  H       0.197825     -5.229387      0.291142
  H       3.748275     -2.737497     -0.506343
  C       4.814972     -3.691742     -3.580380
  C       4.848091     -2.374866     -3.873013
  H       4.297169     -4.068759     -2.679136
  H       5.298161     -4.447719     -4.225398
  Si      5.686647     -1.579653     -5.366678
  H       4.337829     -1.693179     -3.159535
  C       6.524892     -2.903907     -6.432012
  C       6.971455     -0.325022     -4.752401
  C       4.371388     -0.664747     -6.388413
  H       7.298779     -3.455784     -5.859900
  H       7.023363     -2.441556     -7.308655
  H       5.791303     -3.642815     -6.814328
  H       7.766521     -0.822184     -4.159755
  H       6.499468      0.442634     -4.104700
  H       7.455475      0.200015     -5.601539
  H       3.611521     -1.367027     -6.787666
  H       4.831906     -0.136452     -7.248657
  H       3.842036      0.092756     -5.773787
  H       0.269818     -2.961251     -3.981654
  H       1.871908     -1.059461      0.746614
71
Coordinates from ORCA-job my_molecule E -2465.713701836309
  Pt      2.313427     -2.390747     -0.844337
  O      -0.415677      1.011790      0.311900
  O       0.569280     -1.403686     -1.711359
  P       1.060938      0.965693      0.637483
  P      -0.677027     -2.141172     -2.250412
  O      -0.930437     -3.548761     -1.476617
  O      -0.532223     -2.550048     -3.819327
  O       2.004170      1.021881     -0.725095
  O       1.601919     -0.352226      1.441977
  C       1.656000      2.377147      1.673685
  C      -2.242819     -1.183953     -2.194782
  C      -3.301373     -1.927772     -3.036184
  C      -1.952255      0.223680     -2.762484
  C      -2.677972     -1.088129     -0.717227
  C       1.272609      3.677674      0.936800
  C       0.914612      2.275528      3.020115
  C       3.178664      2.287116      1.873920
  H      -0.340612     -3.657404     -0.695108
  H       1.451931      0.660205     -1.454641
  H      -3.004671     -2.001988     -4.099216
  H      -4.256009     -1.363968     -2.979304
  H      -3.486391     -2.952099     -2.651095
  H      -1.532946      0.181048     -3.788911
  H      -1.259395      0.773138     -2.092018
  H      -2.903557      0.792350     -2.808862
  H      -2.861418     -2.092608     -0.284260
  H      -3.628967     -0.520115     -0.673594
  H      -1.928098     -0.540387     -0.109585
  H       0.184219      3.720183      0.737411
  H       1.805025      3.755414     -0.033915
  H       1.548010      4.554008      1.556217
  H      -0.184182      2.288859      2.872822
  H       1.192050      3.135937      3.669134
  H       1.177849      1.340341      3.551106
  H       3.715001      2.321989      0.906102
  H       3.462740      1.346768      2.388171
  H       3.525191      3.141987      2.492402
  Si      2.454359     -4.081580      0.719953
  C       3.389728     -5.603201      0.068087
  C       3.235932     -3.498219      2.351665
  C       0.661442     -4.646709      1.119807
  H       4.448359     -5.351987     -0.147478
  H       2.933166     -5.980257     -0.870210
  H       3.373808     -6.426082      0.814705
  H       2.710051     -2.604425      2.747932
  H       4.304167     -3.228591      2.207697
  H       3.179291     -4.301449      3.117339
  H      -0.001514     -3.799901      1.400199
  H       0.690769     -5.328318      1.999446
  H       0.201056     -5.230312      0.291114
  H       3.772544     -2.754903     -0.452420
  C       4.780491     -3.692089     -3.564692
  C       4.807921     -2.372471     -3.845404
  H       4.279599     -4.077599     -2.657329
  H       5.249694     -4.442048     -4.226824
  Si      5.614366     -1.563374     -5.349208
  H       4.312474     -1.697781     -3.114622
  C       6.442084     -2.876479     -6.435836
  C       6.900689     -0.301813     -4.753245
  C       4.272779     -0.653897     -6.341203
  H       7.229888     -3.424563     -5.880234
  H       6.921175     -2.407399     -7.319575
  H       5.706782     -3.619101     -6.807334
  H       7.710285     -0.794639     -4.177512
  H       6.434216      0.459526     -4.094032
  H       7.364726      0.230377     -5.608999
  H       3.511531     -1.359892     -6.730391
  H       4.713553     -0.117184     -7.206588
  H       3.748878      0.096144     -5.712320
  H       0.354684     -2.930723     -4.002658
  H       1.887728     -1.073486      0.781349
71
Coordinates from ORCA-job my_molecule E -2465.714381377364
  Pt      2.366420     -2.406652     -0.802295
  O      -0.407811      0.958790      0.340758
  O       0.666018     -1.389240     -1.731205
  P       1.072950      0.929207      0.653693
  P      -0.578697     -2.122077     -2.286587
  O      -0.834276     -3.532961     -1.518926
  O      -0.415981     -2.520662     -3.855079
  O       2.009595      0.961665     -0.714262
  O       1.617489     -0.374332      1.486270
  C       1.665366      2.368275      1.649282
  C      -2.152032     -1.172933     -2.243009
  C      -3.188292     -1.898679     -3.128842
  C      -1.852601      0.250432     -2.767718
  C      -2.628723     -1.118737     -0.777455
  C       1.289137      3.647425      0.874827
  C       0.914727      2.306498      2.994144
  C       3.187664      2.280156      1.859011
  H      -0.245487     -3.647488     -0.736762
  H       1.483531      0.502948     -1.410880
  H      -2.863993     -1.946387     -4.186701
  H      -4.145879     -1.338633     -3.082218
  H      -3.382077     -2.932860     -2.772874
  H      -1.402436      0.237112     -3.782541
  H      -1.184173      0.785371     -2.064380
  H      -2.806883      0.815070     -2.827110
  H      -2.823057     -2.135503     -0.378119
  H      -3.581260     -0.554298     -0.746100
  H      -1.897463     -0.587458     -0.134988
  H       0.201790      3.685469      0.665722
  H       1.830334      3.696304     -0.091773
  H       1.558630      4.539790      1.472338
  H      -0.183969      2.316294      2.841649
  H       1.188765      3.185075      3.620275
  H       1.173917      1.387240      3.551513
  H       3.729726      2.282211      0.893692
  H       3.467381      1.357227      2.402647
  H       3.532425      3.152181      2.451570
  Si      2.457717     -4.098764      0.767127
  C       3.397379     -5.624846      0.131542
  C       3.208995     -3.522653      2.416636
  C       0.651582     -4.649795      1.126842
  H       4.454996     -5.370488     -0.085423
  H       2.942367     -6.011251     -0.803800
  H       3.384554     -6.441427      0.885293
  H       2.681494     -2.625462      2.803935
  H       4.283218     -3.262053      2.295885
  H       3.129287     -4.326854      3.180219
  H      -0.012313     -3.799096      1.394673
  H       0.660332     -5.331705      2.006403
  H       0.202324     -5.230286      0.289426
  H       3.809590     -2.786993     -0.370945
  C       4.730772     -3.694215     -3.540802
  C       4.749306     -2.371005     -3.804075
  H       4.255448     -4.091924     -2.625251
  H       5.178821     -4.435117     -4.227623
  Si      5.505343     -1.539514     -5.321970
  H       4.276336     -1.706390     -3.048850
  C       6.312810     -2.834661     -6.444505
  C       6.795935     -0.270174     -4.751855
  C       4.124856     -0.634308     -6.264881
  H       7.121478     -3.380490     -5.916840
  H       6.761636     -2.353675     -7.337377
  H       5.573619     -3.580537     -6.801131
  H       7.627183     -0.759063     -4.203872
  H       6.340525      0.480827     -4.073210
  H       7.229157      0.274052     -5.615896
  H       3.359837     -1.343907     -6.639240
  H       4.534504     -0.084491     -7.136630
  H       3.612204      0.104079     -5.613788
  H       0.476392     -2.884170     -4.036781
  H       1.915850     -1.096233      0.831286
71
Coordinates from ORCA-job my_molecule E -2465.715226371373
  Pt      2.449490     -2.428922     -0.730656
  O      -0.402304      0.877022      0.397632
  O       0.793933     -1.380944     -1.726155
  P       1.085566      0.875052      0.677532
  P      -0.438863     -2.093909     -2.335112
  O      -0.699284     -3.521441     -1.600989
  O      -0.231640     -2.447358     -3.907529
  O       1.996197      0.860818     -0.704495
  O       1.639544     -0.399042      1.553399
  C       1.682170      2.358956      1.597891
  C      -2.020868     -1.155528     -2.308362
  C      -3.017375     -1.848132     -3.265693
  C      -1.708881      0.292106     -2.757779
  C      -2.559986     -1.166467     -0.861229
  C       1.310191      3.595562      0.759477
  C       0.925928      2.368358      2.942600
  C       3.205103      2.278341      1.817234
  H      -0.106550     -3.660223     -0.821408
  H       1.520715      0.252899     -1.325149
  H      -2.653038     -1.849400     -4.312359
  H      -3.977011     -1.292785     -3.231987
  H      -3.221149     -2.897630     -2.962784
  H      -1.217634      0.327534     -3.752365
  H      -1.077147      0.800647     -2.003749
  H      -2.664573      0.851790     -2.830838
  H      -2.773067     -2.199399     -0.520738
  H      -3.513557     -0.602454     -0.846109
  H      -1.857188     -0.668134     -0.161051
  H       0.223532      3.620516      0.541762
  H       1.857429      3.596554     -0.202891
  H       1.575888      4.517788      1.315542
  H      -0.173157      2.371833      2.785321
  H       1.199039      3.274934      3.524218
  H       1.181171      1.479704      3.549147
  H       3.751188      2.222676      0.854520
  H       3.478774      1.387429      2.410702
  H       3.552441      3.181792      2.362612
  Si      2.469259     -4.131501      0.832847
  C       3.415571     -5.661614      0.214595
  C       3.170375     -3.575510      2.507751
  C       0.648419     -4.666212      1.122446
  H       4.473485     -5.406440      0.000903
  H       2.963960     -6.054421     -0.720007
  H       3.402354     -6.472931      0.973899
  H       2.642445     -2.675133      2.885187
  H       4.249743     -3.330030      2.423430
  H       3.055687     -4.385592      3.261223
  H      -0.018760     -3.811656      1.367538
  H       0.617810     -5.351764      1.997046
  H       0.227189     -5.238343      0.267259
  H       3.873346     -2.823213     -0.256308
  C       4.648640     -3.694125     -3.496990
  C       4.653840     -2.365433     -3.732906
  H       4.213440     -4.110788     -2.569868
  H       5.065287     -4.420102     -4.218639
  Si      5.338335     -1.502274     -5.267231
  H       4.215472     -1.719166     -2.941452
  C       6.115727     -2.774883     -6.434763
  C       6.633450     -0.220902     -4.734202
  C       3.907142     -0.603745     -6.143475
  H       6.952454     -3.314657     -5.943230
  H       6.521125     -2.279277     -7.340630
  H       5.372694     -3.528182     -6.768166
  H       7.493097     -0.703536     -4.224285
  H       6.195116      0.517182     -4.031058
  H       7.022765      0.338942     -5.609713
  H       3.135513     -1.318860     -6.495814
  H       4.273985     -0.038408     -7.024404
  H       3.414400      0.120712     -5.463883
  H       0.675992     -2.770825     -4.089418
  H       1.959928     -1.124610      0.914245
71
Coordinates from ORCA-job my_molecule E -2465.715167249614
  Pt      2.492034     -2.443086     -0.697903
  O      -0.410027      0.843648      0.489318
  O       0.774511     -1.478480     -1.647904
  P       1.086913      0.873737      0.723068
  P      -0.448051     -2.108118     -2.342437
  O      -0.767087     -3.562430     -1.682967
  O      -0.189888     -2.390397     -3.921731
  O       1.948926      0.856639     -0.686093
  O       1.690370     -0.366088      1.601335
  C       1.690108      2.381824      1.595212
  C      -2.011528     -1.135808     -2.328588
  C      -2.991701     -1.773066     -3.342330
  C      -1.661509      0.321749     -2.713880
  C      -2.599725     -1.182537     -0.898845
  C       1.284174      3.592400      0.738947
  C       0.960560      2.422179      2.956637
  C       3.218005      2.325020      1.784546
  H      -0.174690     -3.762084     -0.909637
  H       1.457620      0.224580     -1.273558
  H      -2.596185     -1.747569     -4.380370
  H      -3.939778     -1.198395     -3.315542
  H      -3.229387     -2.826953     -3.084653
  H      -1.136939      0.384971     -3.686696
  H      -1.054569      0.800290     -1.924984
  H      -2.608182      0.895530     -2.798839
  H      -2.845897     -2.220166     -0.599190
  H      -3.540707     -0.598473     -0.898021
  H      -1.913091     -0.714899     -0.158586
  H       0.192611      3.595145      0.548318
  H       1.805449      3.578433     -0.231381
  H       1.553768      4.535443      1.267786
  H      -0.138284      2.408813      2.821617
  H       1.229609      3.346395      3.504767
  H       1.239130      1.554576      3.589000
  H       3.744436      2.247940      0.815342
  H       3.514093      1.457295      2.398580
  H       3.563364      3.247000      2.295569
  Si      2.503465     -4.162815      0.841746
  C       3.480408     -5.679491      0.238781
  C       3.165762     -3.618852      2.530213
  C       0.681940     -4.717281      1.069365
  H       4.539060     -5.415496      0.038484
  H       3.043648     -6.079927     -0.700867
  H       3.466658     -6.488441      1.001052
  H       2.631400     -2.727482      2.903651
  H       4.241453     -3.369691      2.465705
  H       3.044655     -4.437774      3.274867
  H       0.001837     -3.871144      1.305517
  H       0.628604     -5.418242      1.928194
  H       0.296711     -5.279519      0.196021
  H       3.930313     -2.801402     -0.239432
  C       4.651931     -3.700621     -3.461595
  C       4.635428     -2.372007     -3.706199
  H       4.231625     -4.122130     -2.528293
  H       5.075200     -4.423338     -4.182485
  Si      5.298081     -1.512932     -5.252350
  H       4.195030     -1.727800     -2.914672
  C       6.087607     -2.790038     -6.406391
  C       6.575992     -0.206008     -4.741081
  C       3.849785     -0.643678     -6.134492
  H       6.935145     -3.310697     -5.908965
  H       6.479940     -2.299752     -7.321703
  H       5.355128     -3.560609     -6.725713
  H       7.444921     -0.670761     -4.228489
  H       6.131739      0.535434     -4.046325
  H       6.951657      0.348713     -5.626638
  H       3.084687     -1.374283     -6.473796
  H       4.203823     -0.085348     -7.025894
  H       3.353819      0.083540     -5.462325
  H       0.715163     -2.707947     -4.089542
  H       2.013244     -1.093990      0.959830
71
Coordinates from ORCA-job my_molecule E -2465.715910595697
  Pt      2.495522     -2.440854     -0.670101
  O      -0.403370      0.826800      0.511565
  O       0.805218     -1.446354     -1.663462
  P       1.090969      0.864004      0.743138
  P      -0.396343     -2.126701     -2.352652
  O      -0.727382     -3.566027     -1.673089
  O      -0.109586     -2.450589     -3.919685
  O       1.943386      0.846399     -0.663431
  O       1.687464     -0.377088      1.619255
  C       1.705399      2.376129      1.607623
  C      -1.944683     -1.150941     -2.386882
  C      -2.904115     -1.799333     -3.409524
  C      -1.578745      0.294454     -2.783677
  C      -2.557985     -1.174722     -0.966235
  C       1.301958      3.586087      0.737129
  C       0.979159      2.427970      2.966635
  C       3.230413      2.316660      1.798533
  H      -0.153367     -3.750300     -0.893969
  H       1.482183      0.199271     -1.255306
  H      -2.493907     -1.784984     -4.440739
  H      -3.852493     -1.224446     -3.404074
  H      -3.144461     -2.845630     -3.146316
  H      -1.034739      0.338725     -3.745818
  H      -0.987595      0.781599     -1.984204
  H      -2.518719      0.871955     -2.900105
  H      -2.817137     -2.206216     -0.652784
  H      -3.500042     -0.581201     -0.989596
  H      -1.881029     -0.707714     -0.220620
  H       0.211003      3.589891      0.543107
  H       1.825187      3.564242     -0.236900
  H       1.571507      4.532810      1.256241
  H      -0.119455      2.417384      2.830277
  H       1.253361      3.355075      3.507097
  H       1.255595      1.560295      3.608497
  H       3.758190      2.231617      0.829020
  H       3.522886      1.447381      2.423775
  H       3.576821      3.242868      2.302152
  Si      2.494720     -4.161967      0.870299
  C       3.447285     -5.690709      0.250666
  C       3.176607     -3.625939      2.556186
  C       0.671324     -4.695748      1.125752
  H       4.508545     -5.440355      0.042128
  H       2.997397     -6.081086     -0.686588
  H       3.429901     -6.504551      1.008880
  H       2.651573     -2.728706      2.935684
  H       4.255634     -3.385436      2.485319
  H       3.053122     -4.444597      3.297762
  H       0.008902     -3.843416      1.363624
  H       0.615076     -5.396784      1.989264
  H       0.266758     -5.253042      0.258392
  H       3.927270     -2.814859     -0.205474
  C       4.587780     -3.692712     -3.467328
  C       4.580587     -2.359781     -3.693813
  H       4.181448     -4.120291     -2.530629
  H       4.991123     -4.411228     -4.203876
  Si      5.225128     -1.486855     -5.240159
  H       4.158655     -1.720767     -2.886741
  C       6.010461     -2.751770     -6.415288
  C       6.499875     -0.176833     -4.731985
  C       3.764088     -0.620680     -6.096933
  H       6.865625     -3.268670     -5.933442
  H       6.389944     -2.253433     -7.331444
  H       5.280660     -3.526130     -6.732497
  H       7.375610     -0.639310     -4.232512
  H       6.057384      0.557571     -4.026613
  H       6.866191      0.384366     -5.617116
  H       3.002005     -1.353865     -6.435670
  H       4.106103     -0.051691     -6.987396
  H       3.268086      0.097629     -5.409014
  H       0.803164     -2.786546     -4.054519
  H       2.025209     -1.107073      0.992297
71
Coordinates from ORCA-job my_molecule E -2465.716195920305
  Pt      2.521551     -2.446707     -0.651444
  O      -0.393178      0.801089      0.511783
  O       0.879442     -1.434460     -1.692154
  P       1.097752      0.847890      0.747554
  P      -0.329168     -2.113027     -2.380230
  O      -0.647865     -3.555167     -1.701949
  O      -0.039995     -2.425305     -3.949985
  O       1.963776      0.833837     -0.656963
  O       1.696846     -0.394580      1.629976
  C       1.698461      2.365051      1.616366
  C      -1.885951     -1.145895     -2.415842
  C      -2.831277     -1.795074     -3.444001
  C      -1.532494      0.305461     -2.810206
  C      -2.505342     -1.172662     -1.002420
  C       1.296943      3.570488      0.735781
  C       0.964375      2.414958      2.968972
  C       3.220903      2.315931      1.821612
  H      -0.086490     -3.726661     -0.910540
  H       1.524335      0.171232     -1.248742
  H      -2.414625     -1.765340     -4.464752
  H      -3.786978     -1.229480     -3.440470
  H      -3.053326     -2.850789     -3.188470
  H      -0.989256      0.359612     -3.775973
  H      -0.940541      0.796450     -2.007343
  H      -2.476127      0.872311     -2.924937
  H      -2.761877     -2.204091     -0.691031
  H      -3.441371     -0.586700     -1.036896
  H      -1.835377     -0.694772     -0.252753
  H       0.209341      3.564688      0.525450
  H       1.832837      3.553138     -0.235522
  H       1.551869      4.516497      1.258124
  H      -0.133803      2.395632      2.824325
  H       1.234017      3.349341      3.508983
  H       1.240993      1.554173      3.611183
  H       3.755945      2.232425      0.856047
  H       3.512871      1.449517      2.451050
  H       3.560404      3.246211      2.327528
  Si      2.491748     -4.158152      0.893088
  C       3.449152     -5.688708      0.289750
  C       3.158667     -3.618259      2.589916
  C       0.662406     -4.687345      1.125912
  H       4.506701     -5.437182      0.075210
  H       3.002043     -6.092495     -0.640564
  H       3.436458     -6.491935      1.056010
  H       2.624372     -2.720981      2.963813
  H       4.238456     -3.373905      2.529958
  H       3.031183     -4.433911      3.330160
  H      -0.008484     -3.831617      1.351962
  H       0.599931     -5.380893      1.993057
  H       0.266437     -5.251825      0.252706
  H       3.941931     -2.838453     -0.162633
  C       4.556849     -3.700317     -3.462479
  C       4.547339     -2.368660     -3.683346
  H       4.165708     -4.128897     -2.521055
  H       4.946684     -4.416539     -4.207979
  Si      5.162382     -1.488250     -5.236590
  H       4.141597     -1.731861     -2.865595
  C       5.927124     -2.744214     -6.433629
  C       6.442772     -0.180010     -4.745000
  C       3.684609     -0.620988     -6.057986
  H       6.792263     -3.261578     -5.974251
  H       6.286782     -2.240002     -7.353351
  H       5.194246     -3.517206     -6.739950
  H       7.327053     -0.642907     -4.263680
  H       6.011463      0.549587     -4.028857
  H       6.793412      0.385211     -5.633026
  H       2.918139     -1.351559     -6.380998
  H       4.006222     -0.050340     -6.952250
  H       3.202368      0.094398     -5.360126
  H       0.875910     -2.762264     -4.088891
  H       2.052770     -1.109915      1.010672
71
Coordinates from ORCA-job my_molecule E -2465.716583201414
  Pt      2.525949     -2.429632     -0.635972
  O      -0.389359      0.813478      0.541748
  O       0.894626     -1.409855     -1.692537
  P       1.108083      0.863595      0.759752
  P      -0.288622     -2.118871     -2.390330
  O      -0.587385     -3.563690     -1.709615
  O       0.033570     -2.418569     -3.952238
  O       1.966111      0.864300     -0.651157
  O       1.706466     -0.387396      1.631466
  C       1.697172      2.377105      1.628958
  C      -1.862493     -1.179077     -2.435490
  C      -2.804179     -1.857190     -3.449223
  C      -1.533973      0.274012     -2.840021
  C      -2.476253     -1.195922     -1.016011
  C       1.278400      3.575348      0.756016
  C       0.968833      2.424587      2.989477
  C       3.225299      2.339340      1.823500
  H      -0.037955     -3.716562     -0.904753
  H       1.526662      0.210398     -1.251234
  H      -2.398299     -1.830325     -4.476095
  H      -3.769725     -1.311011     -3.440480
  H      -3.007056     -2.914594     -3.182220
  H      -0.996800      0.334001     -3.807342
  H      -0.950516      0.778938     -2.045743
  H      -2.489067      0.823572     -2.947947
  H      -2.721219     -2.223996     -0.688534
  H      -3.424857     -0.619105     -1.050815
  H      -1.808898     -0.701544     -0.277208
  H       0.185500      3.559555      0.564488
  H       1.801301      3.563030     -0.222491
  H       1.533011      4.524988      1.273839
  H      -0.134109      2.398791      2.854813
  H       1.236930      3.361112      3.522346
  H       1.256766      1.570099      3.630454
  H       3.759575      2.264497      0.853160
  H       3.527565      1.476307      2.446213
  H       3.560796      3.270697      2.330536
  Si      2.480484     -4.147429      0.895999
  C       3.412006     -5.690068      0.276908
  C       3.158282     -3.626209      2.594028
  C       0.647866     -4.657128      1.129182
  H       4.474031     -5.460536      0.061455
  H       2.955615     -6.080421     -0.655085
  H       3.384373     -6.498632      1.036764
  H       2.640109     -2.715648      2.966282
  H       4.241587     -3.406278      2.534310
  H       3.012864     -4.440287      3.335169
  H      -0.019232     -3.791832      1.339420
  H       0.570485     -5.343083      1.999522
  H       0.257131     -5.223427      0.253563
  H       3.939682     -2.837043     -0.148840
  C       4.511296     -3.697191     -3.473360
  C       4.520013     -2.363305     -3.685539
  H       4.124785     -4.126752     -2.529437
  H       4.888277     -4.413830     -4.225340
  Si      5.146760     -1.484632     -5.236217
  H       4.130014     -1.724964     -2.861742
  C       5.865936     -2.754567     -6.445769
  C       6.469731     -0.218687     -4.738039
  C       3.690486     -0.561160     -6.045832
  H       6.718268     -3.306130     -5.989743
  H       6.238431     -2.248991     -7.363044
  H       5.106621     -3.503080     -6.759729
  H       7.342360     -0.715420     -4.262653
  H       6.066934      0.518908     -4.014537
  H       6.832153      0.345988     -5.624022
  H       2.897116     -1.268155     -6.377227
  H       4.023744      0.014446     -6.937288
  H       3.235073      0.159196     -5.337366
  H       0.954135     -2.746930     -4.080806
  H       2.085044     -1.093886      1.011792
71
Coordinates from ORCA-job my_molecule E -2465.717285519660
  Pt      2.586062     -2.454207     -0.580331
  O      -0.363158      0.740068      0.598819
  O       0.970180     -1.449975     -1.676790
  P       1.136723      0.831221      0.795082
  P      -0.196010     -2.137165     -2.416403
  O      -0.553518     -3.571638     -1.744480
  O       0.182636     -2.456820     -3.962870
  O       1.973150      0.837912     -0.628696
  O       1.777949     -0.390838      1.679641
  C       1.701443      2.373247      1.628558
  C      -1.744254     -1.155391     -2.519000
  C      -2.674376     -1.804928     -3.571118
  C      -1.362104      0.287169     -2.911395
  C      -2.412190     -1.164409     -1.124297
  C       1.258581      3.547721      0.734226
  C       0.979701      2.446125      2.990250
  C       3.229226      2.359933      1.813645
  H      -0.031361     -3.734428     -0.922661
  H       1.550084      0.149847     -1.207522
  H      -2.232043     -1.787697     -4.588683
  H      -3.628539     -1.239394     -3.597183
  H      -2.919622     -2.855278     -3.309086
  H      -0.779836      0.332268     -3.853978
  H      -0.803265      0.781961     -2.097211
  H      -2.303584      0.858890     -3.064771
  H      -2.696762     -2.188000     -0.806311
  H      -3.344458     -0.560576     -1.193486
  H      -1.761634     -0.692590     -0.363245
  H       0.166635      3.509681      0.553494
  H       1.771469      3.521259     -0.245068
  H       1.497556      4.511609      1.227969
  H      -0.120734      2.399858      2.862137
  H       1.235302      3.400578      3.496195
  H       1.285236      1.611170      3.650288
  H       3.757255      2.269467      0.844562
  H       3.548400      1.518922      2.454872
  H       3.553607      3.307886      2.292544
  Si      2.498834     -4.177888      0.949327
  C       3.428517     -5.723066      0.339113
  C       3.153487     -3.676843      2.661786
  C       0.656171     -4.669865      1.145773
  H       4.493080     -5.494252      0.122520
  H       2.972671     -6.120224     -0.592803
  H       3.400696     -6.529657      1.105847
  H       2.644805     -2.760013      3.024395
  H       4.243984     -3.472336      2.624262
  H       2.977407     -4.492423      3.402152
  H       0.001922     -3.800004      1.354160
  H       0.555890     -5.368863      2.005612
  H       0.271498     -5.220053      0.259919
  H       3.988279     -2.862664     -0.064454
  C       4.438688     -3.698314     -3.449336
  C       4.437766     -2.362156     -3.648090
  H       4.084439     -4.139840     -2.496929
  H       4.793712     -4.405741     -4.220801
  Si      5.005969     -1.461049     -5.209234
  H       4.073172     -1.732161     -2.807459
  C       5.724945     -2.705206     -6.447384
  C       6.307905     -0.167431     -4.735311
  C       3.507774     -0.573157     -5.970437
  H       6.606281     -3.229633     -6.025363
  H       6.051296     -2.188737     -7.372104
  H       4.982396     -3.474177     -6.738551
  H       7.202507     -0.644471     -4.284443
  H       5.903828      0.556349     -3.997577
  H       6.637922      0.407602     -5.626032
  H       2.725831     -1.297496     -6.284180
  H       3.801303      0.014157     -6.866616
  H       3.051069      0.130726     -5.243502
  H       1.083141     -2.830228     -4.034602
  H       2.173378     -1.101097      1.064738
71
Coordinates from ORCA-job my_molecule E -2465.718225454487
  Pt      2.641579     -2.471200     -0.530444
  O      -0.352116      0.706969      0.636812
  O       1.064419     -1.480926     -1.685624
  P       1.144073      0.824631      0.822951
  P      -0.072037     -2.175234     -2.462869
  O      -0.454605     -3.606503     -1.793055
  O       0.371069     -2.513349     -3.988589
  O       1.966586      0.855902     -0.611335
  O       1.802196     -0.386518      1.704284
  C       1.711210      2.371009      1.655114
  C      -1.605986     -1.179081     -2.631503
  C      -2.495073     -1.830389     -3.718270
  C      -1.202005      0.257016     -3.019703
  C      -2.326489     -1.162842     -1.266429
  C       1.262858      3.543609      0.757253
  C       0.998158      2.452952      3.018065
  C       3.238510      2.359142      1.835855
  H       0.019060     -3.745658     -0.936987
  H       1.580384      0.133122     -1.174403
  H      -2.015276     -1.816108     -4.719451
  H      -3.449189     -1.267267     -3.781601
  H      -2.748695     -2.878678     -3.463613
  H      -0.575963      0.287854     -3.932114
  H      -0.681597      0.760797     -2.183728
  H      -2.132522      0.830751     -3.225027
  H      -2.634161     -2.179646     -0.944764
  H      -3.242525     -0.546128     -1.382712
  H      -1.704479     -0.681372     -0.483941
  H       0.168434      3.502449      0.587421
  H       1.760322      3.513215     -0.226827
  H       1.510408      4.511525      1.244207
  H      -0.099709      2.402992      2.889421
  H       1.256190      3.410248      3.513012
  H       1.307223      1.625088      3.690624
  H       3.758541      2.265547      0.864523
  H       3.559672      1.522145      2.484915
  H       3.567814      3.308809      2.306417
  Si      2.506190     -4.183309      1.012139
  C       3.408803     -5.745455      0.403151
  C       3.165884     -3.693902      2.729287
  C       0.648206     -4.628801      1.202834
  H       4.475411     -5.529666      0.178457
  H       2.945385     -6.144782     -0.524225
  H       3.377675     -6.547934      1.174394
  H       2.669640     -2.770799      3.093709
  H       4.260467     -3.500013      2.694865
  H       2.976922     -4.507017      3.464636
  H       0.020151     -3.740130      1.397782
  H       0.521775     -5.319912      2.069663
  H       0.253671     -5.176405      0.317365
  H       4.026155     -2.886601      0.027181
  C       4.324813     -3.694342     -3.439946
  C       4.329448     -2.355760     -3.619055
  H       4.008038     -4.146344     -2.479460
  H       4.645358     -4.392843     -4.234719
  Si      4.844301     -1.431625     -5.186032
  H       4.003746     -1.733112     -2.756818
  C       5.512599     -2.657060     -6.469790
  C       6.167870     -0.153629     -4.733419
  C       3.322320     -0.526875     -5.873127
  H       6.403322     -3.197611     -6.085168
  H       5.815987     -2.121162     -7.394186
  H       4.752430     -3.414691     -6.756898
  H       7.073297     -0.643673     -4.319342
  H       5.792755      0.560846     -3.971414
  H       6.473062      0.432965     -5.624562
  H       2.524295     -1.240465     -6.156650
  H       3.577517      0.064301     -6.773470
  H       2.900777      0.172850     -5.123488
  H       1.266158     -2.901376     -4.010208
  H       2.223603     -1.087296      1.100719
71
Coordinates from ORCA-job my_molecule E -2465.719434268668
  Pt      2.741729     -2.512847     -0.452062
  O      -0.328864      0.631450      0.680699
  O       1.218848     -1.535810     -1.676243
  P       1.165081      0.791365      0.843445
  P       0.119847     -2.206489     -2.534272
  O      -0.297470     -3.656262     -1.914552
  O       0.664687     -2.513356     -4.033236
  O       1.950562      0.842060     -0.614632
  O       1.873645     -0.388891      1.722486
  C       1.715370      2.356818      1.653859
  C      -1.385968     -1.188140     -2.763067
  C      -2.219735     -1.819068     -3.895017
  C      -0.943612      0.241992     -3.121175
  C      -2.164067     -1.163562     -1.430093
  C       1.238403      3.510576      0.737931
  C       1.021505      2.458111      3.018676
  C       3.242519      2.363918      1.811811
  H       0.103332     -3.777878     -1.019183
  H       1.601088      0.087602     -1.156065
  H      -1.692086     -1.781511     -4.865693
  H      -3.174981     -1.258697     -3.990857
  H      -2.475474     -2.871848     -3.672633
  H      -0.273854      0.274757     -4.007706
  H      -0.447442      0.729581     -2.254668
  H      -1.858439      0.827992     -3.356728
  H      -2.502256     -2.172462     -1.123485
  H      -3.061963     -0.531191     -1.589251
  H      -1.576909     -0.681448     -0.610870
  H       0.138593      3.451755      0.586992
  H       1.717554      3.472544     -0.258834
  H       1.482484      4.487437      1.202976
  H      -0.077385      2.397566      2.903296
  H       1.289939      3.427052      3.484442
  H       1.345000      1.648198      3.706903
  H       3.745408      2.251818      0.831083
  H       3.578741      1.544138      2.476296
  H       3.571377      3.328094      2.253604
  Si      2.513731     -4.201774      1.097032
  C       3.391291     -5.782217      0.512491
  C       3.144192     -3.731414      2.828312
  C       0.637767     -4.583375      1.232955
  H       4.459349     -5.583280      0.286123
  H       2.929907     -6.194805     -0.407454
  H       3.354075     -6.568829      1.296504
  H       2.658007     -2.802084      3.188702
  H       4.237655     -3.550774      2.815050
  H       2.931212     -4.541856      3.549369
  H       0.035455     -3.668435      1.390009
  H       0.461240     -5.254557      2.105110
  H       0.257356     -5.131385      0.343508
  H       4.096592     -2.923632      0.179374
  C       4.157170     -3.698355     -3.407902
  C       4.161787     -2.358051     -3.561418
  H       3.898005     -4.165305     -2.436999
  H       4.433045     -4.381113     -4.232243
  Si      4.593390     -1.392585     -5.132527
  H       3.894964     -1.750123     -2.668499
  C       5.203976     -2.577683     -6.479909
  C       5.933414     -0.124112     -4.704285
  C       3.033638     -0.484753     -5.709438
  H       6.117291     -3.115939     -6.159602
  H       5.454682     -2.014655     -7.403270
  H       4.437735     -3.334713     -6.748134
  H       6.854737     -0.621803     -4.342641
  H       5.590865      0.569556     -3.907361
  H       6.202025      0.484754     -5.592380
  H       2.225284     -1.195743     -5.963247
  H       3.232392      0.132381     -6.607432
  H       2.646945      0.190273     -4.916033
  H       1.558706     -2.930810     -3.994099
  H       2.331225     -1.094915      1.158249
71
Coordinates from ORCA-job my_molecule E -2465.720634036268
  Pt      2.758282     -2.517029     -0.430922
  O      -0.346480      0.648652      0.668086
  O       1.245875     -1.509520     -1.658765
  P       1.142913      0.811421      0.840233
  P       0.173879     -2.209135     -2.524704
  O      -0.233132     -3.649021     -1.886343
  O       0.751418     -2.539216     -4.006340
  O       1.952970      0.894171     -0.608234
  O       1.851450     -0.377469      1.711724
  C       1.678204      2.367179      1.695375
  C      -1.336225     -1.207661     -2.805162
  C      -2.155101     -1.898308     -3.912878
  C      -0.904733      0.219007     -3.228203
  C      -2.117900     -1.134860     -1.476658
  C       1.195552      3.543493      0.809894
  C       0.982305      2.432765      3.067366
  C       3.209679      2.371621      1.850329
  H       0.144954     -3.744494     -0.979033
  H       1.628484      0.139414     -1.166506
  H      -1.627573     -1.891853     -4.881403
  H      -3.114948     -1.354720     -4.032629
  H      -2.392835     -2.947531     -3.652077
  H      -0.233122      0.214206     -4.108254
  H      -0.417528      0.760708     -2.382109
  H      -1.813401      0.784552     -3.502841
  H      -2.443256     -2.135371     -1.134487
  H      -3.016355     -0.516044     -1.665445
  H      -1.543632     -0.618402     -0.672654
  H       0.095406      3.488167      0.666892
  H       1.665693      3.530707     -0.194075
  H       1.447107      4.509442      1.299201
  H      -0.117422      2.377382      2.953004
  H       1.255930      3.390434      3.556048
  H       1.304400      1.606293      3.739036
  H       3.707661      2.289533      0.864833
  H       3.545214      1.528569      2.492731
  H       3.542901      3.320198      2.322190
  Si      2.523555     -4.198302      1.123173
  C       3.357356     -5.797589      0.515927
  C       3.191151     -3.734643      2.844260
  C       0.641635     -4.547539      1.295677
  H       4.425483     -5.625847      0.278194
  H       2.877044     -6.196365     -0.399032
  H       3.310172     -6.584416      1.295434
  H       2.725874     -2.790362      3.206653
  H       4.289799     -3.580079      2.813618
  H       2.967644     -4.536185      3.575630
  H       0.053648     -3.615554      1.440161
  H       0.463710     -5.192478      2.183933
  H       0.243704     -5.112453      0.420763
  H       4.119119     -2.932692      0.186330
  C       4.088433     -3.709794     -3.444144
  C       4.121723     -2.365537     -3.590908
  H       3.843007     -4.176920     -2.467105
  H       4.338093     -4.392649     -4.277062
  Si      4.560299     -1.392825     -5.160652
  H       3.887570     -1.757009     -2.686131
  C       5.092202     -2.584088     -6.533376
  C       5.968723     -0.193161     -4.735444
  C       3.029121     -0.404008     -5.695488
  H       5.994421     -3.157972     -6.243165
  H       5.337021     -2.020129     -7.455094
  H       4.294518     -3.309215     -6.787156
  H       6.872058     -0.739989     -4.395082
  H       5.672876      0.504567     -3.923502
  H       6.249348      0.418243     -5.619459
  H       2.178310     -1.074233     -5.940566
  H       3.238335      0.220574     -6.590806
  H       2.692933      0.275891     -4.883639
  H       1.662534     -2.928079     -3.946674
  H       2.336261     -1.063191      1.149605
71
Coordinates from ORCA-job my_molecule E -2465.721610419704
  Pt      2.785411     -2.524683     -0.387470
  O      -0.353277      0.640221      0.695403
  O       1.290112     -1.482216     -1.616994
  P       1.138663      0.811450      0.846178
  P       0.250572     -2.191283     -2.514747
  O      -0.151874     -3.635825     -1.878052
  O       0.863200     -2.511382     -3.978166
  O       1.965211      0.874180     -0.587440
  O       1.854563     -0.369825      1.736699
  C       1.651991      2.386960      1.688034
  C      -1.271259     -1.230424     -2.835953
  C      -2.077552     -1.964781     -3.933235
  C      -0.864115      0.198403     -3.277577
  C      -2.066551     -1.157694     -1.513803
  C       1.153727      3.552224      0.803962
  C       0.956825      2.452185      3.061776
  C       3.187480      2.400979      1.829577
  H       0.204615     -3.732501     -0.965164
  H       1.670641      0.085477     -1.122448
  H      -1.548334     -1.970819     -4.903401
  H      -3.045338     -1.444171     -4.069358
  H      -2.296992     -3.016198     -3.651614
  H      -0.191048      0.195744     -4.150888
  H      -0.385126      0.746855     -2.437897
  H      -1.780297      0.750177     -3.556030
  H      -2.365698     -2.164104     -1.160164
  H      -2.989449     -0.567223     -1.718264
  H      -1.511947     -0.630059     -0.710135
  H       0.054392      3.493619      0.670626
  H       1.620522      3.534072     -0.205354
  H       1.399382      4.520650      1.288066
  H      -0.148056      2.398724      2.954528
  H       1.227639      3.407519      3.549774
  H       1.282531      1.628236      3.728661
  H       3.678928      2.312992      0.840776
  H       3.531912      1.562106      2.468934
  H       3.517009      3.351689      2.298372
  Si      2.524034     -4.212929      1.154673
  C       3.321470     -5.827948      0.528191
  C       3.203544     -3.771655      2.877241
  C       0.632096     -4.524551      1.327614
  H       4.393283     -5.681339      0.286210
  H       2.824570     -6.208965     -0.388126
  H       3.260695     -6.618951      1.305525
  H       2.752452     -2.823350      3.244983
  H       4.307691     -3.641608      2.846771
  H       2.961661     -4.572690      3.608675
  H       0.063298     -3.579368      1.474850
  H       0.437938     -5.160210      2.214510
  H       0.223823     -5.083174      0.454478
  H       4.147665     -2.947650      0.213278
  C       4.012220     -3.711758     -3.471079
  C       4.074301     -2.361939     -3.603190
  H       3.783376     -4.185602     -2.490301
  H       4.229943     -4.389243     -4.317787
  Si      4.516983     -1.369071     -5.165268
  H       3.877908     -1.766208     -2.677978
  C       4.939264     -2.557167     -6.574008
  C       6.009312     -0.262761     -4.752286
  C       3.025652     -0.273457     -5.636653
  H       5.811109     -3.204279     -6.307145
  H       5.207379     -1.977896     -7.489124
  H       4.079786     -3.220239     -6.834834
  H       6.889779     -0.870838     -4.447716
  H       5.777538      0.433802     -3.921114
  H       6.295037      0.354500     -5.630242
  H       2.120798     -0.877687     -5.828344
  H       3.232946      0.326766     -6.538755
  H       2.781970      0.432697     -4.827865
  H       1.800459     -2.846738     -3.920989
  H       2.355916     -1.046518      1.180681
71
Coordinates from ORCA-job my_molecule E -2465.722191548742
  Pt      2.762997     -2.501782     -0.412177
  O      -0.381070      0.716564      0.677395
  O       1.233671     -1.445244     -1.595227
  P       1.112727      0.864670      0.853334
  P       0.198617     -2.169323     -2.490809
  O      -0.187434     -3.608510     -1.836125
  O       0.802502     -2.498299     -3.953508
  O       1.962508      0.960795     -0.557318
  O       1.825875     -0.340932      1.719345
  C       1.609823      2.404017      1.757902
  C      -1.346964     -1.240731     -2.806969
  C      -2.173062     -2.024114     -3.851656
  C      -0.967104      0.171083     -3.306235
  C      -2.106254     -1.139552     -1.462196
  C       1.106474      3.598396      0.931472
  C       0.914900      2.398005      3.133273
  C       3.145028      2.419713      1.894020
  H       0.174989     -3.687037     -0.925797
  H       1.638342      0.215026     -1.130238
  H      -1.666768     -2.061734     -4.833902
  H      -3.150964     -1.520718     -3.981893
  H      -2.369897     -3.068155     -3.524284
  H      -0.318978      0.145347     -4.204009
  H      -0.464761      0.744732     -2.506886
  H      -1.901928      0.708083     -3.567671
  H      -2.368058     -2.138315     -1.063839
  H      -3.056978     -0.590197     -1.656526
  H      -1.539629     -0.571420     -0.691902
  H       0.005702      3.551705      0.803243
  H       1.573966      3.623425     -0.076973
  H       1.355336      4.542937      1.455939
  H      -0.190991      2.356378      3.031238
  H       1.189284      3.327036      3.670401
  H       1.237011      1.541380      3.749723
  H       3.634630      2.373012      0.898149
  H       3.493108      1.556461      2.485958
  H       3.474294      3.350269      2.405442
  Si      2.525014     -4.186253      1.132993
  C       3.280786     -5.819671      0.495260
  C       3.251253     -3.746586      2.824401
  C       0.637562     -4.461362      1.361397
  H       4.358293     -5.702071      0.253895
  H       2.770875     -6.182357     -0.421472
  H       3.193165     -6.613424      1.272007
  H       2.818846     -2.800554      3.200065
  H       4.347175     -3.622573      2.762880
  H       3.027286     -4.545085      3.561385
  H       0.099173     -3.506985      1.530131
  H       0.452840     -5.093473      2.250585
  H       0.192593     -5.000770      0.503698
  H       4.138200     -2.923695      0.158319
  C       4.044093     -3.735865     -3.541910
  C       4.137624     -2.386225     -3.688508
  H       3.794524     -4.195072     -2.558126
  H       4.258098     -4.426261     -4.378283
  Si      4.635302     -1.412991     -5.249842
  H       3.940810     -1.783728     -2.767066
  C       5.063696     -2.617549     -6.644750
  C       6.142350     -0.337875     -4.815384
  C       3.178961     -0.294714     -5.755198
  H       5.926455     -3.260220     -6.370768
  H       5.338713     -2.058079     -7.562754
  H       4.207873     -3.276712     -6.897524
  H       7.003549     -0.957534     -4.492799
  H       5.904823      0.367274     -3.993679
  H       6.458882      0.262610     -5.691827
  H       2.266279     -0.886204     -5.976456
  H       3.434098      0.308476     -6.653360
  H       2.926380      0.411317     -4.936749
  H       1.761012     -2.793684     -3.908099
  H       2.336780     -1.001828      1.148933
71
Coordinates from ORCA-job my_molecule E -2465.722006970336
  Pt      2.817596     -2.523225     -0.361837
  O      -0.354342      0.646978      0.675156
  O       1.342718     -1.464412     -1.601529
  P       1.134303      0.833562      0.864065
  P       0.353362     -2.208616     -2.525501
  O      -0.062607     -3.630158     -1.853100
  O       1.007437     -2.575908     -3.957535
  O       1.967854      0.930760     -0.545905
  O       1.845660     -0.348945      1.749398
  C       1.617503      2.378794      1.748569
  C      -1.176628     -1.259639     -2.911280
  C      -1.959927     -2.028974     -3.991288
  C      -0.746195      0.139038     -3.402018
  C      -2.003309     -1.143834     -1.607057
  C       1.112249      3.555825      0.904178
  C       0.919400      2.379388      3.124104
  C       3.148117      2.411658      1.899859
  H       0.253869     -3.685358     -0.917609
  H       1.690127      0.158667     -1.108883
  H      -1.404849     -2.075429     -4.953844
  H      -2.925969     -1.511442     -4.160961
  H      -2.188823     -3.067413     -3.674938
  H      -0.042275      0.087844     -4.262361
  H      -0.282146      0.722331     -2.591647
  H      -1.654154      0.684659     -3.730958
  H      -2.301862     -2.137301     -1.218245
  H      -2.927689     -0.581978     -1.843120
  H      -1.465437     -0.583547     -0.815859
  H       0.014060      3.504557      0.782282
  H       1.571379      3.567264     -0.097954
  H       1.364091      4.512090      1.413098
  H      -0.177433      2.327033      3.017333
  H       1.180302      3.323844      3.650720
  H       1.242990      1.532008      3.759498
  H       3.642525      2.363189      0.909971
  H       3.501648      1.559431      2.508638
  H       3.470191      3.345818      2.398793
  Si      2.527622     -4.188525      1.202386
  C       3.252081     -5.836990      0.573866
  C       3.252558     -3.751017      2.900771
  C       0.630674     -4.399340      1.423484
  H       4.327338     -5.732888      0.318660
  H       2.728263     -6.198668     -0.332975
  H       3.167127     -6.623803      1.358015
  H       2.836142     -2.790027      3.260176
  H       4.353718     -3.652003      2.850856
  H       3.003661     -4.537149      3.649755
  H       0.126043     -3.424390      1.570542
  H       0.422551     -5.014586      2.331126
  H       0.164943     -4.936922      0.568656
  H       4.175566     -2.963805      0.240202
  C       3.899543     -3.722428     -3.536533
  C       4.005877     -2.376730     -3.659570
  H       3.692409     -4.189131     -2.552243
  H       4.059489     -4.401521     -4.393404
  Si      4.446688     -1.368348     -5.212441
  H       3.859721     -1.798219     -2.715943
  C       4.808881     -2.534925     -6.659540
  C       5.971302     -0.318066     -4.807836
  C       2.983545     -0.230869     -5.616088
  H       5.684660     -3.171578     -6.457247
  H       5.025115     -1.959482     -7.572478
  H       3.956319     -3.193289     -6.876218
  H       6.839169     -0.950363     -4.543181
  H       5.769912      0.361342     -3.954477
  H       6.256898      0.305193     -5.677886
  H       2.061083     -0.821195     -5.864138
  H       3.228777      0.437076     -6.489809
  H       2.748756      0.419965     -4.730746
  H       1.947963     -2.887377     -3.870990
  H       2.376183     -1.005249      1.185105
71
Coordinates from ORCA-job my_molecule E -2465.723592220128
  Pt      2.791015     -2.510878     -0.388792
  O      -0.374994      0.657902      0.679253
  O       1.284096     -1.455014     -1.597781
  P       1.115682      0.832856      0.868719
  P       0.270984     -2.183583     -2.515658
  O      -0.141654     -3.619656     -1.868510
  O       0.885312     -2.525332     -3.970170
  O       1.957597      0.919637     -0.539670
  O       1.830083     -0.356424      1.743349
  C       1.611883      2.379682      1.750458
  C      -1.262999     -1.239097     -2.858026
  C      -2.064414     -1.996390     -3.933366
  C      -0.852919      0.170633     -3.344191
  C      -2.063996     -1.151153     -1.539274
  C       1.103331      3.570738      0.907717
  C       0.920540      2.370453      3.125393
  C       3.142092      2.413953      1.895907
  H       0.213334     -3.698871     -0.949663
  H       1.653758      0.172343     -1.124031
  H      -1.529257     -2.028068     -4.905866
  H      -3.034516     -1.476344     -4.077796
  H      -2.285459     -3.035133     -3.628392
  H      -0.175890      0.131846     -4.224734
  H      -0.361805      0.753992     -2.535944
  H      -1.769046      0.713176     -3.646978
  H      -2.343596     -2.156282     -1.164079
  H      -3.000849     -0.594686     -1.745275
  H      -1.514575     -0.601453     -0.749197
  H       0.004561      3.521349      0.778503
  H       1.568937      3.588337     -0.096813
  H       1.348683      4.525027      1.419977
  H      -0.178799      2.319261      3.018253
  H       1.179265      3.309273      3.661063
  H       1.248176      1.512580      3.751227
  H       3.634738      2.369051      0.905319
  H       3.501261      1.557211      2.501040
  H       3.459207      3.350971      2.396370
  Si      2.534115     -4.180903      1.177411
  C       3.290903     -5.816859      0.561115
  C       3.244169     -3.728969      2.877265
  C       0.644727     -4.432524      1.391059
  H       4.365719     -5.700303      0.315200
  H       2.778820     -6.187463     -0.348270
  H       3.207132     -6.599597      1.345344
  H       2.812941     -2.767095      3.228495
  H       4.346254     -3.619716      2.834006
  H       3.000606     -4.514827      3.631409
  H       0.112117     -3.467828      1.539042
  H       0.456852     -5.053824      2.296134
  H       0.189623     -4.982552      0.537113
  H       4.156348     -2.945169      0.207528
  C       3.997191     -3.732538     -3.542942
  C       4.087202     -2.389079     -3.677519
  H       3.769810     -4.189557     -2.559807
  H       4.182270     -4.419468     -4.388031
  Si      4.542791     -1.397398     -5.232336
  H       3.911523     -1.806163     -2.743986
  C       4.909118     -2.580118     -6.663012
  C       6.064927     -0.346720     -4.825136
  C       3.087191     -0.255664     -5.657515
  H       5.766929     -3.244502     -6.428714
  H       5.166688     -2.005781     -7.577191
  H       4.035670     -3.219656     -6.905702
  H       6.930750     -0.982851     -4.553042
  H       5.862782      0.337284     -3.974082
  H       6.353408      0.278179     -5.696782
  H       2.165648     -0.836564     -5.864001
  H       3.318670      0.363650     -6.548819
  H       2.873031      0.435117     -4.815061
  H       1.828866     -2.831611     -3.916515
  H       2.349754     -1.007588      1.161088
71
Coordinates from ORCA-job my_molecule E -2465.723747903617
  Pt      2.806850     -2.502473     -0.384326
  O      -0.378780      0.665216      0.712466
  O       1.285024     -1.452124     -1.580188
  P       1.106352      0.850778      0.890469
  P       0.288174     -2.186451     -2.515438
  O      -0.119682     -3.629745     -1.879364
  O       0.922713     -2.513505     -3.965223
  O       1.961706      0.960201     -0.519868
  O       1.842736     -0.346516      1.758893
  C       1.587275      2.401675      1.786509
  C      -1.246970     -1.259687     -2.876571
  C      -2.042922     -2.046930     -3.944098
  C      -0.859290      0.148153     -3.372105
  C      -2.041623     -1.153189     -1.553988
  C       1.063502      3.595439      0.962195
  C       0.900269      2.368269      3.164652
  C       3.120826      2.451351      1.925262
  H       0.215432     -3.711263     -0.957860
  H       1.669350      0.200423     -1.092471
  H      -1.512630     -2.085497     -4.911287
  H      -3.017845     -1.544934     -4.100787
  H      -2.244404     -3.090052     -3.617696
  H      -0.191563      0.116445     -4.252955
  H      -0.371910      0.727833     -2.564327
  H      -1.789419      0.687658     -3.659492
  H      -2.308608     -2.153809     -1.164898
  H      -2.988218     -0.610653     -1.767602
  H      -1.495501     -0.582601     -0.762733
  H      -0.038181      3.537801      0.833788
  H       1.528103      3.630147     -0.045991
  H       1.304746      4.543442      1.487034
  H      -0.205173      2.314486      3.058133
  H       1.158432      3.292341      3.715739
  H       1.234338      1.504929      3.769651
  H       3.611997      2.416647      0.929386
  H       3.488904      1.595185      2.521008
  H       3.429356      3.390526      2.434269
  Si      2.532538     -4.171990      1.180015
  C       3.253350     -5.824551      0.561015
  C       3.268311     -3.738274      2.870281
  C       0.640169     -4.391647      1.407876
  H       4.331880     -5.730264      0.317276
  H       2.731377     -6.183186     -0.350849
  H       3.152237     -6.607021      1.345632
  H       2.851450     -2.781957      3.238552
  H       4.370253     -3.631915      2.812520
  H       3.032430     -4.527507      3.612242
  H       0.133245     -3.420007      1.574148
  H       0.444229     -5.016375      2.300762
  H       0.168169     -4.918680      0.553665
  H       4.172902     -2.940886      0.200817
  C       3.963644     -3.738731     -3.573747
  C       4.077967     -2.393860     -3.706876
  H       3.738123     -4.194817     -2.586533
  H       4.131642     -4.427297     -4.421611
  Si      4.549886     -1.406748     -5.262723
  H       3.921133     -1.811633     -2.768962
  C       4.874599     -2.596733     -6.696683
  C       6.107990     -0.401791     -4.859713
  C       3.120421     -0.223552     -5.678424
  H       5.719394     -3.281784     -6.469755
  H       5.138194     -2.027615     -7.613217
  H       3.982256     -3.214589     -6.932180
  H       6.958128     -1.063683     -4.591204
  H       5.930015      0.286070     -4.007730
  H       6.410756      0.216153     -5.732027
  H       2.179264     -0.774321     -5.864089
  H       3.356407      0.377883     -6.575835
  H       2.939422      0.480362     -4.844365
  H       1.885525     -2.787075     -3.895379
  H       2.373640     -0.978248      1.179004
71
Coordinates from ORCA-job my_molecule E -2465.724280080209
  Pt      2.808733     -2.502219     -0.379040
  O      -0.389221      0.664187      0.703500
  O       1.289470     -1.445881     -1.562487
  P       1.098838      0.842471      0.883171
  P       0.303513     -2.173869     -2.512590
  O      -0.093411     -3.626566     -1.890516
  O       0.938944     -2.471685     -3.967513
  O       1.947969      0.935816     -0.526219
  O       1.826092     -0.345375      1.755718
  C       1.586143      2.397021      1.767654
  C      -1.244638     -1.256354     -2.856966
  C      -2.033023     -2.027850     -3.936234
  C      -0.862744      0.160861     -3.329321
  C      -2.044743     -1.187528     -1.537345
  C       1.063521      3.584670      0.939370
  C       0.901649      2.364988      3.149191
  C       3.117976      2.451399      1.910642
  H       0.249708     -3.716827     -0.970796
  H       1.652883      0.177298     -1.098358
  H      -1.499517     -2.048273     -4.905842
  H      -3.009806     -1.525709     -4.083627
  H      -2.233043     -3.075537     -3.626605
  H      -0.194571      0.143715     -4.213036
  H      -0.372442      0.728754     -2.517472
  H      -1.789366      0.703917     -3.607827
  H      -2.301792     -2.201723     -1.170673
  H      -2.996826     -0.653156     -1.737401
  H      -1.508310     -0.631458     -0.739168
  H      -0.035154      3.528613      0.812606
  H       1.526357      3.612351     -0.068044
  H       1.307594      4.535131      1.459546
  H      -0.200819      2.311901      3.043824
  H       1.158244      3.291427      3.702946
  H       1.233790      1.499542      3.754651
  H       3.610887      2.418350      0.918074
  H       3.487668      1.597386      2.511631
  H       3.423132      3.389125      2.418018
  Si      2.529238     -4.170938      1.187084
  C       3.260451     -5.821014      0.579822
  C       3.244385     -3.724427      2.888920
  C       0.635391     -4.396721      1.395444
  H       4.338901     -5.727258      0.340157
  H       2.742394     -6.181777     -0.332511
  H       3.155529     -6.599249      1.366662
  H       2.817338     -2.766425      3.249670
  H       4.348029     -3.613461      2.845812
  H       3.005268     -4.511681      3.633040
  H       0.121159     -3.426037      1.554549
  H       0.436514     -5.021614      2.291513
  H       0.168965     -4.929928      0.537625
  H       4.173913     -2.940997      0.208689
  C       3.968522     -3.742553     -3.587719
  C       4.081654     -2.398363     -3.718275
  H       3.745792     -4.195549     -2.599691
  H       4.130248     -4.431585     -4.436300
  Si      4.552326     -1.407717     -5.270180
  H       3.926861     -1.823693     -2.775594
  C       4.857180     -2.592851     -6.712368
  C       6.119089     -0.420136     -4.870833
  C       3.133929     -0.209422     -5.670539
  H       5.694151     -3.287954     -6.493218
  H       5.122472     -2.023202     -7.627726
  H       3.957496     -3.199460     -6.945990
  H       6.965354     -1.090103     -4.615338
  H       5.952248      0.261462     -4.012403
  H       6.419752      0.201296     -5.739981
  H       2.186786     -0.754309     -5.871673
  H       3.381036      0.407566     -6.561778
  H       2.956551      0.481707     -4.819537
  H       1.905781     -2.725258     -3.914212
  H       2.355920     -0.984011      1.185507
71
Coordinates from ORCA-job my_molecule E -2465.724376735696
  Pt      2.820714     -2.499376     -0.385086
  O      -0.379531      0.620500      0.702521
  O       1.305146     -1.452860     -1.576284
  P       1.106231      0.822098      0.905256
  P       0.326913     -2.193004     -2.522730
  O      -0.093892     -3.630790     -1.890998
  O       0.967124     -2.525641     -3.969306
  O       1.956290      0.930605     -0.499254
  O       1.847493     -0.355689      1.778135
  C       1.560811      2.377096      1.786694
  C      -1.209894     -1.249221     -2.872923
  C      -1.998517     -1.999062     -3.959672
  C      -0.794842      0.159533     -3.350669
  C      -2.023037     -1.177958     -1.561296
  C       1.025639      3.558648      0.957965
  C       0.868883      2.329744      3.165392
  C       3.089165      2.458193      1.941153
  H       0.247954     -3.717486     -0.970125
  H       1.661908      0.181432     -1.085644
  H      -1.453284     -2.027650     -4.924876
  H      -2.967894     -1.475937     -4.112488
  H      -2.223858     -3.036942     -3.655102
  H      -0.118574      0.118001     -4.234150
  H      -0.292075      0.737338     -2.544288
  H      -1.704448      0.713910     -3.648736
  H      -2.297289     -2.191115     -1.200703
  H      -2.966188     -0.635445     -1.764946
  H      -1.487747     -0.631054     -0.759307
  H      -0.071574      3.489744      0.825374
  H       1.495394      3.591758     -0.041985
  H       1.251284      4.513762      1.477438
  H      -0.227901      2.258326      3.056031
  H       1.102448      3.261295      3.728289
  H       1.211715      1.462057      3.765430
  H       3.593033      2.436678      0.955768
  H       3.471738      1.610706      2.542071
  H       3.371460      3.403985      2.448743
  Si      2.539715     -4.146906      1.200910
  C       3.253878     -5.807090      0.606518
  C       3.265654     -3.691326      2.892146
  C       0.649799     -4.352474      1.425029
  H       4.331718     -5.722848      0.360548
  H       2.727917     -6.168250     -0.299569
  H       3.145025     -6.579891      1.398446
  H       2.852224     -2.721402      3.237812
  H       4.367296     -3.595579      2.845529
  H       3.017620     -4.467353      3.651161
  H       0.147180     -3.376759      1.579943
  H       0.457687     -4.974105      2.330093
  H       0.164460     -4.886712      0.578323
  H       4.177634     -2.955994      0.214793
  C       3.946327     -3.746063     -3.610028
  C       4.068997     -2.404137     -3.735926
  H       3.730779     -4.192654     -2.620161
  H       4.086037     -4.436902     -4.460697
  Si      4.531060     -1.411866     -5.286048
  H       3.927501     -1.836713     -2.788809
  C       4.792917     -2.593329     -6.739919
  C       6.116050     -0.453156     -4.903144
  C       3.128138     -0.189520     -5.656671
  H       5.616860     -3.308764     -6.536179
  H       5.059223     -2.024106     -7.655110
  H       3.877793     -3.178498     -6.966722
  H       6.955897     -1.138321     -4.669798
  H       5.974021      0.221143     -4.034091
  H       6.411655      0.172489     -5.769994
  H       2.171904     -0.716337     -5.839455
  H       3.366150      0.419084     -6.550922
  H       2.977642      0.506108     -4.806302
  H       1.919050     -2.813409     -3.900964
  H       2.387705     -0.981287      1.185653
71
Coordinates from ORCA-job my_molecule E -2465.724753415782
  Pt      2.820500     -2.492455     -0.385219
  O      -0.375958      0.622445      0.716874
  O       1.303130     -1.446566     -1.573407
  P       1.108639      0.823154      0.911543
  P       0.329123     -2.184741     -2.530322
  O      -0.067379     -3.639837     -1.917392
  O       0.968731     -2.482693     -3.980925
  O       1.962234      0.928094     -0.493549
  O       1.852070     -0.354440      1.780447
  C       1.569513      2.381465      1.792019
  C      -1.223546     -1.268341     -2.871044
  C      -2.000761     -2.028015     -3.965978
  C      -0.847226      0.155653     -3.329870
  C      -2.033105     -1.221776     -1.557924
  C       1.028756      3.564887      0.964604
  C       0.885372      2.327947      3.172080
  C       3.097822      2.468336      1.942526
  H       0.268998     -3.735696     -0.994926
  H       1.661936      0.182865     -1.082097
  H      -1.458044     -2.040054     -4.931570
  H      -2.977464     -1.524084     -4.117244
  H      -2.206679     -3.073873     -3.667024
  H      -0.176123      0.144602     -4.213026
  H      -0.359931      0.728307     -2.517030
  H      -1.774174      0.697036     -3.614641
  H      -2.286551     -2.242511     -1.206976
  H      -2.988112     -0.694672     -1.752429
  H      -1.499953     -0.673202     -0.750784
  H      -0.067935      3.493938      0.830635
  H       1.497102      3.600693     -0.039354
  H       1.253146      4.519170      1.485659
  H      -0.213931      2.256875      3.063530
  H       1.120311      3.252985      3.741232
  H       1.231131      1.456646      3.764937
  H       3.598991      2.449828      0.955049
  H       3.486161      1.622504      2.542654
  H       3.375557      3.415585      2.451384
  Si      2.529067     -4.133608      1.204909
  C       3.234521     -5.800775      0.618020
  C       3.255810     -3.680074      2.897707
  C       0.637574     -4.326177      1.425301
  H       4.314295     -5.725677      0.375339
  H       2.708008     -6.159682     -0.289261
  H       3.115996     -6.570655      1.411593
  H       2.847850     -2.705562      3.240621
  H       4.359615     -3.593481      2.851709
  H       3.001559     -4.452551      3.658871
  H       0.139121     -3.346304      1.579115
  H       0.442455     -4.945185      2.329946
  H       0.149168     -4.858692      0.577790
  H       4.172988     -2.959669      0.217552
  C       3.943002     -3.747103     -3.626297
  C       4.076584     -2.405015     -3.749011
  H       3.725392     -4.190784     -2.635135
  H       4.074031     -4.438629     -4.477754
  Si      4.549063     -1.411789     -5.295738
  H       3.940699     -1.841737     -2.798505
  C       4.791305     -2.590470     -6.756057
  C       6.148760     -0.477088     -4.909151
  C       3.162813     -0.168858     -5.659208
  H       5.608309     -3.313950     -6.561187
  H       5.057147     -2.022503     -7.670175
  H       3.870717     -3.165837     -6.978088
  H       6.980136     -1.175175     -4.684036
  H       6.018404      0.191498     -4.032883
  H       6.451134      0.152656     -5.772208
  H       2.198795     -0.683896     -5.854167
  H       3.413599      0.448414     -6.548300
  H       3.016681      0.518965     -4.799038
  H       1.928028     -2.748461     -3.926651
  H       2.389341     -0.978957      1.194023
71
Coordinates from ORCA-job my_molecule E -2465.724863253225
  Pt      2.840987     -2.488419     -0.385345
  O      -0.386896      0.610182      0.729025
  O       1.307356     -1.448539     -1.557679
  P       1.094940      0.822055      0.913472
  P       0.342793     -2.178529     -2.527835
  O      -0.048866     -3.640121     -1.927776
  O       0.984849     -2.450694     -3.985892
  O       1.942637      0.935738     -0.498224
  O       1.852810     -0.354446      1.779310
  C       1.542329      2.387593      1.796905
  C      -1.208061     -1.261552     -2.853754
  C      -2.000027     -2.018243     -3.941458
  C      -0.832006      0.162572     -3.308209
  C      -2.001103     -1.217236     -1.527057
  C       0.985135      3.562745      0.974686
  C       0.860961      2.317780      3.180699
  C       3.071507      2.499814      1.947394
  H       0.296417     -3.740711     -1.010173
  H       1.648766      0.183245     -1.078618
  H      -1.470226     -2.029208     -4.913477
  H      -2.975204     -1.511831     -4.081594
  H      -2.203717     -3.067164     -3.638768
  H      -0.182353      0.159747     -4.207470
  H      -0.320332      0.711835     -2.498217
  H      -1.761361      0.718507     -3.553808
  H      -2.249570     -2.240728     -1.178765
  H      -2.959850     -0.690611     -1.712216
  H      -1.470915     -0.666419     -0.717775
  H      -0.111212      3.474186      0.840676
  H       1.451206      3.608839     -0.029870
  H       1.200997      4.517775      1.500261
  H      -0.238999      2.232940      3.073976
  H       1.087817      3.238418      3.757131
  H       1.217251      1.448095      3.767013
  H       3.574670      2.492523      0.960065
  H       3.472356      1.660061      2.548675
  H       3.331342      3.448112      2.460330
  Si      2.527679     -4.130077      1.204666
  C       3.231913     -5.802371      0.634339
  C       3.239657     -3.673826      2.906030
  C       0.631507     -4.327640      1.400007
  H       4.314264     -5.737487      0.402357
  H       2.710033     -6.160900     -0.277201
  H       3.099270     -6.566729      1.430071
  H       2.827774     -2.705456      3.253875
  H       4.345850     -3.579980      2.869790
  H       2.984150     -4.449309      3.656177
  H       0.129631     -3.351074      1.558681
  H       0.426560     -4.954983      2.293297
  H       0.153279     -4.853299      0.544508
  H       4.195673     -2.952796      0.210998
  C       3.947565     -3.756930     -3.650311
  C       4.089418     -2.414291     -3.771792
  H       3.732006     -4.197720     -2.656080
  H       4.068155     -4.449084     -4.502414
  Si      4.562893     -1.425854     -5.321150
  H       3.962677     -1.853362     -2.817295
  C       4.767359     -2.608813     -6.783409
  C       6.183949     -0.522403     -4.949127
  C       3.195323     -0.158148     -5.671352
  H       5.568478     -3.352897     -6.592929
  H       5.041907     -2.045822     -7.700488
  H       3.829176     -3.161767     -7.000646
  H       7.004931     -1.236017     -4.734424
  H       6.075654      0.145748     -4.070447
  H       6.488954      0.103484     -5.813035
  H       2.221227     -0.654822     -5.854677
  H       3.445569      0.452394     -6.563726
  H       3.069426      0.533872     -4.812986
  H       1.956403     -2.691074     -3.930278
  H       2.399573     -0.965627      1.195423
71
Coordinates from ORCA-job my_molecule E -2465.725096047706
  Pt      2.843263     -2.482282     -0.388639
  O      -0.379340      0.602728      0.729747
  O       1.314130     -1.443879     -1.569002
  P       1.102272      0.814651      0.919788
  P       0.351261     -2.181177     -2.538956
  O      -0.020412     -3.651635     -1.950329
  O       0.991337     -2.443051     -3.998358
  O       1.957465      0.935249     -0.487652
  O       1.857961     -0.362159      1.784125
  C       1.544633      2.376793      1.805929
  C      -1.218922     -1.286052     -2.858018
  C      -1.991085     -2.045352     -3.957509
  C      -0.868577      0.148410     -3.300350
  C      -2.016404     -1.267353     -1.537309
  C       0.985147      3.553859      0.986366
  C       0.862186      2.300990      3.188541
  C       3.073103      2.493904      1.955147
  H       0.315391     -3.748586     -1.028411
  H       1.662694      0.187276     -1.073351
  H      -1.453199     -2.040682     -4.922806
  H      -2.974897     -1.552778     -4.102499
  H      -2.180229     -3.098795     -3.665156
  H      -0.215115      0.158750     -4.195924
  H      -0.372156      0.712780     -2.486469
  H      -1.804921      0.685866     -3.556038
  H      -2.246196     -2.297841     -1.196083
  H      -2.985554     -0.756716     -1.719491
  H      -1.490098     -0.717264     -0.728234
  H      -0.110599      3.463997      0.849775
  H       1.454429      3.601828     -0.017506
  H       1.195405      4.507802      1.513192
  H      -0.238127      2.214402      3.083295
  H       1.086946      3.218130      3.772964
  H       1.220218      1.426119      3.766130
  H       3.578043      2.491560      0.969018
  H       3.478346      1.653739      2.551784
  H       3.327522      3.444471      2.470696
  Si      2.519912     -4.103292      1.218759
  C       3.201402     -5.789079      0.655583
  C       3.247984     -3.645842      2.911408
  C       0.624143     -4.268930      1.430730
  H       4.285023     -5.737228      0.423494
  H       2.675744     -6.143215     -0.255055
  H       3.057312     -6.550052      1.452570
  H       2.850236     -2.670020      3.257756
  H       4.352627     -3.565410      2.865636
  H       2.989494     -4.414992      3.665158
  H       0.140493     -3.284397      1.593439
  H       0.418534     -4.892971      2.326518
  H       0.127751     -4.786197      0.580381
  H       4.189341     -2.961141      0.217273
  C       3.932635     -3.750660     -3.672657
  C       4.093342     -2.409244     -3.787034
  H       3.717022     -4.188255     -2.677282
  H       4.034765     -4.441666     -4.528255
  Si      4.575926     -1.417805     -5.332159
  H       3.978269     -1.854795     -2.827390
  C       4.735262     -2.592373     -6.807078
  C       6.224089     -0.559694     -4.966266
  C       3.237567     -0.112821     -5.659693
  H       5.517150     -3.360719     -6.631177
  H       5.017305     -2.029060     -7.721866
  H       3.779503     -3.116861     -7.020279
  H       7.029209     -1.296245     -4.766926
  H       6.141150      0.100643     -4.079118
  H       6.537521      0.067877     -5.825954
  H       2.249606     -0.583948     -5.843744
  H       3.496910      0.502307     -6.547484
  H       3.132215      0.572615     -4.792843
  H       1.963842     -2.678968     -3.941650
  H       2.405105     -0.972011      1.198887
71
Coordinates from ORCA-job my_molecule E -2465.725264496107
  Pt      2.852205     -2.477159     -0.400582
  O      -0.367270      0.567667      0.736605
  O       1.329111     -1.443260     -1.600684
  P       1.113739      0.797726      0.931036
  P       0.365151     -2.191916     -2.559279
  O       0.014381     -3.670251     -1.969436
  O       0.994367     -2.448300     -4.022928
  O       1.966404      0.927386     -0.474373
  O       1.882119     -0.372193      1.787911
  C       1.536798      2.360254      1.819689
  C      -1.213878     -1.305391     -2.855881
  C      -1.990140     -2.060127     -3.955460
  C      -0.879320      0.136838     -3.291041
  C      -2.000296     -1.301174     -1.528276
  C       0.958021      3.532663      1.000014
  C       0.858404      2.274732      3.200793
  C       3.061919      2.499751      1.969476
  H       0.359029     -3.777708     -1.050656
  H       1.665973      0.191076     -1.073792
  H      -1.457377     -2.048350     -4.925623
  H      -2.975752     -1.571005     -4.092309
  H      -2.177774     -3.112701     -3.670336
  H      -0.238281      0.160713     -4.194163
  H      -0.379181      0.701868     -2.480068
  H      -1.824834      0.666543     -3.534600
  H      -2.225131     -2.332461     -1.191548
  H      -2.969907     -0.794265     -1.701251
  H      -1.470363     -0.748783     -0.719457
  H      -0.135606      3.425704      0.861179
  H       1.426276      3.586996     -0.003355
  H       1.150234      4.491134      1.526230
  H      -0.238588      2.169005      3.097448
  H       1.065062      3.194815      3.788988
  H       1.233325      1.403925      3.776092
  H       3.567797      2.508923      0.985342
  H       3.483944      1.664594      2.562367
  H       3.297985      3.455230      2.488147
  Si      2.507514     -4.069019      1.227435
  C       3.166893     -5.770755      0.683005
  C       3.240652     -3.606791      2.913417
  C       0.612354     -4.201708      1.440282
  H       4.252648     -5.736131      0.455444
  H       2.641150     -6.122998     -0.228179
  H       3.005575     -6.525932      1.483634
  H       2.867656     -2.610415      3.236442
  H       4.346549     -3.565162      2.868450
  H       2.953247     -4.356823      3.686920
  H       0.142355     -3.208859      1.589788
  H       0.400720     -4.816103      2.345034
  H       0.108051     -4.721087      0.595277
  H       4.184437     -2.976540      0.221941
  C       3.927874     -3.747636     -3.699660
  C       4.110086     -2.408115     -3.805113
  H       3.710633     -4.179813     -2.703456
  H       4.007368     -4.437509     -4.558435
  Si      4.593420     -1.414314     -5.346636
  H       4.008193     -1.861559     -2.840512
  C       4.697742     -2.579937     -6.834575
  C       6.265960     -0.600739     -4.997698
  C       3.284155     -0.074739     -5.641837
  H       5.463669     -3.366977     -6.685614
  H       4.970967     -2.017921     -7.747599
  H       3.731159     -3.080780     -7.029735
  H       7.055530     -1.359389     -4.821181
  H       6.213525      0.049436     -4.100155
  H       6.581807      0.030504     -5.853251
  H       2.285196     -0.520434     -5.816889
  H       3.542270      0.541344     -6.526326
  H       3.204364      0.606903     -4.770604
  H       1.960425     -2.698182     -3.981333
  H       2.431620     -0.971067      1.187589
71
Coordinates from ORCA-job my_molecule E -2465.725451116012
  Pt      2.874300     -2.484529     -0.399125
  O      -0.351486      0.531131      0.728556
  O       1.343708     -1.461579     -1.601504
  P       1.124549      0.777249      0.925125
  P       0.371709     -2.199982     -2.563340
  O       0.012889     -3.672516     -1.979849
  O       1.000177     -2.461727     -4.025528
  O       1.977042      0.911679     -0.480457
  O       1.904262     -0.382210      1.789650
  C       1.528811      2.344174      1.814483
  C      -1.199262     -1.299143     -2.860733
  C      -1.977075     -2.035837     -3.971025
  C      -0.851739      0.144211     -3.287264
  C      -1.988737     -1.302549     -1.532915
  C       0.940397      3.508475      0.989577
  C       0.846663      2.252516      3.191645
  C       3.049994      2.502144      1.968959
  H       0.357235     -3.771698     -1.062205
  H       1.681061      0.173748     -1.080720
  H      -1.435568     -2.022696     -4.935980
  H      -2.956710     -1.535127     -4.114545
  H      -2.177985     -3.089416     -3.693688
  H      -0.209028      0.167510     -4.190563
  H      -0.348935      0.700479     -2.474550
  H      -1.793947      0.683897     -3.529812
  H      -2.219512     -2.334321     -1.203988
  H      -2.955591     -0.785295     -1.703415
  H      -1.455514     -0.762054     -0.719560
  H      -0.150732      3.386589      0.843824
  H       1.413970      3.566904     -0.010386
  H       1.117727      4.469606      1.515099
  H      -0.248742      2.132765      3.085106
  H       1.042273      3.174097      3.781537
  H       1.230044      1.386011      3.768154
  H       3.559462      2.516316      0.986534
  H       3.481680      1.674574      2.565094
  H       3.270841      3.459912      2.486610
  Si      2.507916     -4.060477      1.247025
  C       3.168676     -5.767991      0.724514
  C       3.234042     -3.584941      2.932946
  C       0.609611     -4.191667      1.452936
  H       4.255564     -5.734390      0.503939
  H       2.649823     -6.127436     -0.187648
  H       3.001596     -6.516822      1.529487
  H       2.863465     -2.588560      3.252980
  H       4.340701     -3.543463      2.891858
  H       2.941368     -4.331911      3.705893
  H       0.137951     -3.197018      1.599355
  H       0.400421     -4.805115      2.359502
  H       0.102885     -4.716646      0.612189
  H       4.204958     -2.976448      0.232807
  C       3.923829     -3.747563     -3.708594
  C       4.111672     -2.408965     -3.811109
  H       3.713562     -4.178565     -2.710479
  H       3.988733     -4.435155     -4.570041
  Si      4.583366     -1.408771     -5.353761
  H       4.021648     -1.866225     -2.843415
  C       4.653525     -2.562115     -6.854100
  C       6.271062     -0.616879     -5.020451
  C       3.284279     -0.054713     -5.621553
  H       5.401804     -3.369770     -6.714360
  H       4.938798     -1.995745     -7.766423
  H       3.668738     -3.037470     -7.051397
  H       7.054059     -1.385670     -4.860856
  H       6.237341      0.024381     -4.115203
  H       6.584949      0.019381     -5.874849
  H       2.278338     -0.490985     -5.799694
  H       3.543335      0.575557     -6.500001
  H       3.213060      0.613458     -4.736780
  H       1.960138     -2.727878     -3.972181
  H       2.454866     -0.983484      1.190751
71
Coordinates from ORCA-job my_molecule E -2465.725694881492
  Pt      2.906797     -2.486593     -0.396471
  O      -0.355025      0.516490      0.741982
  O       1.381006     -1.451838     -1.614570
  P       1.120770      0.775446      0.921017
  P       0.412753     -2.182587     -2.580312
  O       0.102255     -3.681021     -2.032153
  O       1.034931     -2.385357     -4.057162
  O       1.959978      0.927556     -0.491540
  O       1.911856     -0.387473      1.777561
  C       1.515333      2.342896      1.819113
  C      -1.187542     -1.319333     -2.835034
  C      -1.955736     -2.055612     -3.951710
  C      -0.884754      0.142118     -3.228248
  C      -1.960221     -1.371169     -1.501562
  C       0.906233      3.499179      0.999487
  C       0.838774      2.242709      3.201087
  C       3.038033      2.520108      1.962109
  H       0.460810     -3.776237     -1.117061
  H       1.679107      0.178752     -1.084583
  H      -1.422490     -2.011243     -4.921321
  H      -2.948546     -1.575256     -4.076681
  H      -2.127229     -3.119996     -3.696400
  H      -0.262883      0.207039     -4.143811
  H      -0.381045      0.690798     -2.404927
  H      -1.841904      0.659499     -3.435093
  H      -2.154191     -2.417335     -1.185214
  H      -2.945860     -0.877041     -1.658997
  H      -1.438830     -0.828533     -0.687930
  H      -0.183934      3.356026      0.861115
  H       1.372885      3.567106     -0.004467
  H       1.074184      4.462135      1.526213
  H      -0.257002      2.106769      3.102939
  H       1.029604      3.167272      3.786946
  H       1.237185      1.384595      3.780908
  H       3.540091      2.544446      0.974504
  H       3.483578      1.694618      2.549582
  H       3.254106      3.477701      2.485577
  Si      2.484928     -4.040365      1.254596
  C       3.118833     -5.765811      0.753772
  C       3.203469     -3.561222      2.941663
  C       0.580419     -4.136015      1.432239
  H       4.208128     -5.757335      0.551735
  H       2.609632     -6.120723     -0.165480
  H       2.923537     -6.504477      1.559291
  H       2.846193     -2.564401      3.262918
  H       4.309510     -3.532798      2.907244
  H       2.897491     -4.302955      3.702785
  H       0.124365     -3.132491      1.568892
  H       0.342540     -4.741175      2.332877
  H       0.084526     -4.652405      0.580185
  H       4.232080     -2.982162      0.240350
  C       3.908600     -3.749273     -3.734953
  C       4.129183     -2.414025     -3.829530
  H       3.700171     -4.179463     -2.735492
  H       3.945761     -4.431666     -4.601991
  Si      4.602561     -1.414866     -5.373730
  H       4.065154     -1.877840     -2.853755
  C       4.614248     -2.558666     -6.883614
  C       6.318685     -0.675231     -5.067012
  C       3.335198     -0.028507     -5.607095
  H       5.336560     -3.390615     -6.760850
  H       4.906565     -1.995944     -7.797229
  H       3.609671     -2.998387     -7.069561
  H       7.081072     -1.466612     -4.926809
  H       6.317953     -0.040645     -4.156816
  H       6.637822     -0.043531     -5.922139
  H       2.317898     -0.436392     -5.763590
  H       3.591443      0.596998     -6.486113
  H       3.296143      0.637736     -4.720197
  H       2.006836     -2.620436     -4.008976
  H       2.474057     -0.971683      1.173578
71
Coordinates from ORCA-job my_molecule E -2465.725809870426
  Pt      2.910402     -2.494256     -0.388642
  O      -0.353830      0.506248      0.727878
  O       1.388386     -1.470216     -1.601545
  P       1.122677      0.760879      0.901805
  P       0.416225     -2.205303     -2.562311
  O       0.127673     -3.710602     -2.013803
  O       1.022924     -2.399334     -4.053270
  O       1.968365      0.897778     -0.507674
  O       1.897600     -0.389157      1.775407
  C       1.515438      2.336120      1.786033
  C      -1.190203     -1.353519     -2.812708
  C      -1.960797     -2.090446     -3.925969
  C      -0.888219      0.104826     -3.214351
  C      -1.952062     -1.399202     -1.470304
  C       0.906123      3.482378      0.956919
  C       0.834237      2.253637      3.169880
  C       3.039838      2.510998      1.924971
  H       0.499723     -3.821664     -1.105506
  H       1.681088      0.148591     -1.095381
  H      -1.426723     -2.048957     -4.892716
  H      -2.952773     -1.606474     -4.053743
  H      -2.132645     -3.156156     -3.668659
  H      -0.276785      0.164626     -4.138585
  H      -0.374814      0.651612     -2.398846
  H      -1.846336      0.624166     -3.411756
  H      -2.147083     -2.440738     -1.147243
  H      -2.934158     -0.902202     -1.623679
  H      -1.423786     -0.850896     -0.662223
  H      -0.184640      3.336413      0.821743
  H       1.371786      3.539462     -0.044625
  H       1.074064      4.450647      1.473798
  H      -0.260954      2.114822      3.075560
  H       1.021332      3.187106      3.742485
  H       1.234607      1.407023      3.761018
  H       3.541250      2.529559      0.937225
  H       3.487112      1.687075      2.514773
  H       3.259215      3.469122      2.443483
  Si      2.464716     -4.038692      1.270350
  C       3.082975     -5.772624      0.769710
  C       3.179336     -3.567308      2.963741
  C       0.559188     -4.103364      1.446888
  H       4.175777     -5.775573      0.582724
  H       2.583519     -6.118203     -0.159380
  H       2.866498     -6.512761      1.569724
  H       2.837853     -2.560500      3.282565
  H       4.288247     -3.566012      2.936097
  H       2.851652     -4.302273      3.726440
  H       0.126913     -3.095912      1.595896
  H       0.307646     -4.714660      2.339016
  H       0.056545     -4.596479      0.589607
  H       4.235346     -2.986847      0.246728
  C       3.910979     -3.720924     -3.760537
  C       4.152056     -2.386978     -3.840891
  H       3.701437     -4.157512     -2.763564
  H       3.929695     -4.394315     -4.635536
  Si      4.624462     -1.374640     -5.376947
  H       4.100774     -1.863471     -2.857087
  C       4.565371     -2.494477     -6.902466
  C       6.370536     -0.696649     -5.096404
  C       3.396139      0.057640     -5.561708
  H       5.263451     -3.352771     -6.811818
  H       4.851701     -1.927091     -7.810991
  H       3.546407     -2.898081     -7.069167
  H       7.109325     -1.517377     -4.985955
  H       6.410370     -0.077972     -4.177115
  H       6.690441     -0.059455     -5.945377
  H       2.363228     -0.315562     -5.705770
  H       3.654129      0.691514     -6.432546
  H       3.394148      0.709238     -4.666187
  H       1.995816     -2.645074     -4.003560
  H       2.453373     -1.005551      1.206168
71
Coordinates from ORCA-job my_molecule E -2465.725964420281
  Pt      2.938784     -2.507150     -0.406634
  O      -0.342985      0.455844      0.730329
  O       1.422925     -1.477315     -1.642025
  P       1.130933      0.744856      0.914444
  P       0.433057     -2.206846     -2.585911
  O       0.137183     -3.713113     -2.028093
  O       1.025449     -2.406086     -4.079250
  O       1.976265      0.907624     -0.487350
  O       1.945212     -0.394664      1.778253
  C       1.484659      2.323478      1.811357
  C      -1.171402     -1.344278     -2.814551
  C      -1.950099     -2.062949     -3.936747
  C      -0.868040      0.122060     -3.194578
  C      -1.931933     -1.412086     -1.471039
  C       0.850419      3.463126      0.985597
  C       0.801897      2.219705      3.187182
  C       3.000601      2.526419      1.958994
  H       0.537881     -3.841799     -1.135946
  H       1.722826      0.141811     -1.072329
  H      -1.411380     -2.015813     -4.899615
  H      -2.936659     -1.571427     -4.064620
  H      -2.134099     -3.131074     -3.691170
  H      -0.255147      0.197614     -4.114797
  H      -0.357286      0.655463     -2.369550
  H      -1.831345      0.643065     -3.386315
  H      -2.134154     -2.456511     -1.167239
  H      -2.907977     -0.907223     -1.609555
  H      -1.395688     -0.878861     -0.653543
  H      -0.235042      3.293189      0.840499
  H       1.324572      3.535175     -0.012375
  H       0.985458      4.430974      1.508071
  H      -0.288008      2.053006      3.085017
  H       0.957929      3.157653      3.762275
  H       1.224000      1.383769      3.777636
  H       3.501966      2.563271      0.974961
  H       3.466481      1.707129      2.546877
  H       3.196525      3.479793      2.484488
  Si      2.465814     -4.016909      1.276823
  C       3.064848     -5.765355      0.804762
  C       3.190043     -3.521017      2.958812
  C       0.558633     -4.047162      1.451562
  H       4.160033     -5.776748      0.625572
  H       2.570006     -6.118481     -0.124408
  H       2.837942     -6.495798      1.612773
  H       2.866996     -2.496798      3.246648
  H       4.301940     -3.551157      2.937395
  H       2.838798     -4.228428      3.746003
  H       0.148495     -3.030197      1.586139
  H       0.298546     -4.642541      2.356579
  H       0.043018     -4.541724      0.601339
  H       4.257729     -3.003504      0.239325
  C       3.912255     -3.739970     -3.776892
  C       4.172250     -2.411196     -3.859773
  H       3.705913     -4.170138     -2.778288
  H       3.907941     -4.414195     -4.651944
  Si      4.630972     -1.396973     -5.398459
  H       4.139554     -1.887581     -2.876526
  C       4.519487     -2.501368     -6.932504
  C       6.393476     -0.750106     -5.150018
  C       3.424165      0.059403     -5.544739
  H       5.196517     -3.380460     -6.859083
  H       4.807405     -1.931855     -7.840327
  H       3.486198     -2.875627     -7.087752
  H       7.119768     -1.585568     -5.064501
  H       6.463590     -0.140943     -4.225726
  H       6.703774     -0.108502     -5.998722
  H       2.379145     -0.298388     -5.698330
  H       3.693332      0.715328     -6.404577
  H       3.437289      0.687378     -4.627379
  H       1.996958     -2.654250     -4.056181
  H       2.507703     -0.973749      1.171739
71
Coordinates from ORCA-job my_molecule E -2465.726152762385
  Pt      2.951913     -2.512889     -0.398256
  O      -0.330597      0.433156      0.717043
  O       1.444590     -1.475675     -1.638194
  P       1.138815      0.734876      0.907576
  P       0.455727     -2.201968     -2.590784
  O       0.166742     -3.705970     -2.042481
  O       1.057531     -2.388007     -4.073181
  O       1.982198      0.907068     -0.494269
  O       1.955876     -0.395355      1.769112
  C       1.480150      2.310948      1.812363
  C      -1.147704     -1.346353     -2.822286
  C      -1.923939     -2.064050     -3.948229
  C      -0.854077      0.124174     -3.199089
  C      -1.910458     -1.425310     -1.484191
  C       0.833926      3.447455      0.988052
  C       0.804287      2.195686      3.188625
  C       2.992869      2.529209      1.958994
  H       0.573923     -3.815565     -1.150877
  H       1.724767      0.154485     -1.097986
  H      -1.384016     -2.017328     -4.917363
  H      -2.907572     -1.571237     -4.075319
  H      -2.115451     -3.125817     -3.705776
  H      -0.243591      0.207960     -4.117156
  H      -0.347986      0.659207     -2.378626
  H      -1.822160      0.639042     -3.388003
  H      -2.105134     -2.472365     -1.183362
  H      -2.891747     -0.926108     -1.621192
  H      -1.376459     -0.894070     -0.668191
  H      -0.248459      3.264678      0.843434
  H       1.304782      3.530342     -0.012087
  H       0.962377      4.418270      1.513184
  H      -0.282808      2.017259      3.080625
  H       0.952006      3.134529      3.763307
  H       1.235461      1.362983      3.783797
  H       3.489655      2.573921      0.969539
  H       3.465776      1.711809      2.538488
  H       3.188022      3.489870      2.488464
  Si      2.461050     -4.008405      1.290845
  C       3.042618     -5.762252      0.827564
  C       3.187321     -3.513379      2.968535
  C       0.555970     -4.024736      1.464707
  H       4.137782     -5.787725      0.656166
  H       2.551189     -6.113543     -0.102228
  H       2.802601     -6.485907      1.637044
  H       2.873977     -2.489186      3.254310
  H       4.293190     -3.547404      2.948440
  H       2.830839     -4.218579      3.752782
  H       0.146561     -2.997750      1.570073
  H       0.295679     -4.599007      2.384139
  H       0.036405     -4.537177      0.623817
  H       4.266864     -3.014035      0.257936
  C       3.889026     -3.735897     -3.782200
  C       4.164691     -2.411184     -3.862617
  H       3.688402     -4.166344     -2.783076
  H       3.867581     -4.406949     -4.658439
  Si      4.618537     -1.394049     -5.400048
  H       4.147988     -1.894561     -2.877448
  C       4.486830     -2.489326     -6.938653
  C       6.385233     -0.760997     -5.164963
  C       3.419480      0.064429     -5.523580
  H       5.160487     -3.365683     -6.879876
  H       4.764246     -1.918370     -7.845890
  H       3.454604     -2.860685     -7.082228
  H       7.104937     -1.600344     -5.094031
  H       6.468446     -0.160985     -4.235653
  H       6.692998     -0.115346     -6.013116
  H       2.376980     -0.286366     -5.648345
  H       3.671208      0.708333     -6.389341
  H       3.454298      0.697485     -4.613607
  H       2.018530     -2.647087     -4.054472
  H       2.528527     -0.982598      1.179841
71
Coordinates from ORCA-job my_molecule E -2465.726460042896
  Pt      2.956892     -2.510818     -0.401629
  O      -0.327945      0.421809      0.742743
  O       1.449321     -1.464715     -1.638532
  P       1.137352      0.735175      0.915410
  P       0.462515     -2.197402     -2.584659
  O       0.214098     -3.715793     -2.056338
  O       1.040988     -2.351155     -4.087739
  O       1.974530      0.906885     -0.490505
  O       1.959833     -0.397867      1.779798
  C       1.471915      2.321465      1.808088
  C      -1.163521     -1.371585     -2.787651
  C      -1.931927     -2.089455     -3.916780
  C      -0.903802      0.107128     -3.142681
  C      -1.909707     -1.477896     -1.441421
  C       0.809036      3.446276      0.985343
  C       0.803318      2.205561      3.191555
  C       2.985261      2.557181      1.941291
  H       0.642121     -3.842714     -1.172606
  H       1.714470      0.159084     -1.095756
  H      -1.400009     -2.020641     -4.887335
  H      -2.925373     -1.608475     -4.030895
  H      -2.098580     -3.161039     -3.685858
  H      -0.309888      0.211373     -4.073227
  H      -0.395226      0.641501     -2.316150
  H      -1.879540      0.607582     -3.310288
  H      -2.082358     -2.533627     -1.153322
  H      -2.900929     -0.989287     -1.559268
  H      -1.373501     -0.951130     -0.623462
  H      -0.271904      3.248936      0.849093
  H       1.270947      3.532816     -0.016036
  H       0.932206      4.419439      1.507925
  H      -0.282559      2.014283      3.094889
  H       0.945010      3.151151      3.757271
  H       1.247217      1.381983      3.787841
  H       3.474990      2.607622      0.948390
  H       3.470891      1.745974      2.517411
  H       3.172652      3.517688      2.469099
  Si      2.442189     -3.997720      1.285283
  C       3.000456     -5.761277      0.826256
  C       3.168580     -3.512101      2.964253
  C       0.537651     -3.983187      1.443240
  H       4.096624     -5.806746      0.667742
  H       2.513783     -6.103014     -0.109789
  H       2.738305     -6.479868      1.632672
  H       2.869023     -2.484743      3.247564
  H       4.274488     -3.562588      2.949061
  H       2.800248     -4.210520      3.745448
  H       0.145606     -2.949957      1.552184
  H       0.255461     -4.557548      2.352526
  H       0.024103     -4.476853      0.588157
  H       4.267843     -3.026737      0.249905
  C       3.890420     -3.731098     -3.810871
  C       4.190954     -2.409867     -3.885183
  H       3.685175     -4.161811     -2.811678
  H       3.852553     -4.397853     -4.689708
  Si      4.659683     -1.392771     -5.418741
  H       4.185354     -1.899975     -2.894363
  C       4.485546     -2.473179     -6.964423
  C       6.446119     -0.808951     -5.193517
  C       3.497726      0.098458     -5.522359
  H       5.130100     -3.373233     -6.912006
  H       4.780586     -1.904229     -7.870448
  H       3.437586     -2.808425     -7.108046
  H       7.143653     -1.668194     -5.136354
  H       6.553985     -0.219966     -4.259349
  H       6.763847     -0.163442     -6.038966
  H       2.444904     -0.224468     -5.644962
  H       3.761772      0.744201     -6.384209
  H       3.554165      0.721684     -4.606119
  H       2.005030     -2.612243     -4.065256
  H       2.532004     -0.975843      1.180137
71
Coordinates from ORCA-job my_molecule E -2465.726237134059
  Pt      2.982301     -2.506699     -0.409230
  O      -0.328154      0.388611      0.750377
  O       1.464260     -1.463846     -1.651776
  P       1.139850      0.726804      0.922376
  P       0.479742     -2.190054     -2.602374
  O       0.215881     -3.714177     -2.088326
  O       1.061937     -2.332576     -4.099598
  O       1.963169      0.927962     -0.486636
  O       1.985624     -0.403048      1.771472
  C       1.455601      2.312081      1.819250
  C      -1.146776     -1.374533     -2.786436
  C      -1.918753     -2.089874     -3.919775
  C      -0.890631      0.117714     -3.128587
  C      -1.893216     -1.505939     -1.432880
  C       0.767782      3.434259      1.008965
  C       0.804071      2.181456      3.213697
  C       2.967192      2.564786      1.935820
  H       0.648589     -3.831244     -1.212478
  H       1.709228      0.181726     -1.097297
  H      -1.389126     -2.009976     -4.892328
  H      -2.912956     -1.613364     -4.024186
  H      -2.088617     -3.165733     -3.696534
  H      -0.295657      0.237999     -4.059715
  H      -0.384158      0.653669     -2.299426
  H      -1.869593      0.609593     -3.287893
  H      -2.063434     -2.571346     -1.158887
  H      -2.888628     -1.029445     -1.536832
  H      -1.356362     -0.980699     -0.607698
  H      -0.311584      3.224527      0.884720
  H       1.218624      3.534225      0.000940
  H       0.880197      4.407953      1.534332
  H      -0.279711      1.976975      3.128672
  H       0.939424      3.130102      3.781966
  H       1.264710      1.358032      3.801174
  H       3.445037      2.628648      0.935416
  H       3.467878      1.750364      2.500403
  H       3.153355      3.527784      2.466619
  Si      2.441582     -3.982991      1.289039
  C       2.985148     -5.756762      0.851335
  C       3.159915     -3.493049      2.972975
  C       0.532033     -3.939633      1.434745
  H       4.082692     -5.815646      0.699530
  H       2.501289     -6.103758     -0.084118
  H       2.709236     -6.466589      1.666932
  H       2.863153     -2.458856      3.237217
  H       4.269668     -3.556639      2.968433
  H       2.776550     -4.178378      3.766675
  H       0.159797     -2.902401      1.540399
  H       0.232762     -4.513311      2.343296
  H       0.011115     -4.412863      0.578432
  H       4.290547     -3.035406      0.258245
  C       3.883346     -3.734393     -3.816217
  C       4.199173     -2.416224     -3.895453
  H       3.678424     -4.168585     -2.817899
  H       3.834563     -4.398218     -4.693675
  Si      4.668008     -1.400450     -5.433679
  H       4.207700     -1.907417     -2.906222
  C       4.458994     -2.476012     -6.974849
  C       6.472426     -0.842956     -5.238442
  C       3.521673      0.110010     -5.517477
  H       5.092421     -3.386540     -6.931416
  H       4.753906     -1.911247     -7.884717
  H       3.401864     -2.794612     -7.101464
  H       7.162438     -1.713990     -5.194202
  H       6.601777     -0.256497     -4.306302
  H       6.786475     -0.200237     -6.089724
  H       2.456351     -0.196893     -5.623564
  H       3.788373      0.753228     -6.382899
  H       3.600223      0.729452     -4.601643
  H       2.022867     -2.596074     -4.076301
  H       2.510726     -0.985527      1.167792
71
Coordinates from ORCA-job my_molecule E -2465.726090981291
  Pt      3.006875     -2.510793     -0.405247
  O      -0.328426      0.399052      0.728728
  O       1.483742     -1.461463     -1.655400
  P       1.133965      0.729122      0.923782
  P       0.496199     -2.180145     -2.608009
  O       0.236810     -3.702476     -2.080542
  O       1.078385     -2.331193     -4.103311
  O       1.976789      0.935380     -0.470835
  O       1.972713     -0.391092      1.768680
  C       1.434641      2.302501      1.836601
  C      -1.134557     -1.356783     -2.799703
  C      -1.913934     -2.080455     -3.901979
  C      -0.893787      0.116873     -3.176618
  C      -1.868329     -1.452815     -1.453728
  C       0.757320      3.426157      1.030766
  C       0.765638      2.167486      3.218055
  C       2.944671      2.546114      1.974704
  H       0.692637     -3.818453     -1.213861
  H       1.733127      0.178308     -1.079270
  H      -1.398126     -2.035503     -4.864791
  H      -2.906316     -1.596309     -4.013726
  H      -2.081448     -3.136348     -3.651503
  H      -0.310359      0.212681     -4.102032
  H      -0.384123      0.660747     -2.372546
  H      -1.877472      0.612343     -3.336100
  H      -2.027989     -2.501255     -1.163360
  H      -2.864037     -0.975515     -1.563027
  H      -1.340952     -0.914114     -0.649844
  H      -0.320266      3.217717      0.891905
  H       1.224454      3.533233      0.027990
  H       0.857760      4.388542      1.563409
  H      -0.317804      1.964734      3.117802
  H       0.893390      3.107770      3.788421
  H       1.218059      1.345445      3.803260
  H       3.435188      2.617998      0.987297
  H       3.433875      1.729658      2.537130
  H       3.123183      3.492997      2.514373
  Si      2.457297     -3.979221      1.300126
  C       2.991957     -5.759546      0.872371
  C       3.175441     -3.487969      2.983255
  C       0.545506     -3.922712      1.441536
  H       4.092708     -5.827538      0.726762
  H       2.511479     -6.113863     -0.064355
  H       2.705538     -6.460198      1.690218
  H       2.885721     -2.448067      3.240979
  H       4.285123     -3.558464      2.983818
  H       2.784704     -4.165111      3.777925
  H       0.185955     -2.881005      1.550663
  H       0.239170     -4.495066      2.345536
  H       0.017971     -4.391623      0.592735
  H       4.307409     -3.048555      0.277320
  C       3.898503     -3.744811     -3.832439
  C       4.214032     -2.428750     -3.907502
  H       3.699386     -4.185093     -2.833919
  H       3.847111     -4.406331     -4.715817
  Si      4.662624     -1.413329     -5.447222
  H       4.231929     -1.917287     -2.915417
  C       4.432067     -2.479762     -7.002811
  C       6.465276     -0.862635     -5.266488
  C       3.511924      0.095524     -5.501695
  H       5.064163     -3.395278     -6.973745
  H       4.716486     -1.912578     -7.913203
  H       3.374135     -2.789710     -7.125933
  H       7.154392     -1.731362     -5.235461
  H       6.607051     -0.279902     -4.330068
  H       6.766740     -0.223415     -6.117989
  H       2.448571     -0.207513     -5.594571
  H       3.760933      0.736205     -6.369378
  H       3.602901      0.711435     -4.577303
  H       2.041054     -2.599629     -4.083910
  H       2.497557     -0.983741      1.160603
71
Coordinates from ORCA-job my_molecule E -2465.726754561462
  Pt      2.999234     -2.515431     -0.399576
  O      -0.331621      0.392097      0.740868
  O       1.487594     -1.458373     -1.636938
  P       1.131667      0.731144      0.932042
  P       0.492463     -2.181633     -2.596526
  O       0.232738     -3.702212     -2.072150
  O       1.079135     -2.325244     -4.106451
  O       1.971520      0.935008     -0.469653
  O       1.974580     -0.381856      1.786032
  C       1.440170      2.312401      1.840338
  C      -1.144187     -1.359030     -2.799941
  C      -1.924877     -2.086638     -3.922887
  C      -0.897133      0.117024     -3.175207
  C      -1.888047     -1.461846     -1.450748
  C       0.757301      3.433212      1.031213
  C       0.781949      2.176663      3.223919
  C       2.951839      2.564143      1.972683
  H       0.692045     -3.833618     -1.197144
  H       1.732625      0.182087     -1.066715
  H      -1.397464     -2.035905     -4.899610
  H      -2.919967     -1.604723     -4.042726
  H      -2.095069     -3.149610     -3.673125
  H      -0.307019      0.217670     -4.107722
  H      -0.387536      0.660694     -2.355187
  H      -1.882670      0.610449     -3.343317
  H      -2.054991     -2.515018     -1.160182
  H      -2.882856     -0.980116     -1.570508
  H      -1.353436     -0.929903     -0.634333
  H      -0.323524      3.219795      0.894937
  H       1.216617      3.539084      0.028978
  H       0.862600      4.400896      1.562922
  H      -0.303150      1.968046      3.127242
  H       0.911796      3.121839      3.787742
  H       1.240105      1.358500      3.813122
  H       3.434129      2.632307      0.979821
  H       3.446301      1.752050      2.539892
  H       3.130150      3.517626      2.508906
  Si      2.450735     -3.986229      1.300478
  C       2.984102     -5.763630      0.861102
  C       3.178254     -3.490365      2.981545
  C       0.543239     -3.939931      1.458300
  H       4.079949     -5.830541      0.715866
  H       2.503563     -6.117197     -0.074978
  H       2.700340     -6.461220      1.672282
  H       2.887332     -2.453031      3.247972
  H       4.280798     -3.550748      2.978193
  H       2.797910     -4.168154      3.768976
  H       0.184388     -2.896319      1.571324
  H       0.246292     -4.510438      2.362202
  H       0.006572     -4.414028      0.605525
  H       4.291118     -3.051072      0.265727
  C       3.898594     -3.743994     -3.838093
  C       4.216341     -2.429084     -3.910477
  H       3.697350     -4.187431     -2.841473
  H       3.847785     -4.402970     -4.723641
  Si      4.668359     -1.413433     -5.449124
  H       4.234372     -1.917376     -2.918043
  C       4.444115     -2.478960     -6.999638
  C       6.464617     -0.858435     -5.262931
  C       3.520989      0.092171     -5.510671
  H       5.072995     -3.391171     -6.966127
  H       4.731161     -1.909082     -7.906585
  H       3.391588     -2.793548     -7.127663
  H       7.149125     -1.723696     -5.227482
  H       6.603281     -0.277241     -4.330602
  H       6.769829     -0.216334     -6.112300
  H       2.467353     -0.218209     -5.609015
  H       3.768033      0.743109     -6.377877
  H       3.604524      0.705176     -4.587942
  H       2.044297     -2.596220     -4.087369
  H       2.512000     -0.988696      1.164618
71
Coordinates from ORCA-job my_molecule E -2465.727292059000
  Pt      2.996003     -2.515959     -0.408656
  O      -0.327818      0.379918      0.746979
  O       1.487126     -1.456263     -1.642688
  P       1.129976      0.729397      0.932036
  P       0.499867     -2.176911     -2.593410
  O       0.248534     -3.698215     -2.071694
  O       1.071645     -2.316684     -4.097067
  O       1.960800      0.938865     -0.472980
  O       1.985247     -0.390572      1.784954
  C       1.430977      2.315021      1.839841
  C      -1.131466     -1.360988     -2.789596
  C      -1.902905     -2.090979     -3.914452
  C      -0.886487      0.115925     -3.152304
  C      -1.873752     -1.474822     -1.443036
  C       0.739162      3.434918      1.034045
  C       0.775096      2.170543      3.228113
  C       2.942515      2.577897      1.968173
  H       0.705683     -3.825666     -1.212109
  H       1.723523      0.181296     -1.075529
  H      -1.372745     -2.029306     -4.888451
  H      -2.897938     -1.614010     -4.032706
  H      -2.064664     -3.164389     -3.668916
  H      -0.296469      0.224734     -4.085094
  H      -0.377234      0.656597     -2.326667
  H      -1.865192      0.605933     -3.315948
  H      -2.036580     -2.536005     -1.158465
  H      -2.869785     -1.001071     -1.558283
  H      -1.339565     -0.943926     -0.622460
  H      -0.339307      3.217303      0.899600
  H       1.195310      3.546096      0.031775
  H       0.840108      4.403898      1.570352
  H      -0.308116      1.956572      3.135050
  H       0.900685      3.119246      3.797139
  H       1.239056      1.351371      3.813439
  H       3.423942      2.649389      0.970923
  H       3.443154      1.765434      2.533372
  H       3.115519      3.537556      2.506553
  Si      2.446616     -3.981575      1.287565
  C       2.970266     -5.759564      0.854023
  C       3.178303     -3.487450      2.963674
  C       0.544098     -3.923196      1.444038
  H       4.064741     -5.832078      0.706933
  H       2.485214     -6.111392     -0.078624
  H       2.686377     -6.454719      1.670752
  H       2.892159     -2.449153      3.225416
  H       4.283948     -3.554066      2.958039
  H       2.794508     -4.163155      3.755724
  H       0.187831     -2.879382      1.554123
  H       0.245856     -4.486873      2.351782
  H       0.008291     -4.397075      0.589745
  H       4.289450     -3.054834      0.255282
  C       3.880933     -3.743751     -3.835752
  C       4.205733     -2.430101     -3.910710
  H       3.678675     -4.188984     -2.844526
  H       3.826245     -4.401792     -4.718917
  Si      4.666641     -1.416498     -5.448983
  H       4.228351     -1.920755     -2.923083
  C       4.430384     -2.484974     -6.991581
  C       6.475988     -0.876563     -5.266797
  C       3.535198      0.103515     -5.514308
  H       5.050194     -3.401860     -6.955629
  H       4.723654     -1.919311     -7.897537
  H       3.370648     -2.792459     -7.116137
  H       7.157317     -1.755431     -5.234558
  H       6.623857     -0.294835     -4.331835
  H       6.783583     -0.231216     -6.119157
  H       2.466571     -0.194508     -5.608173
  H       3.792339      0.746405     -6.381933
  H       3.634726      0.720890     -4.599767
  H       2.031655     -2.587909     -4.080766
  H       2.510051     -0.994243      1.161933
71
Coordinates from ORCA-job my_molecule E -2465.727388944096
  Pt      3.002769     -2.507698     -0.410784
  O      -0.326020      0.373305      0.758456
  O       1.489503     -1.449778     -1.647539
  P       1.133346      0.729054      0.937438
  P       0.507544     -2.175398     -2.600491
  O       0.259892     -3.697420     -2.076667
  O       1.085768     -2.311372     -4.103396
  O       1.956976      0.948476     -0.467215
  O       2.001626     -0.391170      1.776688
  C       1.428644      2.310739      1.851807
  C      -1.128395     -1.365536     -2.792116
  C      -1.900703     -2.096766     -3.911081
  C      -0.892189      0.115854     -3.155200
  C      -1.868800     -1.482552     -1.439216
  C       0.725290      3.430766      1.055696
  C       0.780162      2.156677      3.242760
  C       2.938212      2.580701      1.973658
  H       0.724142     -3.819108     -1.210434
  H       1.719896      0.187055     -1.078005
  H      -1.376520     -2.036157     -4.885152
  H      -2.898649     -1.619978     -4.022029
  H      -2.061997     -3.166162     -3.665485
  H      -0.303867      0.229788     -4.091599
  H      -0.381734      0.658762     -2.332712
  H      -1.880538      0.602242     -3.311788
  H      -2.028563     -2.542737     -1.155778
  H      -2.869701     -1.011224     -1.548521
  H      -1.336208     -0.950369     -0.619169
  H      -0.350112      3.205681      0.926007
  H       1.175547      3.551833      0.049552
  H       0.819138      4.395974      1.595854
  H      -0.301174      1.935781      3.153132
  H       0.900259      3.102139      3.814660
  H       1.253169      1.338061      3.823477
  H       3.414570      2.663446      0.976233
  H       3.445516      1.767001      2.530547
  H       3.107784      3.535271      2.516883
  Si      2.440683     -3.970444      1.289877
  C       2.953356     -5.758026      0.867452
  C       3.171417     -3.477387      2.966118
  C       0.534259     -3.896069      1.441410
  H       4.054383     -5.843258      0.728288
  H       2.469306     -6.109839     -0.068055
  H       2.652012     -6.451224      1.689443
  H       2.890931     -2.435641      3.219811
  H       4.280929     -3.553063      2.966192
  H       2.775338     -4.149402      3.763598
  H       0.182781     -2.845550      1.541226
  H       0.224472     -4.455225      2.357571
  H       0.001037     -4.370432      0.591866
  H       4.295875     -3.054612      0.266805
  C       3.888508     -3.749780     -3.846827
  C       4.218727     -2.433736     -3.919434
  H       3.684294     -4.199413     -2.853861
  H       3.831368     -4.407926     -4.735206
  Si      4.676954     -1.421043     -5.462355
  H       4.245230     -1.919855     -2.930710
  C       4.437477     -2.486401     -7.007331
  C       6.480681     -0.880136     -5.289704
  C       3.545071      0.095977     -5.523990
  H       5.058871     -3.405933     -6.973791
  H       4.727966     -1.920080     -7.920368
  H       3.376268     -2.789976     -7.126707
  H       7.157846     -1.751624     -5.253538
  H       6.627959     -0.297393     -4.364085
  H       6.789509     -0.243170     -6.143794
  H       2.482818     -0.203602     -5.613351
  H       3.797937      0.739072     -6.394321
  H       3.643656      0.711089     -4.606576
  H       2.045889     -2.586032     -4.088261
  H       2.505922     -0.991797      1.156226
71
Coordinates from ORCA-job my_molecule E -2465.727409496176
  Pt      3.002144     -2.507366     -0.410337
  O      -0.323458      0.365089      0.753594
  O       1.493652     -1.443191     -1.641032
  P       1.136902      0.726794      0.931097
  P       0.508871     -2.173369     -2.598055
  O       0.263107     -3.699696     -2.081990
  O       1.092013     -2.300003     -4.102523
  O       1.957159      0.941911     -0.475967
  O       2.008147     -0.381819      1.773245
  C       1.430544      2.308913      1.838705
  C      -1.129790     -1.370435     -2.783690
  C      -1.900789     -2.103392     -3.897581
  C      -0.903972      0.117628     -3.144010
  C      -1.865940     -1.493113     -1.432056
  C       0.720818      3.423298      1.041955
  C       0.788272      2.158160      3.228855
  C       2.939584      2.584533      1.955018
  H       0.734665     -3.826192     -1.216467
  H       1.726691      0.195315     -1.070933
  H      -1.384117     -2.042201     -4.871526
  H      -2.897933     -1.628708     -4.001375
  H      -2.060648     -3.167904     -3.653287
  H      -0.323341      0.237575     -4.077376
  H      -0.396720      0.662314     -2.329337
  H      -1.895532      0.598630     -3.294242
  H      -2.020560     -2.551913     -1.151128
  H      -2.866771     -1.024622     -1.537517
  H      -1.334141     -0.962538     -0.617514
  H      -0.356318      3.193040      0.915813
  H       1.167076      3.544239      0.034820
  H       0.813966      4.389194      1.577905
  H      -0.293618      1.932155      3.141526
  H       0.906574      3.102917      3.793716
  H       1.266678      1.344624      3.812623
  H       3.410112      2.665435      0.958977
  H       3.450866      1.776767      2.512076
  H       3.107993      3.538570      2.493405
  Si      2.435426     -3.972722      1.288167
  C       2.949211     -5.756840      0.864145
  C       3.161005     -3.481366      2.969455
  C       0.530994     -3.901277      1.435772
  H       4.048620     -5.844036      0.729804
  H       2.468584     -6.110097     -0.072435
  H       2.645023     -6.446698      1.684374
  H       2.877279     -2.443338      3.225530
  H       4.266749     -3.551647      2.975517
  H       2.765637     -4.154000      3.761375
  H       0.180641     -2.854057      1.536935
  H       0.221573     -4.459689      2.348825
  H      -0.001618     -4.372387      0.586260
  H       4.289547     -3.060424      0.264360
  C       3.890534     -3.743739     -3.848354
  C       4.222671     -2.430127     -3.917888
  H       3.684404     -4.198937     -2.859706
  H       3.834629     -4.396998     -4.734944
  Si      4.680918     -1.416316     -5.455399
  H       4.251559     -1.917387     -2.930800
  C       4.421754     -2.480291     -7.006923
  C       6.494180     -0.890866     -5.282999
  C       3.559649      0.116451     -5.505518
  H       5.037431     -3.408967     -6.980410
  H       4.711010     -1.913632     -7.917057
  H       3.357171     -2.775589     -7.125902
  H       7.168886     -1.775083     -5.260190
  H       6.658332     -0.310544     -4.344581
  H       6.796537     -0.249298     -6.134768
  H       2.493382     -0.173722     -5.591537
  H       3.809507      0.758989     -6.372930
  H       3.673365      0.732891     -4.583618
  H       2.051727     -2.576118     -4.087521
  H       2.505808     -0.989529      1.149663
71
Coordinates from ORCA-job my_molecule E -2465.727539588933
  Pt      3.004847     -2.507713     -0.411788
  O      -0.323165      0.370342      0.755367
  O       1.498368     -1.440976     -1.638989
  P       1.133532      0.733816      0.940442
  P       0.509144     -2.171255     -2.595445
  O       0.268544     -3.698726     -2.077114
  O       1.087545     -2.295915     -4.102775
  O       1.956885      0.953558     -0.468596
  O       2.004855     -0.367705      1.784623
  C       1.423365      2.312589      1.853062
  C      -1.130651     -1.367570     -2.787728
  C      -1.897273     -2.102742     -3.908203
  C      -0.899467      0.113296     -3.148907
  C      -1.869531     -1.485066     -1.439039
  C       0.716514      3.428995      1.057947
  C       0.778063      2.157528      3.243199
  C       2.932816      2.586710      1.975033
  H       0.743193     -3.825394     -1.222074
  H       1.724296      0.188999     -1.072847
  H      -1.373470     -2.040565     -4.880396
  H      -2.894360     -1.631116     -4.020784
  H      -2.053424     -3.171009     -3.660827
  H      -0.315993      0.228684     -4.078802
  H      -0.394495      0.654886     -2.329714
  H      -1.883199      0.594450     -3.305904
  H      -2.027073     -2.543017     -1.155408
  H      -2.867826     -1.017675     -1.550452
  H      -1.336274     -0.953146     -0.621666
  H      -0.362210      3.200886      0.927539
  H       1.167157      3.552380      0.052882
  H       0.808990      4.392660      1.598862
  H      -0.303739      1.931341      3.156216
  H       0.896884      3.104319      3.809764
  H       1.254701      1.343864      3.823386
  H       3.406882      2.669217      0.979676
  H       3.441498      1.775624      2.532960
  H       3.098771      3.538711      2.517010
  Si      2.437283     -3.971350      1.289395
  C       2.947390     -5.752445      0.863160
  C       3.168951     -3.481775      2.971510
  C       0.534751     -3.897094      1.438481
  H       4.039880     -5.838195      0.728842
  H       2.467383     -6.109949     -0.070365
  H       2.649047     -6.434032      1.680861
  H       2.889329     -2.441838      3.230896
  H       4.270881     -3.553075      2.973504
  H       2.779294     -4.151571      3.759029
  H       0.187990     -2.854649      1.543337
  H       0.229955     -4.451188      2.347453
  H      -0.000894     -4.366525      0.584657
  H       4.286148     -3.061696      0.259164
  C       3.888680     -3.741322     -3.852771
  C       4.221065     -2.433100     -3.923227
  H       3.683480     -4.201327     -2.866899
  H       3.832402     -4.391706     -4.740265
  Si      4.679099     -1.424178     -5.464334
  H       4.253741     -1.919255     -2.936784
  C       4.421983     -2.486204     -7.005307
  C       6.492160     -0.899162     -5.301948
  C       3.560636      0.100905     -5.517313
  H       5.034033     -3.403838     -6.976497
  H       4.710039     -1.924502     -7.914010
  H       3.364052     -2.786902     -7.118332
  H       7.165147     -1.781021     -5.277290
  H       6.658194     -0.318283     -4.368966
  H       6.795226     -0.260649     -6.157171
  H       2.488995     -0.188218     -5.599563
  H       3.813469      0.740806     -6.387363
  H       3.676795      0.714695     -4.601007
  H       2.050740     -2.573390     -4.088787
  H       2.512285     -0.987985      1.149492
71
Coordinates from ORCA-job my_molecule E -2465.727875338801
  Pt      3.010163     -2.506982     -0.414577
  O      -0.316057      0.355563      0.766610
  O       1.504289     -1.436732     -1.643474
  P       1.134930      0.728537      0.945987
  P       0.525966     -2.165668     -2.595422
  O       0.297068     -3.689592     -2.072999
  O       1.096998     -2.289334     -4.100930
  O       1.952789      0.963984     -0.462766
  O       2.021883     -0.378337      1.782384
  C       1.414066      2.308449      1.869152
  C      -1.117111     -1.368069     -2.788018
  C      -1.884831     -2.106036     -3.910802
  C      -0.892508      0.109981     -3.150081
  C      -1.854392     -1.491791     -1.438129
  C       0.694849      3.424079      1.084575
  C       0.771813      2.135551      3.262481
  C       2.920848      2.598745      1.987312
  H       0.772515     -3.812982     -1.218235
  H       1.723981      0.203384     -1.071452
  H      -1.358600     -2.040118     -4.887940
  H      -2.887396     -1.638479     -4.025959
  H      -2.035052     -3.178452     -3.661090
  H      -0.306599      0.227820     -4.087952
  H      -0.383193      0.655376     -2.323694
  H      -1.883340      0.587204     -3.307962
  H      -2.007632     -2.553859     -1.156265
  H      -2.855979     -1.026365     -1.549287
  H      -1.322263     -0.962503     -0.615680
  H      -0.379231      3.186502      0.955270
  H       1.140589      3.559999      0.079572
  H       0.779640      4.386647      1.635322
  H      -0.307421      1.899842      3.175753
  H       0.881189      3.080523      3.839355
  H       1.257204      1.320851      3.835049
  H       3.393693      2.693001      0.985816
  H       3.439365      1.788635      2.537045
  H       3.077724      3.555801      2.536880
  Si      2.432930     -3.957204      1.288305
  C       2.927380     -5.748739      0.875348
  C       3.168636     -3.461279      2.962910
  C       0.528104     -3.864440      1.434671
  H       4.022476     -5.847957      0.743294
  H       2.444325     -6.104440     -0.057206
  H       2.617867     -6.425349      1.698994
  H       2.895968     -2.411638      3.209211
  H       4.275912     -3.545716      2.963828
  H       2.766550     -4.122736      3.762604
  H       0.185600     -2.810112      1.527656
  H       0.216108     -4.410157      2.350180
  H      -0.007846     -4.340415      0.582128
  H       4.293109     -3.066600      0.261005
  C       3.884221     -3.751188     -3.862247
  C       4.225692     -2.441185     -3.932583
  H       3.678588     -4.210747     -2.876208
  H       3.819445     -4.403307     -4.753942
  Si      4.683589     -1.432890     -5.478419
  H       4.264866     -1.925464     -2.946211
  C       4.411716     -2.495466     -7.025747
  C       6.500964     -0.918119     -5.321454
  C       3.569503      0.103091     -5.524375
  H       5.020962     -3.424259     -7.001337
  H       4.699613     -1.932770     -7.938528
  H       3.344315     -2.785452     -7.136555
  H       7.169385     -1.801891     -5.296925
  H       6.668866     -0.338830     -4.393568
  H       6.806492     -0.281267     -6.179648
  H       2.503978     -0.183485     -5.599855
  H       3.816134      0.746436     -6.398272
  H       3.688597      0.716002     -4.608496
  H       2.054865     -2.570589     -4.090832
  H       2.515444     -0.993764      1.148512
71
Coordinates from ORCA-job my_molecule E -2465.728034869835
  Pt      3.011861     -2.505446     -0.415481
  O      -0.312216      0.339898      0.773684
  O       1.505246     -1.433419     -1.642150
  P       1.143160      0.722088      0.942401
  P       0.526640     -2.164437     -2.598848
  O       0.294789     -3.693630     -2.087002
  O       1.103916     -2.279417     -4.104735
  O       1.949093      0.954896     -0.469458
  O       2.042986     -0.377276      1.775065
  C       1.418207      2.306736      1.856127
  C      -1.117891     -1.373385     -2.779127
  C      -1.884009     -2.109125     -3.897067
  C      -0.903245      0.117051     -3.132039
  C      -1.851989     -1.508918     -1.425987
  C       0.685213      3.416331      1.071430
  C       0.786689      2.138850      3.252630
  C       2.924286      2.605454      1.964872
  H       0.781580     -3.822040     -1.234947
  H       1.724512      0.197306     -1.068973
  H      -1.365596     -2.038822     -4.870759
  H      -2.885738     -1.642343     -4.001188
  H      -2.033517     -3.181371     -3.654493
  H      -0.323496      0.245985     -4.067849
  H      -0.397430      0.661271     -2.312882
  H      -1.898211      0.591080     -3.278171
  H      -2.001226     -2.572793     -1.152184
  H      -2.855885     -1.045902     -1.525984
  H      -1.319060     -0.981340     -0.606318
  H      -0.387611      3.170397      0.949629
  H       1.123743      3.552576      0.062896
  H       0.763631      4.380348      1.616057
  H      -0.290937      1.894583      3.173388
  H       0.891964      3.086556      3.822769
  H       1.283209      1.330531      3.828203
  H       3.389225      2.700985      0.964967
  H       3.451846      1.800517      2.515535
  H       3.078160      3.559655      2.509892
  Si      2.425111     -3.957731      1.287595
  C       2.915538     -5.752407      0.878371
  C       3.154089     -3.467471      2.966762
  C       0.520572     -3.857860      1.426643
  H       4.017271     -5.859693      0.754784
  H       2.434873     -6.106575     -0.057998
  H       2.591236     -6.431403      1.704426
  H       2.881556     -2.424121      3.215169
  H       4.260910     -3.550373      2.976981
  H       2.746105     -4.132110      3.761486
  H       0.183102     -2.803388      1.519480
  H       0.198677     -4.406421      2.344392
  H      -0.012995     -4.326067      0.574971
  H       4.292502     -3.070160      0.263511
  C       3.886179     -3.749109     -3.867432
  C       4.231023     -2.437041     -3.933089
  H       3.678479     -4.215017     -2.884392
  H       3.820755     -4.397033     -4.761201
  Si      4.689897     -1.426675     -5.474986
  H       4.272464     -1.921439     -2.947380
  C       4.414877     -2.482839     -7.013194
  C       6.502477     -0.913759     -5.324812
  C       3.587205      0.106512     -5.520303
  H       5.020262     -3.409148     -6.988796
  H       4.704034     -1.920864     -7.927985
  H       3.349322     -2.770366     -7.117623
  H       7.167885     -1.796902     -5.306426
  H       6.675170     -0.339160     -4.396512
  H       6.803712     -0.274235     -6.181347
  H       2.512832     -0.173429     -5.592911
  H       3.840848      0.742427     -6.391610
  H       3.715693      0.719501     -4.607548
  H       2.061435     -2.563100     -4.094425
  H       2.519316     -0.992723      1.143583
71
Coordinates from ORCA-job my_molecule E -2465.728108157867
  Pt      3.016375     -2.502591     -0.416350
  O      -0.315879      0.332947      0.779963
  O       1.512836     -1.427625     -1.642726
  P       1.139396      0.725458      0.949951
  P       0.531790     -2.163363     -2.601990
  O       0.306360     -3.694280     -2.090089
  O       1.112565     -2.271412     -4.111262
  O       1.940878      0.967130     -0.464948
  O       2.046525     -0.365683      1.776444
  C       1.409540      2.304809      1.869024
  C      -1.116158     -1.376276     -2.781345
  C      -1.881630     -2.111027     -3.901147
  C      -0.903289      0.113718     -3.134021
  C      -1.849643     -1.513856     -1.426699
  C       0.667409      3.412113      1.089654
  C       0.785306      2.128464      3.265806
  C       2.914229      2.611659      1.974955
  H       0.802659     -3.821502     -1.234790
  H       1.718358      0.201094     -1.073743
  H      -1.365440     -2.039731     -4.878392
  H      -2.883851     -1.645281     -4.001817
  H      -2.031029     -3.178607     -3.659749
  H      -0.326958      0.244435     -4.071147
  H      -0.396549      0.655509     -2.314688
  H      -1.897480      0.585570     -3.277915
  H      -1.996749     -2.576843     -1.152013
  H      -2.855648     -1.053069     -1.528007
  H      -1.318946     -0.985638     -0.606592
  H      -0.405504      3.159065      0.970178
  H       1.101831      3.555290      0.079696
  H       0.742559      4.373992      1.636977
  H      -0.291295      1.876834      3.188756
  H       0.887754      3.073965      3.835625
  H       1.289191      1.322334      3.839241
  H       3.373865      2.713040      0.974808
  H       3.447398      1.807728      2.520592
  H       3.065694      3.564103      2.522726
  Si      2.422356     -3.948658      1.291575
  C       2.907330     -5.743757      0.885651
  C       3.153280     -3.456056      2.971465
  C       0.519833     -3.844942      1.429311
  H       4.004965     -5.855848      0.767231
  H       2.429765     -6.102261     -0.050325
  H       2.578613     -6.413649      1.711255
  H       2.885006     -2.413571      3.220686
  H       4.255636     -3.539939      2.981682
  H       2.747078     -4.117088      3.762786
  H       0.186330     -2.793133      1.519729
  H       0.197712     -4.388155      2.346416
  H      -0.014320     -4.313630      0.577495
  H       4.291135     -3.071748      0.264476
  C       3.892398     -3.748043     -3.876720
  C       4.240153     -2.440132     -3.941276
  H       3.683564     -4.219289     -2.894451
  H       3.826494     -4.391558     -4.771328
  Si      4.696288     -1.433750     -5.486707
  H       4.285705     -1.923313     -2.955676
  C       4.396446     -2.492351     -7.036065
  C       6.523005     -0.941428     -5.342596
  C       3.599556      0.119406     -5.518098
  H       4.995963     -3.430234     -7.019520
  H       4.681688     -1.932221     -7.949659
  H       3.326922     -2.770372     -7.139405
  H       7.184217     -1.839044     -5.334023
  H       6.716082     -0.364328     -4.403981
  H       6.820113     -0.304736     -6.200542
  H       2.522833     -0.150237     -5.583110
  H       3.844616      0.754378     -6.391764
  H       3.744833      0.735007     -4.597319
  H       2.072160     -2.557234     -4.101196
  H       2.520084     -0.987310      1.141125
71
Coordinates from ORCA-job my_molecule E -2465.728201701208
  Pt      3.018981     -2.504233     -0.418441
  O      -0.304494      0.328159      0.780535
  O       1.519623     -1.420840     -1.640558
  P       1.141830      0.726172      0.954109
  P       0.540082     -2.156982     -2.597513
  O       0.325932     -3.688132     -2.084966
  O       1.111199     -2.263611     -4.105344
  O       1.944592      0.974853     -0.462970
  O       2.052956     -0.356320      1.784952
  C       1.403941      2.303982      1.877427
  C      -1.109331     -1.374598     -2.780413
  C      -1.870729     -2.113216     -3.902898
  C      -0.899730      0.108197     -3.133286
  C      -1.840040     -1.510797     -1.431568
  C       0.660747      3.409004      1.103347
  C       0.777778      2.117514      3.273092
  C       2.906450      2.618086      1.984029
  H       0.822066     -3.815329     -1.243153
  H       1.726480      0.214584     -1.064775
  H      -1.350414     -2.039112     -4.877417
  H      -2.874403     -1.653666     -4.010957
  H      -2.011437     -3.184112     -3.658608
  H      -0.322602      0.235973     -4.067353
  H      -0.394852      0.652327     -2.310569
  H      -1.891186      0.575456     -3.283160
  H      -1.984952     -2.572962     -1.156944
  H      -2.842762     -1.051649     -1.536241
  H      -1.308600     -0.984578     -0.609983
  H      -0.412733      3.153932      0.980083
  H       1.097446      3.558098      0.095958
  H       0.734188      4.367552      1.657708
  H      -0.298929      1.862297      3.194823
  H       0.876172      3.060818      3.847260
  H       1.282437      1.312320      3.839935
  H       3.367285      2.722848      0.982652
  H       3.441541      1.816320      2.525493
  H       3.052749      3.571566      2.534644
  Si      2.419853     -3.943375      1.289374
  C       2.896872     -5.738098      0.885707
  C       3.154524     -3.451643      2.967531
  C       0.518066     -3.830475      1.424162
  H       3.986284     -5.851915      0.767435
  H       2.419227     -6.099054     -0.046493
  H       2.573992     -6.397779      1.709396
  H       2.891004     -2.399131      3.209650
  H       4.258700     -3.546502      2.975651
  H       2.742712     -4.105481      3.764334
  H       0.188080     -2.778711      1.512845
  H       0.198989     -4.366459      2.336045
  H      -0.017397     -4.300050      0.569319
  H       4.289759     -3.079118      0.257663
  C       3.885158     -3.749040     -3.878679
  C       4.237135     -2.446277     -3.944100
  H       3.676170     -4.222521     -2.901129
  H       3.814571     -4.390396     -4.772099
  Si      4.693218     -1.441322     -5.490793
  H       4.289007     -1.929110     -2.961212
  C       4.391662     -2.495572     -7.036957
  C       6.518304     -0.949404     -5.354124
  C       3.599179      0.107534     -5.519049
  H       4.987339     -3.432855     -7.021181
  H       4.678139     -1.934871     -7.948883
  H       3.321707     -2.772403     -7.139579
  H       7.173310     -1.840708     -5.338943
  H       6.709442     -0.372487     -4.428430
  H       6.822062     -0.319501     -6.212415
  H       2.534837     -0.168010     -5.581714
  H       3.840519      0.755665     -6.393238
  H       3.737117      0.712894     -4.598737
  H       2.068854     -2.552125     -4.097762
  H       2.528634     -0.988369      1.139562
71
Coordinates from ORCA-job my_molecule E -2465.728564511818
  Pt      3.025839     -2.504209     -0.418106
  O      -0.299172      0.313509      0.794718
  O       1.525860     -1.417939     -1.642916
  P       1.145279      0.718982      0.958601
  P       0.553107     -2.152741     -2.600534
  O       0.344411     -3.685495     -2.090299
  O       1.122913     -2.253210     -4.109601
  O       1.939458      0.973375     -0.458672
  O       2.070010     -0.362660      1.783258
  C       1.397870      2.301804      1.882669
  C      -1.101831     -1.377905     -2.776597
  C      -1.864859     -2.117461     -3.899537
  C      -0.901526      0.110562     -3.125016
  C      -1.831067     -1.523660     -1.422684
  C       0.640685      3.403067      1.113121
  C       0.777214      2.110699      3.283582
  C       2.898266      2.629123      1.983697
  H       0.847136     -3.811379     -1.250902
  H       1.724372      0.213887     -1.064513
  H      -1.345136     -2.037267     -4.876065
  H      -2.873403     -1.661983     -4.003893
  H      -2.000314     -3.194869     -3.658419
  H      -0.325263      0.247007     -4.064719
  H      -0.394793      0.655241     -2.301351
  H      -1.902594      0.574753     -3.266693
  H      -1.972708     -2.589523     -1.152712
  H      -2.837077     -1.066965     -1.521257
  H      -1.298999     -0.997005     -0.598177
  H      -0.428327      3.137895      0.994723
  H       1.070924      3.557737      0.103966
  H       0.704570      4.363429      1.669169
  H      -0.295658      1.844942      3.211104
  H       0.866618      3.058074      3.860182
  H       1.292582      1.309573      3.848682
  H       3.356847      2.742592      0.979855
  H       3.443899      1.829334      2.522918
  H       3.035360      3.583151      2.537418
  Si      2.414482     -3.935950      1.292296
  C       2.876709     -5.741251      0.898758
  C       3.149386     -3.444922      2.968098
  C       0.510086     -3.804388      1.419676
  H       3.973940     -5.870477      0.788188
  H       2.398590     -6.097671     -0.036986
  H       2.534184     -6.401105      1.726343
  H       2.891693     -2.392432      3.209157
  H       4.253716     -3.544451      2.979022
  H       2.731162     -4.097273      3.763661
  H       0.186230     -2.742784      1.499027
  H       0.176777     -4.337589      2.338610
  H      -0.023062     -4.274008      0.564173
  H       4.297341     -3.084214      0.264875
  C       3.884871     -3.755091     -3.893826
  C       4.245309     -2.448542     -3.954031
  H       3.675977     -4.231343     -2.916262
  H       3.805476     -4.395305     -4.795207
  Si      4.700389     -1.442634     -5.502342
  H       4.303180     -1.931642     -2.968288
  C       4.386906     -2.492161     -7.042305
  C       6.526916     -0.961911     -5.375673
  C       3.619229      0.110199     -5.526746
  H       4.978121     -3.424529     -7.029390
  H       4.670545     -1.934606     -7.959442
  H       3.316453     -2.764049     -7.131588
  H       7.180734     -1.858252     -5.372328
  H       6.723617     -0.393581     -4.446040
  H       6.824175     -0.322212     -6.237231
  H       2.536701     -0.150422     -5.577215
  H       3.865122      0.739780     -6.404895
  H       3.775133      0.721613     -4.619694
  H       2.077767     -2.545910     -4.105085
  H       2.535963     -0.992099      1.139778
71
Coordinates from ORCA-job my_molecule E -2465.728736392296
  Pt      3.026919     -2.503140     -0.424001
  O      -0.296605      0.291702      0.801181
  O       1.528953     -1.418162     -1.645626
  P       1.151591      0.715614      0.958046
  P       0.553503     -2.154136     -2.603458
  O       0.343066     -3.688391     -2.099711
  O       1.128080     -2.246697     -4.113885
  O       1.931818      0.980246     -0.463648
  O       2.096302     -0.360378      1.772050
  C       1.396697      2.297105      1.883287
  C      -1.101195     -1.381929     -2.772176
  C      -1.861842     -2.117215     -3.893710
  C      -0.905993      0.112956     -3.115935
  C      -1.827698     -1.538067     -1.418676
  C       0.620772      3.393128      1.118474
  C       0.790035      2.098122      3.285986
  C       2.895505      2.638749      1.975851
  H       0.856689     -3.818779     -1.257929
  H       1.719717      0.214219     -1.069700
  H      -1.348275     -2.034614     -4.870101
  H      -2.869110     -1.661070     -3.991331
  H      -1.998916     -3.189836     -3.656590
  H      -0.336228      0.255907     -4.054804
  H      -0.400966      0.656052     -2.295994
  H      -1.905277      0.575084     -3.253368
  H      -1.963698     -2.606091     -1.152990
  H      -2.837664     -1.084185     -1.511690
  H      -1.296746     -1.015024     -0.597462
  H      -0.446243      3.116016      1.005893
  H       1.043112      3.554820      0.106501
  H       0.676764      4.352856      1.673988
  H      -0.280934      1.820448      3.217986
  H       0.874817      3.043199      3.861800
  H       1.319606      1.300753      3.849875
  H       3.343595      2.756812      0.969830
  H       3.453698      1.844208      2.511826
  H       3.028732      3.593552      2.528946
  Si      2.405660     -3.928188      1.292684
  C       2.865371     -5.733688      0.906174
  C       3.137796     -3.434478      2.971179
  C       0.505263     -3.792658      1.418687
  H       3.963685     -5.867109      0.803095
  H       2.391462     -6.093784     -0.030705
  H       2.513242     -6.389775      1.737127
  H       2.883561     -2.384112      3.208572
  H       4.241964     -3.538244      2.987875
  H       2.712609     -4.083542      3.769267
  H       0.187472     -2.733154      1.498785
  H       0.169604     -4.323822      2.338960
  H      -0.029788     -4.257766      0.565016
  H       4.293566     -3.085832      0.257543
  C       3.888747     -3.753178     -3.898266
  C       4.252086     -2.448814     -3.959014
  H       3.676786     -4.233639     -2.923220
  H       3.810735     -4.388183     -4.796426
  Si      4.708446     -1.443799     -5.506318
  H       4.311998     -1.931610     -2.977925
  C       4.376858     -2.490834     -7.049256
  C       6.539616     -0.976149     -5.384530
  C       3.638757      0.121971     -5.522284
  H       4.959459     -3.437998     -7.040039
  H       4.663551     -1.931033     -7.965012
  H       3.300855     -2.750698     -7.141358
  H       7.181967     -1.876063     -5.380156
  H       6.747654     -0.405509     -4.459741
  H       6.841467     -0.344353     -6.243406
  H       2.559037     -0.133662     -5.573804
  H       3.883456      0.758223     -6.397274
  H       3.802569      0.729259     -4.605927
  H       2.084024     -2.540445     -4.109179
  H       2.542193     -0.987916      1.132232
71
Coordinates from ORCA-job my_molecule E -2465.729038277459
  Pt      3.033365     -2.500943     -0.421699
  O      -0.289467      0.284449      0.810459
  O       1.540243     -1.405304     -1.646275
  P       1.153913      0.717411      0.967842
  P       0.566822     -2.146862     -2.606075
  O       0.369933     -3.684433     -2.103741
  O       1.137874     -2.234258     -4.117650
  O       1.932121      0.989569     -0.454731
  O       2.105291     -0.346674      1.781035
  C       1.387543      2.297165      1.896399
  C      -1.092868     -1.383379     -2.773671
  C      -1.852090     -2.121679     -3.896242
  C      -0.902609      0.109750     -3.116038
  C      -1.817389     -1.540795     -1.418815
  C       0.603585      3.388420      1.138219
  C       0.784817      2.089303      3.299259
  C       2.883041      2.649398      1.986044
  H       0.893587     -3.815551     -1.270149
  H       1.725422      0.226024     -1.061947
  H      -1.338566     -2.035689     -4.873166
  H      -2.861120     -1.670383     -3.992224
  H      -1.983532     -3.195469     -3.660680
  H      -0.333825      0.253478     -4.055563
  H      -0.397499      0.653614     -2.295726
  H      -1.903437      0.567441     -3.251131
  H      -1.951506     -2.608185     -1.154334
  H      -2.826640     -1.089554     -1.511064
  H      -1.286953     -1.016465     -0.595344
  H      -0.462321      3.104510      1.026750
  H       1.023333      3.557293      0.126438
  H       0.654336      4.344936      1.698031
  H      -0.284191      1.803735      3.233732
  H       0.862810      3.033976      3.876077
  H       1.320827      1.296034      3.858181
  H       3.327683      2.774781      0.981349
  H       3.447313      1.857140      2.515205
  H       3.010728      3.600185      2.542614
  Si      2.400889     -3.919716      1.296402
  C       2.847282     -5.729166      0.913062
  C       3.135224     -3.430009      2.974634
  C       0.500391     -3.769770      1.416085
  H       3.941975     -5.872580      0.814566
  H       2.373535     -6.090058     -0.023221
  H       2.488809     -6.376076      1.742937
  H       2.888243     -2.376418      3.209892
  H       4.237951     -3.542114      2.992503
  H       2.705443     -4.074574      3.771231
  H       0.188534     -2.709621      1.491710
  H       0.160482     -4.294571      2.334885
  H      -0.033603     -4.234081      0.561222
  H       4.296124     -3.094010      0.263281
  C       3.887682     -3.757149     -3.910443
  C       4.258115     -2.455562     -3.968316
  H       3.675555     -4.242285     -2.937045
  H       3.802255     -4.389484     -4.812966
  Si      4.710129     -1.451961     -5.519082
  H       4.326921     -1.936707     -2.985026
  C       4.370143     -2.494029     -7.062736
  C       6.542391     -0.991992     -5.409573
  C       3.642962      0.112340     -5.525276
  H       4.950803     -3.440207     -7.058768
  H       4.652213     -1.935303     -7.979711
  H       3.295809     -2.751983     -7.148240
  H       7.187578     -1.899948     -5.419858
  H       6.762136     -0.426350     -4.472585
  H       6.833047     -0.354139     -6.272000
  H       2.570886     -0.143898     -5.568174
  H       3.881037      0.753511     -6.402693
  H       3.809390      0.714180     -4.605877
  H       2.092465     -2.533079     -4.115092
  H       2.550936     -0.982931      1.134992
71
Coordinates from ORCA-job my_molecule E -2465.729018395530
  Pt      3.038051     -2.501266     -0.422686
  O      -0.278874      0.269910      0.822670
  O       1.547825     -1.398675     -1.643608
  P       1.154714      0.714830      0.976159
  P       0.577647     -2.141981     -2.605362
  O       0.392353     -3.681570     -2.105742
  O       1.144306     -2.221936     -4.117814
  O       1.925823      0.996355     -0.450117
  O       2.117393     -0.336946      1.787438
  C       1.376548      2.295352      1.906996
  C      -1.085531     -1.386160     -2.769519
  C      -1.844064     -2.125592     -3.896150
  C      -0.903339      0.106490     -3.106517
  C      -1.806597     -1.549056     -1.413963
  C       0.581406      3.379697      1.154047
  C       0.777850      2.078847      3.312259
  C       2.867968      2.663411      1.992693
  H       0.921586     -3.809676     -1.281019
  H       1.724530      0.234688     -1.056275
  H      -1.329847     -2.032518     -4.874544
  H      -2.856141     -1.680869     -3.991916
  H      -1.967065     -3.203473     -3.663792
  H      -0.335853      0.256068     -4.047334
  H      -0.398278      0.650359     -2.282363
  H      -1.908626      0.559221     -3.238294
  H      -1.937947     -2.616839     -1.153250
  H      -2.815403     -1.098897     -1.504191
  H      -1.274473     -1.026456     -0.586365
  H      -0.482546      3.085457      1.043890
  H       0.997258      3.555249      0.142028
  H       0.625027      4.335382      1.718109
  H      -0.288306      1.782392      3.250111
  H       0.847036      3.023463      3.891389
  H       1.322275      1.290970      3.867224
  H       3.310469      2.795745      0.985818
  H       3.441260      1.876523      2.518203
  H       2.985245      3.615599      2.551707
  Si      2.396905     -3.910311      1.296003
  C       2.830381     -5.723669      0.917374
  C       3.136022     -3.420467      2.970379
  C       0.497166     -3.748336      1.409901
  H       3.921317     -5.875794      0.824597
  H       2.357456     -6.083743     -0.018775
  H       2.466594     -6.362231      1.744534
  H       2.896321     -2.362084      3.204604
  H       4.235204     -3.539343      2.985676
  H       2.705127     -4.059635      3.764881
  H       0.189774     -2.684444      1.479211
  H       0.152200     -4.267625      2.326911
  H      -0.035156     -4.214066      0.551488
  H       4.297610     -3.100437      0.261549
  C       3.884343     -3.758537     -3.923296
  C       4.262180     -2.459463     -3.977538
  H       3.672144     -4.248044     -2.953473
  H       3.791147     -4.387300     -4.829977
  Si      4.715135     -1.459664     -5.529225
  H       4.338407     -1.940571     -2.993976
  C       4.350817     -2.502698     -7.070786
  C       6.559528     -1.019585     -5.428326
  C       3.666083      0.123155     -5.529536
  H       4.920238     -3.454621     -7.069571
  H       4.634535     -1.950174     -7.986626
  H       3.270027     -2.748971     -7.150523
  H       7.188441     -1.928054     -5.429768
  H       6.787875     -0.450369     -4.509492
  H       6.863482     -0.396744     -6.289618
  H       2.573320     -0.111395     -5.558546
  H       3.906433      0.747596     -6.409485
  H       3.860376      0.733750     -4.620880
  H       2.096739     -2.524431     -4.118756
  H       2.562458     -0.982544      1.133232
71
Coordinates from ORCA-job my_molecule E -2465.729498400913
  Pt      3.042412     -2.503712     -0.425684
  O      -0.268633      0.245893      0.832560
  O       1.555134     -1.398627     -1.646963
  P       1.163486      0.706959      0.977122
  P       0.586792     -2.139164     -2.607722
  O       0.403572     -3.679055     -2.111697
  O       1.152389     -2.212754     -4.121906
  O       1.922037      0.997884     -0.452435
  O       2.146381     -0.338728      1.781357
  C       1.374159      2.289391      1.909745
  C      -1.080010     -1.388100     -2.766360
  C      -1.836979     -2.125575     -3.892931
  C      -0.904462      0.106867     -3.100338
  C      -1.798571     -1.560345     -1.412146
  C       0.561287      3.366827      1.162999
  C       0.786372      2.062860      3.318266
  C       2.862472      2.674798      1.988470
  H       0.941255     -3.811024     -1.290931
  H       1.724402      0.231420     -1.058296
  H      -1.324029     -2.029372     -4.869917
  H      -2.851400     -1.683274     -3.988370
  H      -1.957160     -3.203845     -3.661172
  H      -0.340685      0.261852     -4.042346
  H      -0.399028      0.650472     -2.277261
  H      -1.911990      0.556745     -3.229130
  H      -1.925065     -2.630315     -1.154969
  H      -2.810262     -1.113203     -1.498669
  H      -1.266342     -1.041326     -0.586096
  H      -0.498697      3.059882      1.056808
  H       0.970254      3.550058      0.149912
  H       0.594963      4.322038      1.729575
  H      -0.276250      1.752873      3.260454
  H       0.847043      3.006813      3.900313
  H       1.344394      1.279785      3.869513
  H       3.297844      2.814324      0.978143
  H       3.449029      1.893583      2.510508
  H       2.971592      3.629130      2.549103
  Si      2.386504     -3.901026      1.300735
  C       2.809516     -5.719205      0.933854
  C       3.125092     -3.410160      2.975627
  C       0.488402     -3.722842      1.410810
  H       3.902394     -5.880097      0.850437
  H       2.340490     -6.080244     -0.004133
  H       2.431955     -6.352634      1.764702
  H       2.892142     -2.349720      3.204849
  H       4.225925     -3.538434      2.995637
  H       2.683762     -4.044220      3.773894
  H       0.190677     -2.655390      1.477805
  H       0.135789     -4.238388      2.330058
  H      -0.046039     -4.183427      0.551696
  H       4.298172     -3.106665      0.258120
  C       3.886318     -3.761335     -3.931432
  C       4.270213     -2.464088     -3.985074
  H       3.671785     -4.253996     -2.964035
  H       3.788528     -4.385198     -4.837773
  Si      4.721396     -1.461767     -5.537901
  H       4.351382     -1.946653     -3.005084
  C       4.347131     -2.494073     -7.078994
  C       6.561623     -1.029388     -5.447694
  C       3.681888      0.122279     -5.528592
  H       4.911951     -3.446704     -7.083456
  H       4.628056     -1.938031     -7.997932
  H       3.267387     -2.734749     -7.151039
  H       7.189691     -1.942164     -5.463912
  H       6.796278     -0.471474     -4.520756
  H       6.856197     -0.393880     -6.311376
  H       2.595582     -0.111298     -5.555406
  H       3.920543      0.755418     -6.408305
  H       3.876140      0.722659     -4.618244
  H       2.104453     -2.518450     -4.124111
  H       2.575283     -0.983440      1.129606
71
Coordinates from ORCA-job my_molecule E -2465.729683654739
  Pt      3.044193     -2.500777     -0.423469
  O      -0.264295      0.233839      0.845864
  O       1.563762     -1.387020     -1.648680
  P       1.168026      0.709485      0.983673
  P       0.597612     -2.133257     -2.611352
  O       0.423740     -3.677644     -2.121468
  O       1.163285     -2.197751     -4.125619
  O       1.917524      1.006870     -0.447851
  O       2.164223     -0.325698      1.781099
  C       1.367067      2.292669      1.914966
  C      -1.072121     -1.392739     -2.764136
  C      -1.826880     -2.132460     -3.888521
  C      -0.903418      0.108118     -3.094119
  C      -1.788181     -1.571475     -1.406397
  C       0.537629      3.363448      1.173574
  C       0.791430      2.061173      3.326250
  C       2.852083      2.692022      1.984593
  H       0.976523     -3.808577     -1.305159
  H       1.724966      0.241284     -1.057184
  H      -1.319395     -2.030605     -4.867454
  H      -2.842345     -1.694339     -3.973568
  H      -1.942386     -3.212349     -3.662988
  H      -0.344384      0.267485     -4.037160
  H      -0.397675      0.651501     -2.275093
  H      -1.909801      0.554729     -3.214845
  H      -1.910114     -2.644868     -1.153277
  H      -2.801967     -1.128384     -1.486696
  H      -1.257684     -1.050955     -0.579929
  H      -0.519468      3.046203      1.074799
  H       0.937883      3.552189      0.157218
  H       0.563787      4.318390      1.739791
  H      -0.267748      1.740101      3.275536
  H       0.845218      3.006854      3.906595
  H       1.361935      1.284412      3.874926
  H       3.278134      2.837874      0.974402
  H       3.450123      1.915056      2.500771
  H       2.956566      3.643364      2.546193
  Si      2.378825     -3.896907      1.303624
  C       2.790843     -5.717831      0.935586
  C       3.116044     -3.415725      2.982189
  C       0.482454     -3.709892      1.407540
  H       3.885290     -5.890638      0.858586
  H       2.321936     -6.076096     -0.004737
  H       2.399391     -6.349029      1.766301
  H       2.889204     -2.358120      3.213669
  H       4.216749     -3.550716      3.007289
  H       2.667014     -4.050566      3.777189
  H       0.188407     -2.644187      1.473983
  H       0.123454     -4.224490      2.326187
  H      -0.048057     -4.166398      0.547258
  H       4.298031     -3.114314      0.265312
  C       3.886030     -3.762196     -3.943754
  C       4.276447     -2.464572     -3.992931
  H       3.670515     -4.261103     -2.978161
  H       3.782825     -4.382179     -4.854911
  Si      4.726027     -1.464036     -5.546789
  H       4.364595     -1.945580     -3.011003
  C       4.335205     -2.495862     -7.086319
  C       6.572565     -1.045600     -5.466633
  C       3.694062      0.125631     -5.529187
  H       4.894906     -3.455597     -7.093770
  H       4.615524     -1.941136     -8.005890
  H       3.251328     -2.728867     -7.154863
  H       7.193933     -1.965357     -5.487060
  H       6.821751     -0.485253     -4.539902
  H       6.865868     -0.416459     -6.330346
  H       2.614053     -0.105919     -5.547852
  H       3.926882      0.761237     -6.410467
  H       3.895174      0.723620     -4.615350
  H       2.113742     -2.507826     -4.129844
  H       2.585448     -0.972955      1.131858
71
Coordinates from ORCA-job my_molecule E -2465.730064312148
  Pt      3.048199     -2.501916     -0.425183
  O      -0.247508      0.200165      0.864439
  O       1.575353     -1.376726     -1.651076
  P       1.176785      0.702833      0.993964
  P       0.611490     -2.127403     -2.614035
  O       0.450755     -3.670634     -2.123817
  O       1.175658     -2.185935     -4.130565
  O       1.905886      1.019983     -0.443751
  O       2.201181     -0.315114      1.779734
  C       1.355968      2.282990      1.934075
  C      -1.063558     -1.393373     -2.765927
  C      -1.815715     -2.131065     -3.893798
  C      -0.901022      0.105836     -3.094147
  C      -1.777214     -1.578431     -1.409264
  C       0.500969      3.341629      1.207236
  C       0.796973      2.029523      3.347745
  C       2.833205      2.711228      1.992923
  H       1.019376     -3.804087     -1.315607
  H       1.721905      0.252074     -1.052004
  H      -1.308320     -2.024612     -4.872181
  H      -2.833936     -1.697668     -3.980354
  H      -1.926203     -3.208815     -3.669788
  H      -0.343179      0.268235     -4.037778
  H      -0.396337      0.650365     -2.272617
  H      -1.911198      0.547936     -3.217283
  H      -1.896116     -2.650341     -1.158761
  H      -2.792043     -1.135993     -1.488710
  H      -1.245797     -1.062763     -0.581760
  H      -0.550874      3.004489      1.113539
  H       0.890441      3.545755      0.189906
  H       0.513916      4.291194      1.780896
  H      -0.256414      1.687118      3.302794
  H       0.837470      2.969775      3.934361
  H       1.387243      1.260784      3.886273
  H       3.247053      2.871773      0.979339
  H       3.450980      1.943877      2.498361
  H       2.924306      3.660624      2.559567
  Si      2.366564     -3.878259      1.311000
  C       2.761216     -5.704534      0.954494
  C       3.111161     -3.391719      2.984465
  C       0.474320     -3.670264      1.413249
  H       3.851846     -5.888689      0.888677
  H       2.296543     -6.065778      0.013893
  H       2.357534     -6.322820      1.785151
  H       2.897696     -2.327346      3.209106
  H       4.209369     -3.541664      3.009242
  H       2.653871     -4.015115      3.783866
  H       0.193263     -2.600192      1.475601
  H       0.108947     -4.176733      2.331924
  H      -0.059276     -4.123531      0.552033
  H       4.295272     -3.123339      0.260527
  C       3.888105     -3.767892     -3.961104
  C       4.286694     -2.474818     -4.008897
  H       3.670248     -4.272469     -2.999030
  H       3.777181     -4.381048     -4.874016
  Si      4.733384     -1.476313     -5.565921
  H       4.383826     -1.954574     -3.030113
  C       4.323470     -2.500005     -7.104496
  C       6.581973     -1.074065     -5.500005
  C       3.717752      0.121679     -5.537861
  H       4.874300     -3.463024     -7.117893
  H       4.601174     -1.946056     -8.025391
  H       3.239632     -2.723894     -7.165411
  H       7.195790     -1.999722     -5.530572
  H       6.844721     -0.520319     -4.570241
  H       6.870970     -0.442446     -6.365428
  H       2.630829     -0.095785     -5.543084
  H       3.948265      0.750579     -6.421335
  H       3.938945      0.719432     -4.626971
  H       2.124923     -2.501165     -4.138604
  H       2.604121     -0.968171      1.128489
71
Coordinates from ORCA-job my_molecule E -2465.730412896456
  Pt      3.050142     -2.507960     -0.426376
  O      -0.221731      0.163739      0.891070
  O       1.589915     -1.373323     -1.649168
  P       1.188503      0.694402      1.001554
  P       0.630304     -2.120680     -2.615422
  O       0.480600     -3.668158     -2.133543
  O       1.187914     -2.164232     -4.135364
  O       1.895840      1.023903     -0.444844
  O       2.244546     -0.298003      1.781252
  C       1.347252      2.281032      1.936286
  C      -1.050460     -1.400656     -2.753353
  C      -1.800796     -2.137133     -3.884131
  C      -0.902618      0.101296     -3.070469
  C      -1.756468     -1.600623     -1.396872
  C       0.464373      3.320614      1.218219
  C       0.807198      2.017271      3.357938
  C       2.814689      2.741534      1.979555
  H       1.063478     -3.794874     -1.339656
  H       1.721143      0.249159     -1.049359
  H      -1.296273     -2.017895     -4.861867
  H      -2.824090     -1.714925     -3.966413
  H      -1.896904     -3.220999     -3.666653
  H      -0.350573      0.276618     -4.016349
  H      -0.396268      0.644343     -2.247667
  H      -1.918933      0.536163     -3.183259
  H      -1.868144     -2.675814     -1.155234
  H      -2.773010     -1.162383     -1.468021
  H      -1.222141     -1.090395     -0.566426
  H      -0.580802      2.961888      1.133702
  H       0.840260      3.532106      0.198358
  H       0.463013      4.270750      1.794361
  H      -0.238072      1.651762      3.324859
  H       0.831827      2.958184      3.946762
  H       1.418691      1.262273      3.889624
  H       3.216212      2.909566      0.959259
  H       3.454794      1.989849      2.480389
  H       2.887666      3.696647      2.545378
  Si      2.347593     -3.867853      1.315839
  C       2.721984     -5.699672      0.968769
  C       3.094435     -3.389990      2.989909
  C       0.456815     -3.632973      1.406151
  H       3.810085     -5.898061      0.918330
  H       2.263678     -6.057060      0.024548
  H       2.300163     -6.308598      1.796443
  H       2.892486     -2.323575      3.217354
  H       4.189039     -3.552213      3.016114
  H       2.630361     -4.009388      3.784613
  H       0.186712     -2.556211      1.462688
  H       0.074598     -4.135026      2.323686
  H      -0.070087     -4.078670      0.535495
  H       4.290914     -3.139804      0.257417
  C       3.888198     -3.771117     -3.979731
  C       4.297156     -2.481850     -4.021714
  H       3.666950     -4.284471     -3.025703
  H       3.766657     -4.374092     -4.895978
  Si      4.743652     -1.481679     -5.578803
  H       4.403864     -1.963898     -3.046468
  C       4.307048     -2.493725     -7.117781
  C       6.593964     -1.100450     -5.525978
  C       3.752859      0.133480     -5.538014
  H       4.845885     -3.463859     -7.139906
  H       4.581981     -1.938602     -8.038766
  H       3.220939     -2.704281     -7.169220
  H       7.195931     -2.030060     -5.564649
  H       6.865382     -0.557952     -4.600441
  H       6.882814     -0.463410     -6.392532
  H       2.660486     -0.067763     -5.536994
  H       3.985450      0.766286     -6.420413
  H       3.991170      0.723111     -4.630066
  H       2.135751     -2.485685     -4.146966
  H       2.638320     -0.962691      1.126738
71
Coordinates from ORCA-job my_molecule E -2465.730955474866
  Pt      3.056922     -2.506872     -0.421975
  O      -0.195283      0.116451      0.924603
  O       1.609981     -1.353955     -1.653302
  P       1.202695      0.687077      1.021880
  P       0.654225     -2.104947     -2.622284
  O       0.520887     -3.653936     -2.144456
  O       1.210680     -2.136210     -4.143727
  O       1.881894      1.041333     -0.432011
  O       2.296426     -0.277391      1.785174
  C       1.325966      2.273163      1.964152
  C      -1.033402     -1.396159     -2.759289
  C      -1.780203     -2.133394     -3.891501
  C      -0.894726      0.106795     -3.074512
  C      -1.736809     -1.604154     -1.402792
  C       0.402889      3.291021      1.262089
  C       0.810907      1.983580      3.390700
  C       2.780596      2.778603      1.994216
  H       1.127793     -3.783002     -1.364985
  H       1.720163      0.267380     -1.039446
  H      -1.278389     -2.006894     -4.870574
  H      -2.807009     -1.718681     -3.970485
  H      -1.868170     -3.217670     -3.677595
  H      -0.348081      0.286671     -4.022080
  H      -0.387707      0.650181     -2.253921
  H      -1.911794      0.536951     -3.183561
  H      -1.843656     -2.680374     -1.164685
  H      -2.755143     -1.168842     -1.471175
  H      -1.202781     -1.096741     -0.571590
  H      -0.633069      2.901233      1.185591
  H       0.761732      3.521496      0.239725
  H       0.378618      4.237686      1.845877
  H      -0.223215      1.584617      3.366897
  H       0.811784      2.922272      3.986319
  H       1.453103      1.244479      3.911594
  H       3.165205      2.966584      0.970176
  H       3.450855      2.043364      2.482180
  H       2.830615      3.732505      2.566854
  Si      2.334602     -3.846660      1.329214
  C       2.685036     -5.685187      0.991669
  C       3.088054     -3.373575      3.002410
  C       0.449093     -3.589201      1.413168
  H       3.770447     -5.903029      0.956073
  H       2.230380     -6.041176      0.044721
  H       2.241410     -6.281785      1.817479
  H       2.904440     -2.301665      3.225467
  H       4.181868     -3.558302      3.032396
  H       2.608378     -3.982396      3.799948
  H       0.191967     -2.512723      1.473136
  H       0.058696     -4.089870      2.323053
  H      -0.077748     -4.023858      0.537294
  H       4.290999     -3.155672      0.263397
  C       3.889553     -3.779582     -4.006303
  C       4.311024     -2.494278     -4.044345
  H       3.667075     -4.300912     -3.055764
  H       3.753365     -4.373751     -4.928655
  Si      4.751780     -1.499602     -5.607708
  H       4.432104     -1.975379     -3.069269
  C       4.281323     -2.506599     -7.138761
  C       6.611564     -1.146049     -5.583111
  C       3.782378      0.126770     -5.552648
  H       4.807965     -3.480511     -7.166536
  H       4.552732     -1.957872     -8.064962
  H       3.189207     -2.702102     -7.172837
  H       7.200596     -2.083956     -5.632337
  H       6.906179     -0.607160     -4.661617
  H       6.897215     -0.515606     -6.452927
  H       2.686022     -0.058504     -5.530819
  H       4.009707      0.752996     -6.440322
  H       4.043120      0.714349     -4.650721
  H       2.153694     -2.468363     -4.160734
  H       2.675587     -0.949756      1.130956
71
Coordinates from ORCA-job my_molecule E -2465.731405473083
  Pt      3.047527     -2.507160     -0.416816
  O      -0.172617      0.078907      0.956534
  O       1.621996     -1.331932     -1.656675
  P       1.212963      0.686630      1.033538
  P       0.671334     -2.095860     -2.623211
  O       0.560447     -3.644790     -2.142360
  O       1.224212     -2.120974     -4.143100
  O       1.855859      1.060694     -0.428876
  O       2.341818     -0.248548      1.773687
  C       1.314148      2.269502      1.977940
  C      -1.020660     -1.398712     -2.758157
  C      -1.763388     -2.137201     -3.892869
  C      -0.886994      0.109639     -3.069875
  C      -1.723587     -1.612816     -1.398283
  C       0.355494      3.266978      1.296513
  C       0.832912      1.962772      3.409275
  C       2.754456      2.807759      1.982512
  H       1.199775     -3.768795     -1.381535
  H       1.707996      0.283300     -1.036531
  H      -1.265749     -1.998903     -4.873808
  H      -2.794611     -1.731879     -3.962319
  H      -1.842294     -3.223531     -3.690115
  H      -0.336817      0.291505     -4.015740
  H      -0.383537      0.655086     -2.246012
  H      -1.905393      0.537390     -3.182065
  H      -1.831507     -2.690545     -1.166910
  H      -2.740777     -1.174046     -1.459992
  H      -1.187686     -1.111517     -0.563335
  H      -0.669843      2.854223      1.237849
  H       0.690412      3.508910      0.267853
  H       0.318474      4.207753      1.882085
  H      -0.189924      1.538493      3.402159
  H       0.821185      2.895690      4.008278
  H       1.501966      1.239207      3.913936
  H       3.113111      3.011284      0.956893
  H       3.451213      2.087400      2.452571
  H       2.794920      3.752470      2.556945
  Si      2.315576     -3.833994      1.339026
  C       2.647312     -5.675541      0.998159
  C       3.077631     -3.368359      3.009924
  C       0.435873     -3.558339      1.420368
  H       3.731087     -5.907038      0.975125
  H       2.197369     -6.026013      0.045991
  H       2.185713     -6.267737      1.818459
  H       2.907389     -2.298501      3.239294
  H       4.166894     -3.564849      3.038419
  H       2.593078     -3.973739      3.804316
  H       0.187190     -2.479100      1.480093
  H       0.034327     -4.057643      2.327350
  H      -0.083398     -3.989500      0.538771
  H       4.276090     -3.171367      0.267951
  C       3.892947     -3.783328     -4.027438
  C       4.320440     -2.499330     -4.060745
  H       3.668100     -4.314207     -3.082351
  H       3.749374     -4.368636     -4.954672
  Si      4.758780     -1.508235     -5.624884
  H       4.448726     -1.977094     -3.088002
  C       4.267418     -2.514023     -7.151119
  C       6.625542     -1.173803     -5.610625
  C       3.804729      0.126308     -5.563765
  H       4.787966     -3.491676     -7.180931
  H       4.535668     -1.966195     -8.077017
  H       3.173822     -2.703451     -7.180095
  H       7.203031     -2.119962     -5.662376
  H       6.938745     -0.632950     -4.691231
  H       6.911506     -0.551424     -6.478971
  H       2.712740     -0.051595     -5.530245
  H       4.026098      0.749777     -6.452764
  H       4.079619      0.713452     -4.663611
  H       2.165832     -2.458055     -4.166873
  H       2.694262     -0.928987      1.126574
71
Coordinates from ORCA-job my_molecule E -2465.732005248130
  Pt      3.051456     -2.511714     -0.406739
  O      -0.129952      0.009021      1.002740
  O       1.654755     -1.315997     -1.661917
  P       1.232736      0.675937      1.057602
  P       0.703885     -2.078661     -2.635159
  O       0.602395     -3.632208     -2.165660
  O       1.254560     -2.085200     -4.160811
  O       1.833196      1.081370     -0.415783
  O       2.413003     -0.213023      1.777164
  C       1.286867      2.259950      2.005159
  C      -0.991137     -1.392688     -2.763150
  C      -1.732301     -2.133741     -3.895693
  C      -0.862063      0.113713     -3.074022
  C      -1.688195     -1.609572     -1.403481
  C       0.275548      3.219916      1.345216
  C       0.845413      1.928186      3.444869
  C       2.704287      2.858615      1.984799
  H       1.274908     -3.751557     -1.426899
  H       1.705836      0.302838     -1.025228
  H      -1.242984     -1.987260     -4.878758
  H      -2.765937     -1.739378     -3.956403
  H      -1.798489     -3.221643     -3.696942
  H      -0.323106      0.296635     -4.023808
  H      -0.352562      0.657288     -2.257238
  H      -1.876161      0.539872     -3.175354
  H      -1.790830     -2.689019     -1.173044
  H      -2.706810     -1.175679     -1.463164
  H      -1.154168     -1.106078     -0.569196
  H      -0.735010      2.765027      1.302773
  H       0.581988      3.480874      0.313840
  H       0.211980      4.157043      1.936919
  H      -0.158289      1.459257      3.454341
  H       0.803305      2.859217      4.048553
  H       1.554765      1.231482      3.935885
  H       3.034642      3.078582      0.951424
  H       3.440212      2.166922      2.438429
  H       2.715766      3.807285      2.562511
  Si      2.293708     -3.814077      1.361883
  C       2.593990     -5.663433      1.027645
  C       3.067710     -3.363518      3.030045
  C       0.419524     -3.497630      1.440161
  H       3.673113     -5.917794      1.023879
  H       2.151773     -6.008521      0.070374
  H       2.104662     -6.242809      1.841813
  H       2.925514     -2.286722      3.256342
  H       4.152251     -3.593288      3.058402
  H       2.565525     -3.956056      3.828544
  H       0.189348     -2.412437      1.498315
  H      -0.000436     -3.992743      2.345438
  H      -0.095262     -3.913165      0.551062
  H       4.267460     -3.199241      0.277254
  C       3.893842     -3.799653     -4.059734
  C       4.336482     -2.520633     -4.088298
  H       3.666448     -4.340234     -3.120041
  H       3.732372     -4.371967     -4.991413
  Si      4.766110     -1.530192     -5.658519
  H       4.482432     -1.998439     -3.116555
  C       4.240662     -2.521891     -7.187226
  C       6.633079     -1.220525     -5.670368
  C       3.834837      0.119694     -5.575105
  H       4.752454     -3.507405     -7.232093
  H       4.496855     -1.970218     -8.116230
  H       3.149420     -2.700662     -7.200976
  H       7.197630     -2.173066     -5.734608
  H       6.964889     -0.689234     -4.751420
  H       6.913226     -0.595630     -6.542165
  H       2.737923     -0.037034     -5.515140
  H       4.044883      0.736956     -6.470472
  H       4.142337      0.703876     -4.676784
  H       2.191126     -2.435939     -4.188979
  H       2.754913     -0.908735      1.133286
71
Coordinates from ORCA-job my_molecule E -2465.712167439912
  Pt      2.990740     -2.470916     -0.352337
  O       0.246414     -0.392727      1.203238
  O       1.811995     -1.117973     -1.724409
  P       1.380107      0.584115      1.150594
  P       0.889201     -1.920692     -2.650209
  O       0.894877     -3.451391     -2.133820
  O       1.393837     -1.898222     -4.187430
  O       1.741941      1.118516     -0.360815
  O       2.772248     -0.033812      1.770941
  C       1.133073      2.160424      2.106978
  C      -0.861352     -1.303111     -2.721522
  C      -1.641261     -2.066962     -3.819257
  C      -0.815297      0.206402     -3.053435
  C      -1.523977     -1.560174     -1.359911
  C      -0.136277      2.841848      1.536621
  C       0.900764      1.721856      3.589986
  C       2.354073      3.105334      2.006294
  H       1.732767     -3.518732     -1.540255
  H       1.720938      0.335110     -0.991234
  H      -1.206864     -1.904434     -4.809428
  H      -2.707796     -1.728663     -3.849481
  H      -1.640367     -3.152239     -3.602714
  H      -0.317487      0.427999     -4.024851
  H      -0.285989      0.788750     -2.274408
  H      -1.904898      0.590847     -3.114014
  H      -1.635943     -2.632580     -1.170445
  H      -2.537679     -1.112741     -1.379734
  H      -0.935812     -1.151906     -0.508700
  H      -1.011935      2.153722      1.545689
  H       0.029889      3.168886      0.488186
  H      -0.393799      3.742892      2.163077
  H       0.052362      1.001301      3.659867
  H       0.646179      2.606259      4.247455
  H       1.810263      1.221477      4.003837
  H       2.546343      3.421648      0.939135
  H       3.291697      2.631902      2.399042
  H       2.134031      4.036552      2.616204
  Si      2.159416     -3.681137      1.463172
  C       2.328167     -5.540289      1.123015
  C       3.022867     -3.276862      3.119151
  C       0.333458     -3.273014      1.574981
  H       3.369321     -5.889737      1.194269
  H       1.923743     -5.830553      0.132353
  H       1.735716     -6.072805      1.882477
  H       2.959508     -2.204890      3.389902
  H       4.076374     -3.572757      3.132126
  H       2.514358     -3.831607      3.897431
  H       0.175705     -2.214054      1.763334
  H      -0.099033     -3.842075      2.374035
  H      -0.223051     -3.529317      0.630378
  H       4.114273     -3.336643      0.305555
  C       3.893218     -3.865518     -4.272330
  C       4.424324     -2.621165     -4.273307
  H       3.646766     -4.441636     -3.370619
  H       3.627998     -4.369359     -5.228158
  Si      4.867042     -1.650803     -5.853776
  H       4.651778     -2.121477     -3.313979
  C       4.126328     -2.571794     -7.298114
  C       6.757417     -1.538175     -6.020880
  C       4.152856      0.085202     -5.720345
  H       4.484680     -3.637105     -7.344546
  H       4.439199     -2.056962     -8.225946
  H       2.975266     -2.592960     -7.249289
  H       7.214697     -2.543519     -6.156065
  H       7.182707     -1.090379     -5.138449
  H       7.050530     -0.885290     -6.902069
  H       3.040281      0.041881     -5.591311
  H       4.405279      0.712222     -6.623138
  H       4.550396      0.610129     -4.883155
  H       2.284830     -2.319743     -4.284123
  H       3.030888     -0.813128      1.150777
71
Coordinates from ORCA-job my_molecule E -2465.728547249549
  Pt      2.976059     -2.497260     -0.317262
  O       0.119476     -0.257813      1.169039
  O       1.765753     -1.183883     -1.703281
  P       1.318457      0.643513      1.123103
  P       0.822595     -1.980274     -2.653933
  O       0.765570     -3.521654     -2.164018
  O       1.348325     -1.973236     -4.191320
  O       1.731956      1.124854     -0.382736
  O       2.669773     -0.036535      1.770690
  C       1.161140      2.224311      2.076068
  C      -0.883550     -1.299790     -2.770984
  C      -1.650376     -2.051233     -3.889052
  C      -0.743113      0.206134     -3.111141
  C      -1.596476     -1.488373     -1.417022
  C      -0.042686      2.986948      1.491673
  C       0.878302      1.815457      3.545874
  C       2.448141      3.068774      1.977218
  H       1.580029     -3.605776     -1.558639
  H       1.698452      0.323302     -0.996449
  H      -1.177510     -1.908464     -4.876292
  H      -2.696994     -1.667061     -3.937081
  H      -1.699482     -3.144587     -3.681651
  H      -0.203608      0.366613     -4.072158
  H      -0.204901      0.772397     -2.320512
  H      -1.776543      0.653054     -3.209844
  H      -1.760759     -2.561079     -1.193822
  H      -2.592553     -1.001411     -1.482879
  H      -1.028303     -1.050803     -0.564451
  H      -0.960645      2.365318      1.497089
  H       0.157961      3.292658      0.444849
  H      -0.233466      3.901138      2.100717
  H      -0.022319      1.164376      3.605811
  H       0.694716      2.708946      4.185664
  H       1.735520      1.254409      3.968507
  H       2.667897      3.350763      0.918454
  H       3.330372      2.532877      2.374366
  H       2.312985      4.013293      2.568194
  Si      2.203715     -3.788876      1.490945
  C       2.449869     -5.631873      1.116403
  C       3.070712     -3.376008      3.136004
  C       0.362061     -3.455522      1.656476
  H       3.517405     -5.927310      1.153440
  H       2.038421     -5.922600      0.126861
  H       1.900032     -6.216830      1.884959
  H       2.981331     -2.300899      3.399071
  H       4.144770     -3.651896      3.134468
  H       2.568040     -3.950292      3.941811
  H       0.185796     -2.394589      1.868269
  H      -0.053002     -4.060623      2.468790
  H      -0.206500     -3.721195      0.737933
  H       4.133910     -3.325018      0.319679
  C       3.917291     -3.864201     -4.219125
  C       4.397974     -2.598578     -4.231034
  H       3.689573     -4.428816     -3.300719
  H       3.686182     -4.395677     -5.165029
  Si      4.811074     -1.615641     -5.805352
  H       4.590719     -2.089999     -3.268126
  C       4.156953     -2.571921     -7.291563
  C       6.694167     -1.410754     -5.915473
  C       3.988710      0.082292     -5.678241
  H       4.596142     -3.585601     -7.334928
  H       4.438135     -2.041445     -8.223043
  H       3.032152     -2.676119     -7.261078
  H       7.205713     -2.386452     -6.024567
  H       7.086074     -0.923465     -5.014384
  H       6.970144     -0.776734     -6.789747
  H       2.882788     -0.016382     -5.581913
  H       4.214366      0.708451     -6.573513
  H       4.354200      0.633139     -4.801301
  H       2.254447     -2.372911     -4.272759
  H       2.940754     -0.802306      1.176086
71
Coordinates from ORCA-job my_molecule E -2465.730181109656
  Pt      2.983412     -2.513035     -0.320628
  O       0.081803     -0.276002      1.167030
  O       1.771612     -1.232301     -1.694809
  P       1.314954      0.627026      1.127826
  P       0.803802     -2.015429     -2.644329
  O       0.733504     -3.572934     -2.173032
  O       1.328789     -1.987083     -4.174863
  O       1.747597      1.104147     -0.376252
  O       2.676152     -0.049054      1.775820
  C       1.169423      2.207871      2.076660
  C      -0.894043     -1.329933     -2.775746
  C      -1.640081     -2.054178     -3.909409
  C      -0.745455      0.173199     -3.099234
  C      -1.601444     -1.529208     -1.420591
  C      -0.029894      2.988490      1.488571
  C       0.889450      1.810635      3.535059
  C       2.467099      3.027490      1.963770
  H       1.522606     -3.735691     -1.539218
  H       1.710792      0.304815     -0.980712
  H      -1.159890     -1.893545     -4.894785
  H      -2.671939     -1.658311     -3.959817
  H      -1.701424     -3.142506     -3.721663
  H      -0.208245      0.333576     -4.050328
  H      -0.216578      0.706497     -2.292139
  H      -1.741815      0.631497     -3.208799
  H      -1.760335     -2.604763     -1.201165
  H      -2.596501     -1.041473     -1.479314
  H      -1.047531     -1.080867     -0.573001
  H      -0.955876      2.378274      1.501783
  H       0.173983      3.286828      0.440884
  H      -0.208829      3.907076      2.084230
  H      -0.016659      1.172805      3.606648
  H       0.725768      2.717726      4.157029
  H       1.742251      1.239937      3.957457
  H       2.680719      3.297148      0.919744
  H       3.345465      2.468930      2.356897
  H       2.366043      3.957482      2.543152
  Si      2.199473     -3.772381      1.486742
  C       2.435855     -5.631812      1.139747
  C       3.074055     -3.342643      3.112359
  C       0.350387     -3.358255      1.648797
  H       3.507090     -5.921254      1.178219
  H       2.029567     -5.932141      0.152275
  H       1.890474     -6.215103      1.915988
  H       2.998483     -2.266932      3.353979
  H       4.137396     -3.626549      3.099815
  H       2.583295     -3.900638      3.928778
  H       0.201655     -2.254729      1.810982
  H      -0.093685     -3.923745      2.517151
  H      -0.220422     -3.646874      0.743605
  H       4.134412     -3.326527      0.323756
  C       3.910154     -3.865057     -4.215542
  C       4.393221     -2.599159     -4.234976
  H       3.686268     -4.420624     -3.284116
  H       3.677887     -4.402698     -5.152995
  Si      4.805003     -1.595296     -5.800885
  H       4.589964     -2.096049     -3.264762
  C       4.166901     -2.529545     -7.327466
  C       6.690992     -1.383786     -5.894171
  C       3.961983      0.095599     -5.650459
  H       4.623913     -3.536983     -7.397676
  H       4.430986     -1.974227     -8.251566
  H       3.071011     -2.660847     -7.310615
  H       7.202456     -2.362830     -6.006609
  H       7.095932     -0.891698     -4.973630
  H       6.968603     -0.756996     -6.755291
  H       2.868239     -0.017646     -5.566247
  H       4.182609      0.732081     -6.534421
  H       4.318754      0.638653     -4.744569
  H       2.243728     -2.381419     -4.261605
  H       2.958986     -0.813774      1.184775
71
Coordinates from ORCA-job my_molecule E -2465.731827965673
  Pt      2.947088     -2.540370     -0.309542
  O      -0.013576     -0.146171      1.154174
  O       1.736385     -1.250275     -1.680509
  P       1.286273      0.652756      1.118934
  P       0.770322     -2.001579     -2.641716
  O       0.677439     -3.539899     -2.149150
  O       1.309174     -1.986950     -4.167999
  O       1.791852      1.084524     -0.377466
  O       2.574865     -0.097757      1.815284
  C       1.231853      2.267228      2.015656
  C      -0.936894     -1.343201     -2.770328
  C      -1.670120     -2.104568     -3.889138
  C      -0.844972      0.160442     -3.110391
  C      -1.620155     -1.559305     -1.405921
  C       0.105985      3.107893      1.370133
  C       0.895076      1.946886      3.483943
  C       2.580165      2.988094      1.907640
  H       1.434310     -3.622051     -1.471082
  H       1.724061      0.307493     -0.986754
  H      -1.200653     -1.943733     -4.877475
  H      -2.714287     -1.740460     -3.935386
  H      -1.699597     -3.192013     -3.686511
  H      -0.316761      0.338977     -4.068254
  H      -0.331665      0.723585     -2.312489
  H      -1.867394      0.572710     -3.207738
  H      -1.723775     -2.639275     -1.190576
  H      -2.636947     -1.122324     -1.441821
  H      -1.090625     -1.054344     -0.566794
  H      -0.856312      2.564031      1.385773
  H       0.343772      3.355626      0.317238
  H      -0.017952      4.058825      1.930503
  H      -0.049687      1.380250      3.556340
  H       0.784613      2.891695      4.063532
  H       1.693266      1.335584      3.955982
  H       2.833695      3.202829      0.854429
  H       3.401868      2.378859      2.343205
  H       2.534199      3.949448      2.453811
  Si      2.201567     -3.862419      1.459171
  C       2.485775     -5.702953      1.070150
  C       3.070413     -3.435021      3.089314
  C       0.346167     -3.531952      1.657719
  H       3.561337     -5.960743      1.074079
  H       2.068200     -5.992312      0.085746
  H       1.983336     -6.317921      1.844423
  H       2.958995     -2.360017      3.336722
  H       4.146983     -3.686859      3.065803
  H       2.602715     -4.016078      3.908362
  H       0.161343     -2.455799      1.849915
  H      -0.047390     -4.125751      2.508099
  H      -0.234629     -3.820297      0.763152
  H       4.112881     -3.343244      0.332705
  C       3.902046     -3.842168     -4.172399
  C       4.366694     -2.570044     -4.188545
  H       3.678829     -4.395584     -3.239498
  H       3.700268     -4.389830     -5.107310
  Si      4.798625     -1.552847     -5.741271
  H       4.541773     -2.073214     -3.209507
  C       4.232580     -2.494881     -7.289793
  C       6.669528     -1.286701     -5.774228
  C       3.910432      0.114148     -5.617311
  H       4.722730     -3.500521     -7.360985
  H       4.496577     -1.924172     -8.207564
  H       3.142623     -2.653526     -7.303969
  H       7.211046     -2.251567     -5.870742
  H       7.019309     -0.792494     -4.842313
  H       6.956086     -0.636215     -6.631376
  H       2.811616     -0.021763     -5.555131
  H       4.136975      0.746368     -6.498919
  H       4.231644      0.669621     -4.713580
  H       2.225364     -2.373853     -4.242024
  H       2.876980     -0.859598      1.223655
71
Coordinates from ORCA-job my_molecule E -2465.732284580975
  Pt      2.977209     -2.519923     -0.340225
  O      -0.009389     -0.117610      1.122784
  O       1.723577     -1.263245     -1.687666
  P       1.271991      0.670100      1.114133
  P       0.768683     -2.025631     -2.655110
  O       0.686824     -3.585912     -2.200023
  O       1.311800     -1.993772     -4.189684
  O       1.778214      1.118923     -0.379996
  O       2.552208     -0.097408      1.799920
  C       1.221612      2.253423      2.056783
  C      -0.934123     -1.358425     -2.771805
  C      -1.669160     -2.125146     -3.896871
  C      -0.828390      0.147486     -3.099201
  C      -1.630074     -1.559772     -1.412880
  C       0.105382      3.106625      1.427794
  C       0.865346      1.893622      3.517273
  C       2.577701      2.977253      1.981421
  H       1.419605     -3.735604     -1.525564
  H       1.709331      0.322463     -0.994625
  H      -1.187902     -1.970699     -4.882179
  H      -2.716190     -1.755731     -3.954156
  H      -1.709379     -3.215552     -3.692315
  H      -0.296797      0.333066     -4.059314
  H      -0.312243      0.715276     -2.293420
  H      -1.861571      0.559542     -3.190416
  H      -1.752752     -2.632951     -1.171367
  H      -2.645882     -1.112236     -1.478258
  H      -1.095858     -1.045055     -0.583516
  H      -0.859934      2.559734      1.420461
  H       0.351778      3.381881      0.384277
  H      -0.018707      4.042058      2.015441
  H      -0.086590      1.327497      3.563980
  H       0.754391      2.814863      4.122942
  H       1.656358      1.271118      3.982305
  H       2.848194      3.216916      0.924381
  H       3.388784      2.363579      2.405903
  H       2.522331      3.940397      2.555000
  Si      2.217226     -3.810224      1.443517
  C       2.485884     -5.662151      1.091750
  C       3.078413     -3.373938      3.079617
  C       0.361259     -3.466685      1.614977
  H       3.561258     -5.929875      1.107284
  H       2.070081     -5.964046      0.108762
  H       1.971879     -6.260599      1.873030
  H       2.982120     -2.287876      3.306391
  H       4.160118     -3.645689      3.068403
  H       2.584317     -3.937137      3.908821
  H       0.171402     -2.390458      1.775162
  H      -0.033391     -4.035506      2.476087
  H      -0.206790     -3.786062      0.714698
  H       4.146610     -3.308264      0.309755
  C       3.903092     -3.837837     -4.181472
  C       4.377244     -2.570699     -4.203187
  H       3.683530     -4.378517     -3.246209
  H       3.691802     -4.392532     -5.113243
  Si      4.806756     -1.569670     -5.760094
  H       4.557949     -2.075499     -3.228842
  C       4.211962     -2.522211     -7.278608
  C       6.684021     -1.321679     -5.811244
  C       3.938006      0.104828     -5.635173
  H       4.686326     -3.519839     -7.343897
  H       4.473537     -1.975822     -8.205184
  H       3.100062     -2.659634     -7.264395
  H       7.214659     -2.288892     -5.908996
  H       7.040920     -0.830984     -4.892979
  H       6.974410     -0.674332     -6.674019
  H       2.833952     -0.020406     -5.567701
  H       4.162089      0.737127     -6.519733
  H       4.266704      0.659040     -4.739558
  H       2.230690     -2.373636     -4.260365
  H       2.849834     -0.848197      1.202531
71
Coordinates from ORCA-job my_molecule E -2465.733145677955
  Pt      2.980530     -2.520609     -0.337109
  O      -0.006715     -0.152823      1.121825
  O       1.713250     -1.272362     -1.677292
  P       1.272134      0.655759      1.118448
  P       0.758651     -2.027752     -2.652714
  O       0.665633     -3.580125     -2.188041
  O       1.300474     -2.005935     -4.179709
  O       1.771046      1.107337     -0.376254
  O       2.558917     -0.113108      1.802009
  C       1.206863      2.242736      2.059046
  C      -0.932938     -1.332995     -2.785008
  C      -1.687065     -2.088047     -3.900815
  C      -0.785900      0.162008     -3.127824
  C      -1.640400     -1.510475     -1.425444
  C       0.081787      3.092770      1.435712
  C       0.859542      1.875788      3.521913
  C       2.558925      2.978957      1.977263
  H       1.396217     -3.690938     -1.493790
  H       1.698734      0.314833     -0.986094
  H      -1.206917     -1.954029     -4.887811
  H      -2.721675     -1.691761     -3.960855
  H      -1.751024     -3.173255     -3.685404
  H      -0.249992      0.319857     -4.083481
  H      -0.256345      0.712486     -2.323466
  H      -1.799256      0.603876     -3.227258
  H      -1.785288     -2.577479     -1.177429
  H      -2.648402     -1.045697     -1.509619
  H      -1.097461     -1.027138     -0.585263
  H      -0.879066      2.538940      1.434014
  H       0.322931      3.371796      0.391051
  H      -0.048405      4.028915      2.022331
  H      -0.088038      1.302154      3.577018
  H       0.744081      2.803388      4.127973
  H       1.657038      1.256255      3.980300
  H       2.823114      3.227343      0.930029
  H       3.378805      2.362066      2.397450
  H       2.502784      3.927692      2.553202
  Si      2.235478     -3.814576      1.450708
  C       2.520049     -5.663865      1.102354
  C       3.093405     -3.363264      3.083112
  C       0.373248     -3.486270      1.621172
  H       3.596434     -5.921628      1.107519
  H       2.099401     -5.971568      0.123455
  H       2.018484     -6.264662      1.890707
  H       2.978068     -2.288413      3.313618
  H       4.170944     -3.607030      3.061667
  H       2.626687     -3.936828      3.908872
  H       0.164713     -2.405245      1.767187
  H      -0.013452     -4.048833      2.500699
  H      -0.190388     -3.821244      0.725551
  H       4.157614     -3.298391      0.312288
  C       3.897595     -3.846057     -4.174044
  C       4.368167     -2.578169     -4.202604
  H       3.678798     -4.383770     -3.232640
  H       3.689177     -4.404734     -5.103872
  Si      4.799914     -1.577562     -5.764906
  H       4.547086     -2.083824     -3.225405
  C       4.220463     -2.534871     -7.291274
  C       6.681313     -1.328099     -5.810875
  C       3.918626      0.099573     -5.643155
  H       4.707174     -3.523860     -7.356181
  H       4.475639     -1.984596     -8.219870
  H       3.122293     -2.690021     -7.279970
  H       7.214195     -2.296930     -5.899977
  H       7.041873     -0.825119     -4.890773
  H       6.974236     -0.698020     -6.674631
  H       2.821930     -0.029677     -5.573089
  H       4.135926      0.730322     -6.532410
  H       4.248292      0.660057     -4.741717
  H       2.219972     -2.386790     -4.250771
  H       2.854389     -0.863216      1.202444
71
Coordinates from ORCA-job my_molecule E -2465.733255056204
  Pt      2.974620     -2.532137     -0.334727
  O      -0.022750     -0.143751      1.129148
  O       1.719950     -1.279025     -1.668852
  P       1.272868      0.651269      1.113035
  P       0.760633     -2.030962     -2.641865
  O       0.669736     -3.586535     -2.183349
  O       1.302007     -1.997134     -4.168956
  O       1.776596      1.087137     -0.385210
  O       2.554253     -0.113558      1.802105
  C       1.227482      2.253408      2.031451
  C      -0.939248     -1.351835     -2.766722
  C      -1.681015     -2.106499     -3.887313
  C      -0.821109      0.153103     -3.099459
  C      -1.634145     -1.551598     -1.403763
  C       0.108311      3.107066      1.396902
  C       0.883187      1.915692      3.492579
  C       2.583819      2.970716      1.936067
  H       1.401231     -3.721293     -1.493929
  H       1.704691      0.298219     -0.987916
  H      -1.205304     -1.954960     -4.875357
  H      -2.720725     -1.723735     -3.939344
  H      -1.729524     -3.194343     -3.683215
  H      -0.289722      0.326152     -4.055060
  H      -0.303461      0.706715     -2.293354
  H      -1.838242      0.579876     -3.197423
  H      -1.753637     -2.629021     -1.165019
  H      -2.648095     -1.102820     -1.468866
  H      -1.100595     -1.048587     -0.571585
  H      -0.857993      2.564906      1.405054
  H       0.348567      3.366984      0.346958
  H      -0.011889      4.051185      1.967269
  H      -0.070137      1.354972      3.555674
  H       0.782821      2.849439      4.080875
  H       1.674623      1.296744      3.957312
  H       2.843876      3.197033      0.886945
  H       3.397820      2.351895      2.366375
  H       2.540825      3.926146      2.495226
  Si      2.222420     -3.829010      1.445850
  C       2.503199     -5.679795      1.091292
  C       3.072264     -3.384787      3.080649
  C       0.361071     -3.491349      1.605034
  H       3.581812     -5.940679      1.098940
  H       2.085201     -5.983371      0.110064
  H       1.996967     -6.284886      1.875162
  H       2.965362     -2.301945      3.302418
  H       4.149509     -3.639894      3.065819
  H       2.594786     -3.953184      3.907972
  H       0.157752     -2.407856      1.750541
  H      -0.032770     -4.056451      2.480104
  H      -0.196497     -3.823179      0.707448
  H       4.144226     -3.316623      0.324945
  C       3.893406     -3.838554     -4.172533
  C       4.367575     -2.568242     -4.192704
  H       3.675237     -4.378815     -3.232717
  H       3.684863     -4.394829     -5.105329
  Si      4.801331     -1.556126     -5.744472
  H       4.548412     -2.078128     -3.211121
  C       4.223786     -2.499499     -7.284171
  C       6.675906     -1.300108     -5.780146
  C       3.921195      0.113870     -5.617487
  H       4.704806     -3.503627     -7.356717
  H       4.485914     -1.932171     -8.202356
  H       3.127420     -2.651025     -7.292481
  H       7.209911     -2.267659     -5.877113
  H       7.034513     -0.805636     -4.849368
  H       6.965715     -0.657833     -6.636738
  H       2.821722     -0.017487     -5.552298
  H       4.143255      0.745685     -6.499846
  H       4.248400      0.670115     -4.714176
  H       2.224254     -2.376064     -4.241062
  H       2.851063     -0.868472      1.207001
71
Coordinates from ORCA-job my_molecule E -2465.733494612602
  Pt      2.985135     -2.531517     -0.338757
  O      -0.014709     -0.143843      1.122369
  O       1.713909     -1.282062     -1.664456
  P       1.274989      0.651692      1.114554
  P       0.757464     -2.026899     -2.644633
  O       0.656238     -3.581580     -2.187737
  O       1.304319     -1.996312     -4.170292
  O       1.776178      1.094428     -0.382940
  O       2.560005     -0.112231      1.801245
  C       1.221195      2.248258      2.040042
  C      -0.937750     -1.339612     -2.771406
  C      -1.686042     -2.093560     -3.891275
  C      -0.814620      0.163540     -3.106113
  C      -1.630200     -1.539773     -1.406381
  C       0.102670      3.100430      1.405193
  C       0.868863      1.904742      3.502222
  C       2.578445      2.968165      1.954282
  H       1.381444     -3.719331     -1.497902
  H       1.702520      0.299662     -0.982567
  H      -1.210726     -1.943880     -4.880608
  H      -2.725174     -1.708245     -3.942638
  H      -1.738296     -3.181569     -3.686187
  H      -0.283035      0.336395     -4.063979
  H      -0.293443      0.720237     -2.300380
  H      -1.834644      0.589244     -3.201879
  H      -1.749631     -2.615734     -1.172146
  H      -2.644374     -1.093123     -1.466273
  H      -1.092532     -1.039705     -0.571206
  H      -0.862947      2.556201      1.407988
  H       0.346287      3.365262      0.357077
  H      -0.022054      4.042381      1.980737
  H      -0.083852      1.342681      3.560236
  H       0.761121      2.838313      4.094328
  H       1.660108      1.286116      3.971376
  H       2.845609      3.198265      0.903255
  H       3.390134      2.349966      2.385252
  H       2.529382      3.925361      2.517726
  Si      2.231956     -3.823937      1.444450
  C       2.516836     -5.673954      1.101253
  C       3.075001     -3.373047      3.083569
  C       0.368470     -3.494401      1.590645
  H       3.594169     -5.932128      1.109378
  H       2.098779     -5.984594      0.122189
  H       2.013526     -6.273933      1.889133
  H       2.961739     -2.293589      3.303546
  H       4.155398     -3.621523      3.072993
  H       2.598465     -3.941419      3.910379
  H       0.156797     -2.412939      1.724661
  H      -0.024627     -4.052611      2.468975
  H      -0.179213     -3.840168      0.691589
  H       4.158612     -3.308337      0.321009
  C       3.895047     -3.840221     -4.172657
  C       4.368490     -2.572266     -4.195140
  H       3.677113     -4.379351     -3.232353
  H       3.687679     -4.397482     -5.104546
  Si      4.800944     -1.565132     -5.750924
  H       4.549492     -2.082299     -3.215307
  C       4.221288     -2.513712     -7.285074
  C       6.677508     -1.311926     -5.789185
  C       3.920042      0.106912     -5.625602
  H       4.708766     -3.507299     -7.358279
  H       4.473151     -1.954035     -8.209707
  H       3.122641     -2.667394     -7.278401
  H       7.211150     -2.279100     -5.881864
  H       7.034551     -0.814431     -4.864718
  H       6.968407     -0.674479     -6.649809
  H       2.820633     -0.023567     -5.558627
  H       4.139593      0.738597     -6.511390
  H       4.248162      0.663638     -4.723500
  H       2.223761     -2.379852     -4.238142
  H       2.848002     -0.869137      1.205422
71
Coordinates from ORCA-job my_molecule E -2465.733529605678
  Pt      2.978856     -2.527712     -0.343373
  O      -0.019148     -0.135754      1.117139
  O       1.706254     -1.279175     -1.667364
  P       1.268626      0.657924      1.109579
  P       0.753890     -2.032588     -2.644406
  O       0.663056     -3.587889     -2.185526
  O       1.299674     -2.000746     -4.170363
  O       1.767204      1.103869     -0.387638
  O       2.547419     -0.115653      1.792210
  C       1.222487      2.248911      2.043564
  C      -0.941749     -1.345394     -2.771331
  C      -1.691928     -2.106775     -3.884773
  C      -0.808513      0.154224     -3.111374
  C      -1.641875     -1.529839     -1.409000
  C       0.105829      3.105687      1.415842
  C       0.871870      1.900390      3.505877
  C       2.581510      2.966187      1.956489
  H       1.384049     -3.708492     -1.483638
  H       1.691773      0.308903     -0.992114
  H      -1.216156     -1.967625     -4.874005
  H      -2.730070     -1.719001     -3.939175
  H      -1.747193     -3.193306     -3.670880
  H      -0.274494      0.319527     -4.067989
  H      -0.286766      0.709663     -2.308059
  H      -1.825567      0.584802     -3.209261
  H      -1.770893     -2.601112     -1.158697
  H      -2.653826     -1.077296     -1.485347
  H      -1.102071     -1.032034     -0.575806
  H      -0.861192      2.563855      1.421405
  H       0.346034      3.373876      0.367918
  H      -0.013316      4.044729      1.994877
  H      -0.082330      1.340567      3.564227
  H       0.767427      2.833388      4.100004
  H       1.662276      1.279485      3.973950
  H       2.846220      3.200756      0.905824
  H       3.391661      2.343915      2.382296
  H       2.537569      3.919964      2.524898
  Si      2.232977     -3.822063      1.441694
  C       2.518250     -5.672221      1.092108
  C       3.080511     -3.370372      3.078560
  C       0.368212     -3.495977      1.594658
  H       3.596530     -5.928718      1.096173
  H       2.097861     -5.981527      0.113479
  H       2.017497     -6.275521      1.879118
  H       2.969585     -2.287514      3.296881
  H       4.161240     -3.620132      3.062374
  H       2.605475     -3.938638      3.908706
  H       0.152412     -2.414394      1.725828
  H      -0.018515     -4.051263      2.476352
  H      -0.180869     -3.847244      0.696304
  H       4.152811     -3.300230      0.317135
  C       3.888960     -3.837705     -4.172867
  C       4.365020     -2.570151     -4.196656
  H       3.671123     -4.374287     -3.231379
  H       3.683668     -4.397138     -5.101959
  Si      4.803525     -1.564275     -5.751512
  H       4.546100     -2.080728     -3.217345
  C       4.229082     -2.515417     -7.283036
  C       6.681925     -1.312057     -5.782702
  C       3.924230      0.109946     -5.631136
  H       4.713839     -3.509979     -7.351674
  H       4.486937     -1.954637     -8.205062
  H       3.128615     -2.669296     -7.281963
  H       7.214223     -2.281883     -5.872024
  H       7.037022     -0.812934     -4.858446
  H       6.977522     -0.675094     -6.642950
  H       2.824486     -0.019526     -5.563437
  H       4.144836      0.739098     -6.517719
  H       4.252738      0.669945     -4.731470
  H       2.221369     -2.380666     -4.237549
  H       2.838514     -0.874385      1.197626
71
Coordinates from ORCA-job my_molecule E -2465.733591344358
  Pt      2.980380     -2.531829     -0.339749
  O      -0.022556     -0.133540      1.125010
  O       1.703550     -1.281951     -1.660359
  P       1.270499      0.653744      1.110997
  P       0.753059     -2.032270     -2.641069
  O       0.663735     -3.590757     -2.189456
  O       1.299402     -1.995238     -4.166608
  O       1.768481      1.088405     -0.388625
  O       2.545552     -0.123010      1.800014
  C       1.230409      2.253525      2.034390
  C      -0.944546     -1.347337     -2.768440
  C      -1.690707     -2.105708     -3.885671
  C      -0.815726      0.153585     -3.103511
  C      -1.644687     -1.537327     -1.406772
  C       0.117177      3.110936      1.399990
  C       0.876773      1.916514      3.499040
  C       2.592834      2.965981      1.943939
  H       1.378324     -3.726436     -1.487530
  H       1.690674      0.292195     -0.988582
  H      -1.213281     -1.963333     -4.872731
  H      -2.729433     -1.718999     -3.941348
  H      -1.745044     -3.191921     -3.674010
  H      -0.280134      0.323192     -4.058217
  H      -0.298679      0.709642     -2.297755
  H      -1.835953      0.580173     -3.203505
  H      -1.769359     -2.608887     -1.157408
  H      -2.658107     -1.089907     -1.481639
  H      -1.106850     -1.036546     -0.574850
  H      -0.852337      2.572985      1.408755
  H       0.358709      3.370513      0.350782
  H       0.001286      4.055643      1.972846
  H      -0.080972      1.361212      3.560100
  H       0.776080      2.854407      4.086819
  H       1.664070      1.295900      3.971233
  H       2.859611      3.192197      0.893031
  H       3.400739      2.343396      2.375962
  H       2.551355      3.923566      2.506291
  Si      2.233299     -3.828905      1.442352
  C       2.523407     -5.677505      1.094959
  C       3.071506     -3.375401      3.083516
  C       0.367722     -3.506887      1.581642
  H       3.602193     -5.932782      1.098083
  H       2.103517     -5.987611      0.116510
  H       2.023371     -6.281433      1.882726
  H       2.953651     -2.296530      3.304832
  H       4.152026     -3.613984      3.070117
  H       2.600477     -3.948896      3.908001
  H       0.147261     -2.427607      1.711846
  H      -0.022272     -4.064247      2.459696
  H      -0.172784     -3.859881      0.679455
  H       4.155326     -3.303995      0.323404
  C       3.886871     -3.835393     -4.170759
  C       4.363518     -2.567725     -4.192048
  H       3.670534     -4.371410     -3.228123
  H       3.680957     -4.394874     -5.101589
  Si      4.801365     -1.558558     -5.746079
  H       4.544659     -2.082618     -3.209461
  C       4.230966     -2.506350     -7.284229
  C       6.677146     -1.304082     -5.774108
  C       3.917848      0.114718     -5.622736
  H       4.722180     -3.498920     -7.359368
  H       4.481680     -1.940923     -8.206666
  H       3.133700     -2.664982     -7.281063
  H       7.211813     -2.271082     -5.862929
  H       7.028303     -0.805612     -4.848676
  H       6.972285     -0.668202     -6.634620
  H       2.818812     -0.015682     -5.557086
  H       4.137283      0.745891     -6.509359
  H       4.245548      0.673102     -4.719176
  H       2.219823     -2.376378     -4.230866
  H       2.835989     -0.884719      1.212527
71
Coordinates from ORCA-job my_molecule E -2465.733631893512
  Pt      2.983030     -2.535902     -0.342122
  O      -0.019946     -0.142805      1.124758
  O       1.704393     -1.288756     -1.657639
  P       1.273108      0.651074      1.112437
  P       0.750217     -2.030375     -2.643886
  O       0.645493     -3.587440     -2.195192
  O       1.300425     -1.993442     -4.167383
  O       1.764766      1.092867     -0.389116
  O       2.559065     -0.115568      1.795522
  C       1.228676      2.250388      2.035355
  C      -0.945538     -1.341653     -2.767013
  C      -1.694786     -2.096036     -3.885359
  C      -0.824580      0.162052     -3.101454
  C      -1.634543     -1.546085     -1.400471
  C       0.110223      3.103997      1.401717
  C       0.880399      1.914696      3.499088
  C       2.587922      2.965460      1.940219
  H       1.358970     -3.720864     -1.491522
  H       1.691260      0.295405     -0.985711
  H      -1.222678     -1.945471     -4.875938
  H      -2.734960     -1.713583     -3.933663
  H      -1.743217     -3.184429     -3.679688
  H      -0.292647      0.333815     -4.058238
  H      -0.306719      0.720579     -2.295563
  H      -1.844867      0.584200     -3.200648
  H      -1.742349     -2.623953     -1.164802
  H      -2.652574     -1.108859     -1.455765
  H      -1.097381     -1.043983     -0.566736
  H      -0.857434      2.563613      1.414798
  H       0.347494      3.362058      0.351048
  H      -0.008133      4.049685      1.972451
  H      -0.076036      1.357618      3.563314
  H       0.780567      2.851902      4.084466
  H       1.669844      1.297181      3.968737
  H       2.851334      3.189169      0.888079
  H       3.398223      2.346029      2.373513
  H       2.544518      3.924358      2.499247
  Si      2.233032     -3.828133      1.444756
  C       2.521554     -5.678012      1.100978
  C       3.071699     -3.368725      3.082916
  C       0.366960     -3.505001      1.580360
  H       3.600357     -5.931876      1.104591
  H       2.101832     -5.990564      0.123321
  H       2.021761     -6.281553      1.888834
  H       2.956322     -2.287958      3.297888
  H       4.152180     -3.608865      3.069098
  H       2.600683     -3.937388      3.911465
  H       0.147027     -2.423264      1.704247
  H      -0.025943     -4.060453      2.461772
  H      -0.170056     -3.864503      0.679859
  H       4.154774     -3.307787      0.325940
  C       3.883568     -3.836186     -4.176177
  C       4.364660     -2.569769     -4.195965
  H       3.667770     -4.371553     -3.233177
  H       3.675392     -4.395113     -5.108408
  Si      4.805277     -1.559008     -5.747162
  H       4.548956     -2.086653     -3.212152
  C       4.233489     -2.503674     -7.285930
  C       6.683319     -1.309355     -5.771405
  C       3.925450      0.113049     -5.624563
  H       4.721589     -3.497771     -7.360831
  H       4.488112     -1.937401     -8.204985
  H       3.135448     -2.660019     -7.285779
  H       7.215077     -2.278522     -5.860334
  H       7.037473     -0.811118     -4.844219
  H       6.980866     -0.674813     -6.630080
  H       2.825620     -0.018009     -5.563604
  H       4.150275      0.745364     -6.509258
  H       4.249551      0.668228     -4.720977
  H       2.221092     -2.376100     -4.231838
  H       2.837603     -0.881185      1.206071
71
Coordinates from ORCA-job my_molecule E -2465.733702353879
  Pt      2.979706     -2.534509     -0.340827
  O      -0.017731     -0.142498      1.128464
  O       1.701914     -1.286004     -1.656953
  P       1.271317      0.654477      1.111326
  P       0.751227     -2.031475     -2.641745
  O       0.653183     -3.588034     -2.190880
  O       1.301004     -1.994155     -4.165051
  O       1.757380      1.097665     -0.391781
  O       2.558347     -0.110529      1.789299
  C       1.229281      2.250665      2.038294
  C      -0.943552     -1.343213     -2.767896
  C      -1.693705     -2.100706     -3.884244
  C      -0.814148      0.159046     -3.105184
  C      -1.640547     -1.537073     -1.403709
  C       0.107970      3.103750      1.410867
  C       0.887166      1.913683      3.502894
  C       2.586924      2.966353      1.938386
  H       1.366509     -3.718186     -1.486161
  H       1.684838      0.300278     -0.988775
  H      -1.219177     -1.956549     -4.874959
  H      -2.732729     -1.714713     -3.934515
  H      -1.746650     -3.188037     -3.674654
  H      -0.277366      0.326123     -4.061248
  H      -0.295839      0.717023     -2.299589
  H      -1.832120      0.585287     -3.207010
  H      -1.757824     -2.612287     -1.160216
  H      -2.655407     -1.093459     -1.469209
  H      -1.101135     -1.038183     -0.569189
  H      -0.858831      2.563492      1.427407
  H       0.340388      3.363656      0.358788
  H      -0.008375      4.047474      1.983983
  H      -0.066867      1.356094      3.569858
  H       0.786783      2.851345      4.088600
  H       1.679288      1.297595      3.971877
  H       2.845173      3.190959      0.884709
  H       3.398668      2.347481      2.366751
  H       2.545601      3.924643      2.498979
  Si      2.231690     -3.828759      1.444104
  C       2.524430     -5.677106      1.100146
  C       3.066432     -3.369094      3.085311
  C       0.364694     -3.509333      1.575797
  H       3.603418     -5.928757      1.103904
  H       2.105997     -5.991328      0.122489
  H       2.025726     -6.280972      1.888327
  H       2.948664     -2.288318      3.298663
  H       4.150176     -3.609245      3.074664
  H       2.592655     -3.937792      3.915122
  H       0.141965     -2.428930      1.698685
  H      -0.027481     -4.064248      2.455984
  H      -0.169558     -3.870850      0.674887
  H       4.152413     -3.305359      0.327731
  C       3.884242     -3.836682     -4.175936
  C       4.364918     -2.571106     -4.196914
  H       3.668704     -4.372336     -3.232949
  H       3.678485     -4.395807     -5.106464
  Si      4.804620     -1.560593     -5.748762
  H       4.549505     -2.088101     -3.213812
  C       4.235219     -2.505213     -7.289443
  C       6.680402     -1.307892     -5.771413
  C       3.922121      0.110628     -5.625928
  H       4.729291     -3.496394     -7.368259
  H       4.483002     -1.936711     -8.209827
  H       3.138841     -2.665708     -7.285648
  H       7.214051     -2.275351     -5.859200
  H       7.031175     -0.809433     -4.844462
  H       6.976821     -0.672078     -6.631473
  H       2.821747     -0.020129     -5.560795
  H       4.143415      0.739273     -6.512382
  H       4.249363      0.668307     -4.724073
  H       2.221606     -2.377921     -4.228594
  H       2.834891     -0.880896      1.205924
71
Coordinates from ORCA-job my_molecule E -2465.733730216808
  Pt      2.974284     -2.536150     -0.342007
  O      -0.023463     -0.133474      1.128960
  O       1.695186     -1.285831     -1.655907
  P       1.267783      0.657316      1.108440
  P       0.746473     -2.035038     -2.638998
  O       0.653407     -3.592838     -2.188692
  O       1.296715     -1.997042     -4.162609
  O       1.753549      1.097121     -0.394453
  O       2.550626     -0.114097      1.787113
  C       1.231721      2.255623      2.034554
  C      -0.949812     -1.346908     -2.763374
  C      -1.701320     -2.108250     -3.875875
  C      -0.822047      0.153630     -3.103854
  C      -1.644865     -1.537119     -1.399217
  C       0.113462      3.111529      1.406433
  C       0.885930      1.921879      3.501247
  C       2.593690      2.967313      1.934565
  H       1.361319     -3.726053     -1.478941
  H       1.681331      0.298544     -0.991581
  H      -1.228388     -1.968751     -4.866057
  H      -2.740435     -1.723139     -3.927980
  H      -1.753216     -3.193946     -3.660528
  H      -0.286536      0.319590     -4.059420
  H      -0.304652      0.712545     -2.301043
  H      -1.842098      0.579274     -3.205876
  H      -1.761203     -2.610039     -1.150892
  H      -2.660455     -1.095201     -1.467255
  H      -1.106294     -1.036201     -0.566551
  H      -0.856596      2.574692      1.424685
  H       0.347385      3.368507      0.353665
  H       0.001491      4.056390      1.978147
  H      -0.071032      1.367266      3.568652
  H       0.786467      2.862888      4.085011
  H       1.676206      1.304213      3.974065
  H       2.854488      3.190345      0.880406
  H       3.403451      2.346606      2.364813
  H       2.554442      3.926213      2.494483
  Si      2.231026     -3.834194      1.442445
  C       2.524327     -5.682461      1.093879
  C       3.069650     -3.371982      3.081309
  C       0.364134     -3.516574      1.578933
  H       3.604430     -5.933139      1.095049
  H       2.104226     -5.994108      0.115699
  H       2.027092     -6.289709      1.880601
  H       2.951278     -2.290230      3.296148
  H       4.152360     -3.608659      3.066290
  H       2.600295     -3.941688      3.911135
  H       0.140216     -2.435158      1.700260
  H      -0.026025     -4.069299      2.461280
  H      -0.172314     -3.882950      0.679118
  H       4.147908     -3.305600      0.323869
  C       3.880248     -3.834128     -4.181044
  C       4.364467     -2.569345     -4.200580
  H       3.665247     -4.368057     -3.237365
  H       3.674252     -4.393896     -5.110585
  Si      4.809915     -1.556803     -5.749151
  H       4.549217     -2.089907     -3.216582
  C       4.243528     -2.499967     -7.288931
  C       6.688100     -1.307438     -5.766560
  C       3.930134      0.118402     -5.625247
  H       4.734297     -3.491280     -7.364955
  H       4.498385     -1.929361     -8.206498
  H       3.143969     -2.659061     -7.288392
  H       7.219783     -2.277313     -5.853231
  H       7.036993     -0.809620     -4.839958
  H       6.989861     -0.671198     -6.625094
  H       2.830839     -0.011630     -5.562833
  H       4.154569      0.750445     -6.509866
  H       4.256070      0.674646     -4.720688
  H       2.218173     -2.377748     -4.227314
  H       2.830664     -0.889149      1.206820
71
Coordinates from ORCA-job my_molecule E -2465.733792859120
  Pt      2.974550     -2.537068     -0.340519
  O      -0.018061     -0.142713      1.130826
  O       1.696351     -1.287096     -1.657195
  P       1.269338      0.653615      1.107968
  P       0.748465     -2.032774     -2.643809
  O       0.655645     -3.591902     -2.197879
  O       1.297303     -1.990872     -4.167481
  O       1.748116      1.094279     -0.397904
  O       2.558338     -0.111114      1.784733
  C       1.230910      2.250767      2.035283
  C      -0.946577     -1.345082     -2.766269
  C      -1.695780     -2.102343     -3.883102
  C      -0.817534      0.157066     -3.101003
  C      -1.643035     -1.538872     -1.402965
  C       0.109031      3.103389      1.410465
  C       0.889888      1.914657      3.501631
  C       2.589852      2.967536      1.932882
  H       1.360034     -3.718759     -1.482299
  H       1.681584      0.291341     -0.991752
  H      -1.220510     -1.958337     -4.872548
  H      -2.734623     -1.717168     -3.934779
  H      -1.747588     -3.189934     -3.672036
  H      -0.280194      0.325065     -4.055734
  H      -0.300764      0.713307     -2.295742
  H      -1.836291      0.584014     -3.202986
  H      -1.759463     -2.612596     -1.155839
  H      -2.657959     -1.096915     -1.470070
  H      -1.104144     -1.038978     -0.570167
  H      -0.859461      2.563755      1.430992
  H       0.338850      3.361523      0.359013
  H      -0.003083      4.047918      1.983425
  H      -0.065713      1.357019      3.570284
  H       0.790259      2.853793      4.086296
  H       1.682448      1.299374      3.971076
  H       2.847945      3.191297      0.878811
  H       3.402500      2.350390      2.361928
  H       2.548408      3.926423      2.492777
  Si      2.229793     -3.830341      1.447333
  C       2.524706     -5.679256      1.104192
  C       3.067743     -3.361565      3.083498
  C       0.363235     -3.514207      1.581892
  H       3.604951     -5.927863      1.105175
  H       2.104815     -5.993470      0.126845
  H       2.028690     -6.285480      1.892311
  H       2.948388     -2.279066      3.295288
  H       4.150297     -3.595702      3.066922
  H       2.600519     -3.929859      3.915565
  H       0.138585     -2.433966      1.703718
  H      -0.026779     -4.068262      2.462900
  H      -0.171943     -3.881922      0.682428
  H       4.146648     -3.306214      0.329005
  C       3.876499     -3.835655     -4.182946
  C       4.363491     -2.571923     -4.202010
  H       3.663784     -4.369231     -3.238503
  H       3.667346     -4.394784     -5.113245
  Si      4.807846     -1.558316     -5.749960
  H       4.551860     -2.095063     -3.216822
  C       4.239497     -2.498007     -7.292598
  C       6.685322     -1.311697     -5.767240
  C       3.930073      0.116124     -5.624618
  H       4.730942     -3.489509     -7.372541
  H       4.491663     -1.925283     -8.209401
  H       3.141061     -2.657232     -7.291061
  H       7.216006     -2.281477     -5.854693
  H       7.035260     -0.814939     -4.839507
  H       6.986999     -0.676523     -6.625976
  H       2.830266     -0.012840     -5.563219
  H       4.155154      0.748174     -6.508978
  H       4.256702      0.670451     -4.719811
  H       2.217409     -2.374598     -4.229831
  H       2.828449     -0.891259      1.211667
71
Coordinates from ORCA-job my_molecule E -2465.733822696358
  Pt      2.972976     -2.538072     -0.337219
  O      -0.010295     -0.149829      1.148321
  O       1.701189     -1.287831     -1.651033
  P       1.272625      0.657005      1.111823
  P       0.752354     -2.032856     -2.639243
  O       0.658597     -3.592469     -2.196979
  O       1.302330     -1.987507     -4.162160
  O       1.732340      1.102986     -0.398276
  O       2.574162     -0.098132      1.775046
  C       1.234443      2.255211      2.036578
  C      -0.945643     -1.348426     -2.758033
  C      -1.695505     -2.106415     -3.873697
  C      -0.823221      0.154407     -3.094296
  C      -1.637598     -1.548705     -1.392862
  C       0.100631      3.102256      1.420126
  C       0.912329      1.920690      3.505755
  C       2.585857      2.978843      1.916044
  H       1.365447     -3.720361     -1.485649
  H       1.671252      0.301695     -0.991864
  H      -1.223487     -1.960022     -4.864795
  H      -2.737088     -1.724893     -3.920726
  H      -1.741950     -3.193694     -3.664848
  H      -0.285724      0.322041     -4.049533
  H      -0.307072      0.715190     -2.288068
  H      -1.843180      0.576666     -3.198894
  H      -1.742892     -2.625175     -1.150908
  H      -2.658189     -1.114039     -1.452295
  H      -1.099148     -1.048848     -0.559053
  H      -0.863178      2.557913      1.452882
  H       0.316966      3.359121      0.364028
  H      -0.011092      4.048245      1.990973
  H      -0.038629      1.357917      3.585522
  H       0.814687      2.860368      4.087002
  H       1.712330      1.310963      3.967778
  H       2.829514      3.200102      0.859255
  H       3.406312      2.366694      2.338250
  H       2.545662      3.939912      2.471978
  Si      2.219811     -3.833086      1.447673
  C       2.517712     -5.679979      1.106697
  C       3.047846     -3.365781      3.090657
  C       0.350790     -3.518996      1.563541
  H       3.597562     -5.927772      1.112335
  H       2.102750     -5.994665      0.128072
  H       2.018835     -6.286548      1.892968
  H       2.925698     -2.285946      3.300285
  H       4.132848     -3.598519      3.082570
  H       2.574800     -3.934418      3.921423
  H       0.122854     -2.439630      1.680282
  H      -0.048195     -4.074053      2.441792
  H      -0.175124     -3.886931      0.659225
  H       4.141556     -3.310868      0.335319
  C       3.874894     -3.833563     -4.190021
  C       4.368780     -2.572318     -4.207598
  H       3.662866     -4.367753     -3.245204
  H       3.662155     -4.390531     -5.121510
  Si      4.814506     -1.556455     -5.754016
  H       4.561788     -2.099691     -3.220467
  C       4.244761     -2.491340     -7.300973
  C       6.692943     -1.314295     -5.770331
  C       3.938148      0.117313     -5.625688
  H       4.738961     -3.481339     -7.386616
  H       4.492946     -1.915393     -8.215833
  H       3.148585     -2.652853     -7.297524
  H       7.221731     -2.284615     -5.857198
  H       7.044237     -0.817502     -4.841791
  H       6.996809     -0.681848     -6.629050
  H       2.837496     -0.010458     -5.563189
  H       4.163138      0.748018     -6.510363
  H       4.265699      0.670080     -4.721731
  H       2.223281     -2.370928     -4.227380
  H       2.832735     -0.885035      1.204803
71
Coordinates from ORCA-job my_molecule E -2465.733889391940
  Pt      2.967977     -2.542172     -0.335653
  O      -0.012314     -0.151793      1.145654
  O       1.698037     -1.287636     -1.656482
  P       1.270608      0.655215      1.108952
  P       0.749795     -2.032449     -2.644107
  O       0.655736     -3.592282     -2.203651
  O       1.299686     -1.986825     -4.166434
  O       1.730029      1.102608     -0.401340
  O       2.573504     -0.097137      1.769264
  C       1.232178      2.252268      2.035941
  C      -0.946876     -1.346443     -2.762020
  C      -1.699621     -2.104396     -3.877008
  C      -0.821469      0.156437     -3.098966
  C      -1.637974     -1.546963     -1.395958
  C       0.097892      3.099474      1.422278
  C       0.910315      1.916994      3.505745
  C       2.584480      2.975626      1.915376
  H       1.355719     -3.724259     -1.485754
  H       1.674451      0.300953     -0.994703
  H      -1.227784     -1.959203     -4.868455
  H      -2.739529     -1.721858     -3.923775
  H      -1.748718     -3.191787     -3.666628
  H      -0.283534      0.323506     -4.054218
  H      -0.304167      0.715512     -2.294419
  H      -1.840313      0.580851     -3.202731
  H      -1.744911     -2.623541     -1.155073
  H      -2.656003     -1.111966     -1.453992
  H      -1.099380     -1.047702     -0.560727
  H      -0.867253      2.556496      1.456703
  H       0.313624      3.355914      0.365744
  H      -0.012110      4.045051      1.993626
  H      -0.040207      1.353983      3.585704
  H       0.810550      2.857188      4.087207
  H       1.711130      1.307721      3.968138
  H       2.828705      3.197208      0.857731
  H       3.405593      2.364127      2.337297
  H       2.543568      3.936316      2.471316
  Si      2.219714     -3.834328      1.453677
  C       2.518278     -5.682769      1.114984
  C       3.054010     -3.358319      3.091304
  C       0.352600     -3.518364      1.580857
  H       3.598910     -5.928221      1.117302
  H       2.101235     -5.999454      0.137324
  H       2.022684     -6.289592      1.903223
  H       2.930408     -2.277035      3.298770
  H       4.138818     -3.588384      3.078279
  H       2.587731     -3.923978      3.925596
  H       0.128175     -2.437333      1.697467
  H      -0.041676     -4.069673      2.462875
  H      -0.180114     -3.890356      0.682697
  H       4.136108     -3.315644      0.337458
  C       3.871645     -3.836016     -4.196381
  C       4.368899     -2.576539     -4.213351
  H       3.661278     -4.369793     -3.251092
  H       3.657744     -4.392121     -5.126633
  Si      4.817146     -1.556470     -5.756397
  H       4.564275     -2.108021     -3.225759
  C       4.246896     -2.484334     -7.306686
  C       6.695449     -1.317425     -5.770814
  C       3.944040      0.119325     -5.622276
  H       4.740218     -3.475293     -7.397203
  H       4.495898     -1.903348     -8.218728
  H       3.150281     -2.644869     -7.303739
  H       7.222438     -2.288698     -5.859372
  H       7.045435     -0.824009     -4.841114
  H       7.001967     -0.682134     -6.627923
  H       2.843114     -0.006475     -5.559824
  H       4.170878      0.752419     -6.504979
  H       4.272367      0.668710     -4.716712
  H       2.219472     -2.371879     -4.231225
  H       2.826574     -0.891361      1.205903
71
Coordinates from ORCA-job my_molecule E -2465.733913462579
  Pt      2.965417     -2.545005     -0.332283
  O      -0.007868     -0.156156      1.155881
  O       1.698617     -1.290536     -1.651640
  P       1.270343      0.653816      1.108296
  P       0.751533     -2.033228     -2.641683
  O       0.663710     -3.593895     -2.204070
  O       1.300371     -1.982964     -4.165157
  O       1.717683      1.096497     -0.406231
  O       2.579201     -0.094515      1.767310
  C       1.232821      2.254649      2.029428
  C      -0.944774     -1.347834     -2.758119
  C      -1.695573     -2.103782     -3.875160
  C      -0.820010      0.155343     -3.089694
  C      -1.636310     -1.546730     -1.393313
  C       0.095969      3.097502      1.417216
  C       0.914621      1.923913      3.502007
  C       2.585218      2.981215      1.905437
  H       1.363770     -3.722421     -1.484942
  H       1.667559      0.287314     -0.992060
  H      -1.222230     -1.957519     -4.865238
  H      -2.735186     -1.720285     -3.923919
  H      -1.744819     -3.191238     -3.666026
  H      -0.282205      0.325976     -4.043829
  H      -0.303184      0.710108     -2.283361
  H      -1.839970      0.582126     -3.190743
  H      -1.747070     -2.621751     -1.149790
  H      -2.653180     -1.108176     -1.455339
  H      -1.098697     -1.047826     -0.559234
  H      -0.869380      2.552599      1.455072
  H       0.308841      3.351394      0.360553
  H      -0.012333      4.044541      1.986825
  H      -0.034345      1.358225      3.585588
  H       0.813060      2.867033      4.081337
  H       1.718618      1.317819      3.966079
  H       2.828310      3.200576      0.847040
  H       3.408981      2.373576      2.328090
  H       2.543180      3.943160      2.458613
  Si      2.216399     -3.839253      1.452075
  C       2.518580     -5.687631      1.114980
  C       3.048101     -3.359589      3.087418
  C       0.349750     -3.527060      1.576458
  H       3.600332     -5.931479      1.119016
  H       2.102782     -6.003319      0.136177
  H       2.023507     -6.295927      1.902235
  H       2.923551     -2.275043      3.292037
  H       4.132368     -3.589791      3.074356
  H       2.581068     -3.924915      3.922950
  H       0.122799     -2.445402      1.691669
  H      -0.046013     -4.078617      2.457321
  H      -0.180902     -3.901268      0.677358
  H       4.134246     -3.317271      0.338236
  C       3.868236     -3.834639     -4.199142
  C       4.367555     -2.575620     -4.214252
  H       3.660548     -4.369501     -3.254243
  H       3.651077     -4.389161     -5.130100
  Si      4.815985     -1.554621     -5.755080
  H       4.565398     -2.109857     -3.225683
  C       4.244651     -2.482065     -7.302516
  C       6.694867     -1.317589     -5.768600
  C       3.945919      0.123475     -5.619543
  H       4.735401     -3.472115     -7.390142
  H       4.497708     -1.901275     -8.213724
  H       3.144331     -2.640793     -7.300511
  H       7.220356     -2.290338     -5.857276
  H       7.045275     -0.824850     -4.838941
  H       7.002614     -0.681819     -6.625082
  H       2.846711     -0.001453     -5.557508
  H       4.172177      0.758901     -6.500538
  H       4.276414      0.672294     -4.711870
  H       2.220496     -2.367102     -4.230269
  H       2.831334     -0.895581      1.211885
71
Coordinates from ORCA-job my_molecule E -2465.733977534408
  Pt      2.961355     -2.544847     -0.331422
  O      -0.005013     -0.155510      1.156955
  O       1.700279     -1.288736     -1.654344
  P       1.271517      0.657757      1.106624
  P       0.753213     -2.033284     -2.642316
  O       0.669016     -3.595225     -2.205286
  O       1.300189     -1.981443     -4.165804
  O       1.712598      1.105349     -0.408726
  O       2.585266     -0.086336      1.757114
  C       1.233140      2.255211      2.033336
  C      -0.945163     -1.351189     -2.756511
  C      -1.696041     -2.109370     -3.871775
  C      -0.823511      0.152009     -3.090859
  C      -1.633635     -1.552902     -1.390695
  C       0.091390      3.097397      1.428442
  C       0.922452      1.918188      3.505998
  C       2.582367      2.985900      1.904965
  H       1.365978     -3.721548     -1.481838
  H       1.668457      0.297412     -0.996804
  H      -1.223868     -1.962696     -4.862394
  H      -2.736752     -1.728036     -3.919118
  H      -1.742894     -3.196830     -3.661735
  H      -0.286705      0.321626     -4.045527
  H      -0.306455      0.709927     -2.286631
  H      -1.843344      0.576175     -3.192909
  H      -1.738723     -2.628632     -1.147278
  H      -2.653302     -1.119625     -1.450052
  H      -1.096482     -1.051694     -0.557861
  H      -0.872462      2.550853      1.469531
  H       0.298919      3.354419      0.371010
  H      -0.016195      4.042544      2.001113
  H      -0.025265      1.349374      3.591389
  H       0.821009      2.858104      4.088451
  H       1.729621      1.313052      3.963622
  H       2.820022      3.207878      0.845561
  H       3.409702      2.380039      2.322446
  H       2.539409      3.947340      2.460312
  Si      2.209745     -3.836655      1.456517
  C       2.512933     -5.685607      1.122816
  C       3.040961     -3.353688      3.093500
  C       0.341621     -3.524634      1.578485
  H       3.594644     -5.928347      1.127208
  H       2.098028     -6.003033      0.144244
  H       2.017972     -6.293152      1.910500
  H       2.913831     -2.271584      3.298627
  H       4.125965     -3.579438      3.081335
  H       2.575952     -3.919256      3.928526
  H       0.114416     -2.443702      1.692783
  H      -0.054247     -4.074522      2.460279
  H      -0.189664     -3.899985      0.679281
  H       4.127658     -3.320721      0.340895
  C       3.866014     -3.835327     -4.208882
  C       4.371955     -2.578939     -4.222992
  H       3.659861     -4.369833     -3.263483
  H       3.644105     -4.388374     -5.139990
  Si      4.821963     -1.555018     -5.761789
  H       4.575020     -2.117307     -3.233701
  C       4.247306     -2.474869     -7.313915
  C       6.701875     -1.324054     -5.776024
  C       3.956289      0.124659     -5.620158
  H       4.738486     -3.464552     -7.409482
  H       4.496963     -1.889432     -8.222989
  H       3.149212     -2.634109     -7.309784
  H       7.224201     -2.298204     -5.866113
  H       7.053928     -0.833723     -4.845491
  H       7.012435     -0.688757     -6.631636
  H       2.855829      0.002829     -5.557534
  H       4.183909      0.761877     -6.500097
  H       4.288434      0.669777     -4.711835
  H       2.219429     -2.366927     -4.232474
  H       2.827193     -0.894795      1.208479
71
Coordinates from ORCA-job my_molecule E -2465.733994038259
  Pt      2.962815     -2.552010     -0.324072
  O      -0.000178     -0.169459      1.167702
  O       1.703373     -1.293364     -1.650640
  P       1.271954      0.652367      1.108949
  P       0.755375     -2.032884     -2.644538
  O       0.664564     -3.595940     -2.216246
  O       1.305466     -1.977587     -4.167412
  O       1.702851      1.100809     -0.409341
  O       2.591931     -0.083484      1.753591
  C       1.230772      2.253089      2.028555
  C      -0.942044     -1.346627     -2.756857
  C      -1.697153     -2.100638     -3.872544
  C      -0.815893      0.156765     -3.089523
  C      -1.631051     -1.550694     -1.390489
  C       0.081395      3.089260      1.426408
  C       0.931671      1.920593      3.504754
  C       2.574283      2.988934      1.887701
  H       1.359437     -3.730979     -1.494680
  H       1.663496      0.293573     -0.996654
  H      -1.225786     -1.954017     -4.863154
  H      -2.736477     -1.716103     -3.917746
  H      -1.747827     -3.187989     -3.665065
  H      -0.278240      0.326356     -4.044429
  H      -0.296498      0.713035     -2.283972
  H      -1.835471      0.583261     -3.190552
  H      -1.737925     -2.626765     -1.152697
  H      -2.649978     -1.115480     -1.447809
  H      -1.092681     -1.055358     -0.553036
  H      -0.879036      2.539492      1.476463
  H       0.280179      3.342733      0.366127
  H      -0.026940      4.037009      1.994868
  H      -0.011633      1.347614      3.598944
  H       0.829359      2.862369      4.083273
  H       1.744356      1.320684      3.959117
  H       2.803614      3.207243      0.826370
  H       3.407106      2.387667      2.302322
  H       2.530699      3.952729      2.438060
  Si      2.209242     -3.841517      1.463865
  C       2.515563     -5.690627      1.136322
  C       3.035482     -3.354034      3.102143
  C       0.341752     -3.529636      1.581036
  H       3.597195     -5.932150      1.142097
  H       2.102396     -6.011194      0.158395
  H       2.021026     -6.296483      1.925846
  H       2.905622     -2.272213      3.303618
  H       4.121375     -3.578931      3.093970
  H       2.569237     -3.917966      3.938363
  H       0.115312     -2.448707      1.691989
  H      -0.056612     -4.077744      2.463639
  H      -0.187699     -3.905443      0.682770
  H       4.127889     -3.327847      0.348988
  C       3.863654     -3.836005     -4.213513
  C       4.373491     -2.581300     -4.225399
  H       3.659835     -4.372566     -3.268223
  H       3.638213     -4.385210     -5.145005
  Si      4.823215     -1.552386     -5.761822
  H       4.580411     -2.125409     -3.233900
  C       4.242163     -2.463953     -7.317602
  C       6.703603     -1.327128     -5.780023
  C       3.961937      0.127648     -5.612966
  H       4.730551     -3.457326     -7.419979
  H       4.491325     -1.874448     -8.224127
  H       3.143608     -2.619684     -7.313282
  H       7.223378     -2.302394     -5.873430
  H       7.058170     -0.840388     -4.848552
  H       7.014638     -0.690756     -6.634851
  H       2.860611      0.008549     -5.547931
  H       4.189941      0.766179     -6.491777
  H       4.295650      0.668609     -4.705596
  H       2.224918     -2.363390     -4.234902
  H       2.827333     -0.897098      1.210181
71
Coordinates from ORCA-job my_molecule E -2465.734046534666
  Pt      2.957272     -2.553199     -0.322691
  O       0.003841     -0.168546      1.171259
  O       1.706148     -1.291149     -1.651689
  P       1.274187      0.655427      1.106778
  P       0.758974     -2.031637     -2.643937
  O       0.676420     -3.595838     -2.216608
  O       1.306113     -1.971716     -4.166920
  O       1.697382      1.104616     -0.413391
  O       2.600040     -0.075785      1.745514
  C       1.232429      2.255622      2.027228
  C      -0.941510     -1.352080     -2.753227
  C      -1.693998     -2.108609     -3.869008
  C      -0.823964      0.152625     -3.083745
  C      -1.625396     -1.561279     -1.385304
  C       0.079855      3.089386      1.430127
  C       0.938593      1.921278      3.504021
  C       2.574718      2.994653      1.883471
  H       1.371374     -3.725974     -1.492188
  H       1.665311      0.295878     -0.999197
  H      -1.224133     -1.958310     -4.860276
  H      -2.735175     -1.728370     -3.912569
  H      -1.739561     -3.196881     -3.662946
  H      -0.289186      0.326056     -4.039380
  H      -0.305590      0.709903     -2.278523
  H      -1.845112      0.574800     -3.181810
  H      -1.724675     -2.638999     -1.148099
  H      -2.647558     -1.132337     -1.438655
  H      -1.088660     -1.060654     -0.550566
  H      -0.879767      2.537996      1.483172
  H       0.274951      3.343711      0.369170
  H      -0.027758      4.036490      1.999711
  H      -0.002994      1.345241      3.600316
  H       0.835112      2.862272      4.083696
  H       1.754451      1.323634      3.955419
  H       2.800965      3.214117      0.821905
  H       3.410031      2.395409      2.295028
  H       2.531021      3.957612      2.434437
  Si      2.200415     -3.841208      1.465001
  C       2.506806     -5.691262      1.140549
  C       3.025539     -3.351496      3.103217
  C       0.332560     -3.528748      1.579754
  H       3.588656     -5.932829      1.148450
  H       2.095113     -6.012532      0.162066
  H       2.010958     -6.296321      1.929955
  H       2.895546     -2.269085      3.303141
  H       4.111678     -3.576312      3.096011
  H       2.558513     -3.914604      3.939846
  H       0.106202     -2.447163      1.689258
  H      -0.066626     -4.074825      2.462923
  H      -0.196494     -3.905469      0.680874
  H       4.120202     -3.332902      0.350938
  C       3.861533     -3.835484     -4.222395
  C       4.377010     -2.583165     -4.232067
  H       3.659283     -4.373829     -3.278100
  H       3.631202     -4.381607     -5.154369
  Si      4.827175     -1.551417     -5.765787
  H       4.589111     -2.131339     -3.240372
  C       4.242139     -2.456572     -7.323291
  C       6.708244     -1.331781     -5.784947
  C       3.971123      0.131824     -5.609500
  H       4.730632     -3.446592     -7.430872
  H       4.488400     -1.864141     -8.228601
  H       3.144656     -2.613092     -7.315705
  H       7.224497     -2.308394     -5.880002
  H       7.065214     -0.847502     -4.852916
  H       7.020864     -0.695345     -6.638572
  H       2.870025      0.016223     -5.542368
  H       4.197975      0.772683     -6.486541
  H       4.309862      0.669638     -4.699941
  H       2.224857     -2.359385     -4.235399
  H       2.827291     -0.898081      1.211330
71
Coordinates from ORCA-job my_molecule E -2465.734063513554
  Pt      2.955909     -2.555472     -0.321992
  O       0.006855     -0.168850      1.172254
  O       1.707443     -1.296033     -1.649219
  P       1.273059      0.659545      1.104230
  P       0.759004     -2.035266     -2.640179
  O       0.675368     -3.598175     -2.209720
  O       1.305609     -1.977719     -4.163936
  O       1.686758      1.112016     -0.417750
  O       2.605472     -0.067720      1.736016
  C       1.230226      2.257910      2.028640
  C      -0.938665     -1.350357     -2.752953
  C      -1.692345     -2.104954     -3.868548
  C      -0.814292      0.152383     -3.085493
  C      -1.626113     -1.553005     -1.387059
  C       0.073670      3.090291      1.437166
  C       0.941650      1.918653      3.505442
  C       2.570729      3.000819      1.884174
  H       1.369171     -3.727927     -1.484917
  H       1.661078      0.298575     -1.000490
  H      -1.219875     -1.958700     -4.859166
  H      -2.731951     -1.719712     -3.916156
  H      -1.743774     -3.191989     -3.659773
  H      -0.277864      0.322782     -4.039928
  H      -0.295807      0.708410     -2.280265
  H      -1.833282      0.578622     -3.186915
  H      -1.733634     -2.628514     -1.144700
  H      -2.644857     -1.117259     -1.447441
  H      -1.089200     -1.054298     -0.553459
  H      -0.885378      2.536910      1.490750
  H       0.265228      3.347874      0.376427
  H      -0.034346      4.035198      2.010351
  H       0.001735      1.338933      3.602125
  H       0.836531      2.857170      4.089207
  H       1.761321      1.322181      3.952557
  H       2.794039      3.222517      0.821375
  H       3.409165      2.403617      2.293273
  H       2.524541      3.963781      2.437509
  Si      2.199641     -3.844690      1.465307
  C       2.510943     -5.695101      1.145508
  C       3.022721     -3.348743      3.102912
  C       0.330482     -3.538317      1.579412
  H       3.593652     -5.934028      1.153496
  H       2.098843     -6.019372      0.167919
  H       2.017689     -6.299623      1.936452
  H       2.887906     -2.266531      3.301326
  H       4.108626     -3.567401      3.096683
  H       2.558775     -3.912468      3.939194
  H       0.101714     -2.457132      1.686261
  H      -0.066087     -4.081850      2.464386
  H      -0.199025     -3.919776      0.681580
  H       4.119843     -3.336009      0.351650
  C       3.861637     -3.838372     -4.227572
  C       4.379530     -2.586467     -4.235890
  H       3.662190     -4.377924     -3.283664
  H       3.626697     -4.383361     -5.161308
  Si      4.827762     -1.553198     -5.768397
  H       4.595487     -2.135251     -3.244382
  C       4.241429     -2.456564     -7.325319
  C       6.708196     -1.332042     -5.788405
  C       3.972069      0.129236     -5.609693
  H       4.728243     -3.447881     -7.433601
  H       4.488992     -1.862917     -8.229259
  H       3.142135     -2.611762     -7.319452
  H       7.224623     -2.308875     -5.883966
  H       7.064862     -0.848476     -4.856106
  H       7.020149     -0.693658     -6.641788
  H       2.871035      0.013017     -5.542791
  H       4.198672      0.772597     -6.485157
  H       4.310710      0.665629     -4.698920
  H       2.222969     -2.365967     -4.234330
  H       2.828021     -0.895710      1.208563
71
Coordinates from ORCA-job my_molecule E -2465.734106199779
  Pt      2.953238     -2.560204     -0.316307
  O       0.010503     -0.171646      1.176024
  O       1.711070     -1.296027     -1.648877
  P       1.275851      0.656958      1.102507
  P       0.764135     -2.034112     -2.643004
  O       0.685538     -3.599895     -2.219208
  O       1.310423     -1.969489     -4.166503
  O       1.685692      1.106562     -0.420924
  O       2.608727     -0.067916      1.734091
  C       1.232648      2.257550      2.021535
  C      -0.936540     -1.355040     -2.751905
  C      -1.688455     -2.110965     -3.867447
  C      -0.819577      0.149502     -3.081154
  C      -1.620470     -1.563538     -1.385117
  C       0.075202      3.086956      1.429967
  C       0.946851      1.921077      3.500083
  C       2.572394      3.001975      1.873002
  H       1.377203     -3.727899     -1.490385
  H       1.663124      0.292953     -1.001516
  H      -1.217731     -1.961334     -4.857966
  H      -2.729143     -1.728705     -3.912803
  H      -1.736166     -3.198976     -3.661166
  H      -0.287280      0.324832     -4.037094
  H      -0.300659      0.705950     -2.276878
  H      -1.841250      0.571446     -3.176707
  H      -1.721157     -2.640093     -1.145330
  H      -2.642524     -1.134039     -1.442054
  H      -1.084564     -1.061977     -0.552183
  H      -0.883348      2.533109      1.486993
  H       0.264687      3.341874      0.368436
  H      -0.032080      4.033206      2.000613
  H       0.008238      1.339709      3.600260
  H       0.841294      2.860513      4.082521
  H       1.768325      1.326899      3.946594
  H       2.794450      3.221410      0.809713
  H       3.411832      2.406913      2.281710
  H       2.526219      3.965769      2.424110
  Si      2.193164     -3.846147      1.471868
  C       2.505516     -5.697451      1.157137
  C       3.011976     -3.347449      3.111115
  C       0.323654     -3.537570      1.583357
  H       3.587901     -5.936260      1.166794
  H       2.094964     -6.024115      0.179887
  H       2.011380     -6.299631      1.949347
  H       2.876324     -2.264969      3.308117
  H       4.098429     -3.566604      3.107567
  H       2.545621     -3.910696      3.947574
  H       0.096367     -2.455503      1.689705
  H      -0.074294     -4.079792      2.469164
  H      -0.205881     -3.917052      0.685110
  H       4.114423     -3.342365      0.356554
  C       3.858505     -3.835180     -4.234793
  C       4.380977     -2.585530     -4.239746
  H       3.661353     -4.377888     -3.292126
  H       3.618054     -4.374769     -5.168976
  Si      4.828609     -1.547109     -5.769178
  H       4.602186     -2.141080     -3.246596
  C       4.232147     -2.440460     -7.328396
  C       6.711264     -1.336144     -5.795373
  C       3.981525      0.138885     -5.599428
  H       4.716180     -3.431760     -7.445489
  H       4.476515     -1.843487     -8.231414
  H       3.132613     -2.592353     -7.316927
  H       7.222664     -2.315370     -5.896205
  H       7.073800     -0.857583     -4.862475
  H       7.023973     -0.697259     -6.647221
  H       2.880462      0.027777     -5.528622
  H       4.207660      0.785548     -6.472665
  H       4.325847      0.669693     -4.687828
  H       2.228809     -2.356951     -4.237570
  H       2.824926     -0.903433      1.216192
71
Coordinates from ORCA-job my_molecule E -2465.734125740473
  Pt      2.953357     -2.567294     -0.313354
  O       0.014284     -0.179839      1.180300
  O       1.714325     -1.298807     -1.647556
  P       1.276895      0.655122      1.101691
  P       0.766345     -2.033955     -2.643591
  O       0.684121     -3.600164     -2.225013
  O       1.312836     -1.966577     -4.166416
  O       1.681656      1.105184     -0.423500
  O       2.615418     -0.063482      1.729232
  C       1.230275      2.258150      2.016286
  C      -0.934095     -1.353627     -2.749354
  C      -1.689160     -2.107839     -3.864749
  C      -0.819357      0.152119     -3.075682
  C      -1.615417     -1.564833     -1.380153
  C       0.067296      3.082658      1.426796
  C       0.952234      1.924404      3.496590
  C       2.566137      3.006276      1.860350
  H       1.376717     -3.733416     -1.498017
  H       1.665552      0.292898     -1.005304
  H      -1.220971     -1.957251     -4.856758
  H      -2.729419     -1.724367     -3.907160
  H      -1.737757     -3.196499     -3.660762
  H      -0.289733      0.330424     -4.033266
  H      -0.299290      0.707824     -2.269700
  H      -1.842893      0.572469     -3.166929
  H      -1.714748     -2.642501     -1.143880
  H      -2.637657     -1.135098     -1.433498
  H      -1.078726     -1.063770     -0.545273
  H      -0.888085      2.525403      1.489983
  H       0.250188      3.336018      0.363674
  H      -0.042179      4.030584      1.994898
  H       0.017684      1.338873      3.602679
  H       0.844816      2.864919      4.076684
  H       1.778597      1.335294      3.940455
  H       2.782498      3.225046      0.797014
  H       3.408835      2.413242      2.266283
  H       2.520468      3.969778      2.409578
  Si      2.191608     -3.849649      1.473845
  C       2.503922     -5.702172      1.166810
  C       3.005933     -3.346730      3.113116
  C       0.322897     -3.541103      1.580047
  H       3.586339     -5.942258      1.178811
  H       2.094071     -6.033304      0.190913
  H       2.008599     -6.300450      1.961806
  H       2.870447     -2.263088      3.304561
  H       4.092909     -3.567968      3.114254
  H       2.536034     -3.906656      3.950727
  H       0.097340     -2.459360      1.682445
  H      -0.077095     -4.080547      2.466517
  H      -0.204239     -3.921279      0.681875
  H       4.113008     -3.351340      0.360658
  C       3.858866     -3.837295     -4.241059
  C       4.385800     -2.589785     -4.242393
  H       3.662993     -4.383993     -3.300527
  H       3.613908     -4.371365     -5.175848
  Si      4.831535     -1.545897     -5.768764
  H       4.612089     -2.150329     -3.248436
  C       4.226691     -2.429862     -7.330128
  C       6.714051     -1.340674     -5.800253
  C       3.990838      0.142917     -5.587700
  H       4.707173     -3.421461     -7.453693
  H       4.469060     -1.828829     -8.231054
  H       3.128531     -2.579593     -7.316274
  H       7.221720     -2.320936     -5.905234
  H       7.080898     -0.866099     -4.867265
  H       7.025680     -0.699814     -6.650885
  H       2.889365      0.035440     -5.513793
  H       4.215835      0.793186     -6.458397
  H       4.340341      0.667916     -4.674383
  H       2.229826     -2.357708     -4.237668
  H       2.826295     -0.904031      1.216882
71
Coordinates from ORCA-job my_molecule E -2465.734162992726
  Pt      2.950903     -2.571206     -0.308976
  O       0.018967     -0.181440      1.181766
  O       1.716757     -1.300658     -1.645400
  P       1.279649      0.655493      1.099373
  P       0.769930     -2.034344     -2.644170
  O       0.688382     -3.600695     -2.226548
  O       1.317886     -1.964678     -4.166544
  O       1.677150      1.106185     -0.427481
  O       2.620996     -0.059774      1.723298
  C       1.232313      2.258328      2.013974
  C      -0.930958     -1.354642     -2.752348
  C      -1.684958     -2.109202     -3.867993
  C      -0.816098      0.150514     -3.079514
  C      -1.613737     -1.566173     -1.384113
  C       0.067136      3.080657      1.426917
  C       0.958166      1.923113      3.494680
  C       2.566846      3.008783      1.855737
  H       1.379213     -3.733669     -1.498566
  H       1.663725      0.290715     -1.004938
  H      -1.215807     -1.959226     -4.859708
  H      -2.725142     -1.725262     -3.911739
  H      -1.734757     -3.197528     -3.663299
  H      -0.287571      0.328271     -4.037539
  H      -0.295748      0.706455     -2.274439
  H      -1.838733      0.570189     -3.170632
  H      -1.712529     -2.643989     -1.147269
  H      -2.635964     -1.137396     -1.438099
  H      -1.077037     -1.064912     -0.550350
  H      -0.887689      2.522553      1.491910
  H       0.247566      3.334229      0.363205
  H      -0.042607      4.028028      1.995706
  H       0.025374      1.335144      3.602448
  H       0.849811      2.862235      4.076837
  H       1.787262      1.335715      3.935827
  H       2.781268      3.227379      0.791541
  H       3.411094      2.417744      2.260818
  H       2.519924      3.972494      2.405273
  Si      2.187761     -3.852589      1.479566
  C       2.503878     -5.705583      1.178946
  C       2.997114     -3.343220      3.119448
  C       0.318193     -3.546160      1.584562
  H       3.586494     -5.943971      1.191683
  H       2.094135     -6.041657      0.204639
  H       2.009489     -6.301049      1.976728
  H       2.857785     -2.259712      3.308995
  H       4.084593     -3.560335      3.123188
  H       2.527644     -3.903195      3.957006
  H       0.091922     -2.463239      1.684226
  H      -0.080249     -4.082663      2.473705
  H      -0.208854     -3.930266      0.687886
  H       4.108936     -3.357959      0.365602
  C       3.858359     -3.837208     -4.246882
  C       4.387599     -2.590773     -4.245188
  H       3.664913     -4.387700     -3.307968
  H       3.608645     -4.366668     -5.183411
  Si      4.830136     -1.542617     -5.769879
  H       4.618446     -2.155085     -3.250572
  C       4.218725     -2.420139     -7.332132
  C       6.712844     -1.340678     -5.806414
  C       3.992765      0.146431     -5.580639
  H       4.696514     -3.412874     -7.460429
  H       4.460017     -1.816927     -8.231676
  H       3.119174     -2.567028     -7.316081
  H       7.219174     -2.321116     -5.915289
  H       7.082842     -0.869245     -4.872864
  H       7.022569     -0.698202     -6.656618
  H       2.891438      0.040901     -5.502353
  H       4.215567      0.798417     -6.450106
  H       4.346382      0.668022     -4.667092
  H       2.235615     -2.354636     -4.238893
  H       2.822762     -0.907458      1.220754
71
Coordinates from ORCA-job my_molecule E -2465.734190985848
  Pt      2.949590     -2.579231     -0.305871
  O       0.020491     -0.180223      1.177200
  O       1.719623     -1.308953     -1.643777
  P       1.279875      0.656763      1.092555
  P       0.773832     -2.040510     -2.643854
  O       0.693212     -3.608304     -2.228441
  O       1.321572     -1.967853     -4.166510
  O       1.676354      1.105348     -0.434794
  O       2.621655     -0.058850      1.716693
  C       1.233507      2.260070      2.006978
  C      -0.925885     -1.359023     -2.751877
  C      -1.679704     -2.113810     -3.866691
  C      -0.811041      0.145677     -3.079731
  C      -1.609906     -1.565954     -1.384581
  C       0.068157      3.081520      1.420500
  C       0.959676      1.923479      3.487672
  C       2.568537      3.011082      1.849258
  H       1.380121     -3.739626     -1.495308
  H       1.669116      0.287837     -1.010638
  H      -1.209177     -1.966974     -4.857554
  H      -2.718876     -1.726923     -3.913445
  H      -1.732178     -3.201742     -3.659641
  H      -0.286141      0.323805     -4.038842
  H      -0.289785      0.702003     -2.276522
  H      -1.834792      0.564708     -3.168041
  H      -1.711579     -2.641548     -1.142686
  H      -2.631010     -1.134929     -1.443666
  H      -1.073580     -1.062462     -0.552561
  H      -0.887070      2.522768      1.485093
  H       0.248546      3.335893      0.357101
  H      -0.041736      4.027998      1.990031
  H       0.027572      1.333283      3.595827
  H       0.850011      2.861744      4.071975
  H       1.790859      1.337108      3.927547
  H       2.783507      3.230251      0.784450
  H       3.412814      2.420203      2.254432
  H       2.520566      3.975071      2.400345
  Si      2.184053     -3.857024      1.485178
  C       2.504367     -5.710984      1.194820
  C       2.987094     -3.338220      3.125926
  C       0.312317     -3.554558      1.586512
  H       3.587104     -5.947565      1.208701
  H       2.094436     -6.053982      0.222924
  H       2.011816     -6.301855      1.996211
  H       2.843723     -2.254778      3.312644
  H       4.074664     -3.550914      3.133961
  H       2.516848     -3.897379      3.962756
  H       0.085327     -2.471912      1.683455
  H      -0.085065     -4.088286      2.477540
  H      -0.214897     -3.941936      0.690513
  H       4.106809     -3.365758      0.368394
  C       3.857194     -3.836007     -4.255549
  C       4.391677     -2.591349     -4.248462
  H       3.667833     -4.391328     -3.318923
  H       3.597676     -4.358555     -5.194603
  Si      4.829425     -1.535741     -5.768927
  H       4.630882     -2.162451     -3.252673
  C       4.202733     -2.401057     -7.332272
  C       6.713775     -1.341974     -5.816547
  C       4.001433      0.154901     -5.564179
  H       4.675311     -3.395877     -7.471795
  H       4.439722     -1.794385     -8.230824
  H       3.101607     -2.542057     -7.307853
  H       7.215438     -2.324413     -5.933761
  H       7.091577     -0.876719     -4.883121
  H       7.021340     -0.696197     -6.665050
  H       2.900151      0.052643     -5.482451
  H       4.224372      0.813709     -6.429169
  H       4.360094      0.667732     -4.648560
  H       2.238663     -2.357471     -4.240168
  H       2.818075     -0.914700      1.224819
71
Coordinates from ORCA-job my_molecule E -2465.734225874504
  Pt      2.946368     -2.586382     -0.301904
  O       0.026916     -0.185270      1.178793
  O       1.723500     -1.311632     -1.642891
  P       1.283282      0.656190      1.088663
  P       0.777670     -2.041074     -2.645153
  O       0.695784     -3.609514     -2.234053
  O       1.325887     -1.964298     -4.167164
  O       1.672143      1.105503     -0.440532
  O       2.628880     -0.055048      1.708144
  C       1.235289      2.260231      2.001378
  C      -0.922261     -1.360287     -2.751329
  C      -1.678201     -2.116024     -3.864283
  C      -0.809854      0.144287     -3.079981
  C      -1.604674     -1.568354     -1.383032
  C       0.065348      3.077534      1.417949
  C       0.968362      1.923952      3.483214
  C       2.567236      3.014698      1.837865
  H       1.381889     -3.743619     -1.500420
  H       1.668962      0.286015     -1.013657
  H      -1.209778     -1.970253     -4.856700
  H      -2.717274     -1.728654     -3.909222
  H      -1.731021     -3.203663     -3.656328
  H      -0.289673      0.322836     -4.041812
  H      -0.286239      0.701286     -2.278527
  H      -1.834482      0.561214     -3.163744
  H      -1.703316     -2.644784     -1.141304
  H      -2.626798     -1.139506     -1.440122
  H      -1.067447     -1.064536     -0.551810
  H      -0.887692      2.516213      1.487553
  H       0.240081      3.331231      0.353817
  H      -0.045654      4.024540      1.986707
  H       0.039815      1.329511      3.595543
  H       0.856628      2.861641      4.067663
  H       1.804236      1.342107      3.919785
  H       2.777797      3.233438      0.772250
  H       3.414049      2.426264      2.240953
  H       2.518724      3.978767      2.388627
  Si      2.179294     -3.860610      1.490215
  C       2.503331     -5.715565      1.211481
  C       2.973647     -3.331603      3.131570
  C       0.306897     -3.561069      1.585568
  H       3.586339     -5.951467      1.227048
  H       2.093375     -6.066971      0.242706
  H       2.010876     -6.300689      2.017727
  H       2.826420     -2.247554      3.312267
  H       4.061787     -3.541007      3.145683
  H       2.501308     -3.888001      3.969294
  H       0.079346     -2.478322      1.677939
  H      -0.090914     -4.091636      2.478176
  H      -0.217871     -3.952877      0.690315
  H       4.100044     -3.378248      0.373812
  C       3.858318     -3.837541     -4.265061
  C       4.397563     -2.595253     -4.252817
  H       3.671486     -4.398888     -3.331571
  H       3.591721     -4.352022     -5.206225
  Si      4.830762     -1.531513     -5.769427
  H       4.644096     -2.173503     -3.255531
  C       4.192582     -2.384137     -7.334213
  C       6.715063     -1.344856     -5.825459
  C       4.010892      0.162097     -5.548547
  H       4.659066     -3.380076     -7.481266
  H       4.428488     -1.772085     -8.229364
  H       3.091451     -2.521053     -7.306159
  H       7.212644     -2.328498     -5.949599
  H       7.099201     -0.885247     -4.891899
  H       7.020250     -0.696026     -6.672604
  H       2.909499      0.064374     -5.460638
  H       4.231049      0.825679     -6.410494
  H       4.377847      0.667314     -4.631151
  H       2.242858     -2.354536     -4.242778
  H       2.811116     -0.919922      1.228153
71
Coordinates from ORCA-job my_molecule E -2465.734244633044
  Pt      2.943024     -2.595409     -0.296455
  O       0.031805     -0.187104      1.180338
  O       1.722443     -1.317142     -1.638368
  P       1.286814      0.657123      1.085499
  P       0.780511     -2.044941     -2.645671
  O       0.699204     -3.613151     -2.235995
  O       1.332660     -1.965003     -4.165579
  O       1.670422      1.106453     -0.445496
  O       2.636439     -0.051477      1.700655
  C       1.239919      2.262449      1.997057
  C      -0.920761     -1.365143     -2.756265
  C      -1.673865     -2.123055     -3.870345
  C      -0.811567      0.139403     -3.086404
  C      -1.603452     -1.572511     -1.386664
  C       0.066108      3.077591      1.416956
  C       0.979003      1.926870      3.479929
  C       2.570618      3.017694      1.827850
  H       1.382668     -3.748085     -1.501424
  H       1.674055      0.286636     -1.017139
  H      -1.203565     -1.977781     -4.862515
  H      -2.713278     -1.736734     -3.917678
  H      -1.726421     -3.210426     -3.661067
  H      -0.292453      0.317887     -4.048985
  H      -0.289482      0.699056     -2.285055
  H      -1.836891      0.553032     -3.170677
  H      -1.699596     -2.648956     -1.143506
  H      -2.625992     -1.145219     -1.442088
  H      -1.065619     -1.066144     -0.556746
  H      -0.885182      2.514653      1.491643
  H       0.236163      3.330256      0.350993
  H      -0.044965      4.025710      1.984462
  H       0.053072      1.329757      3.596831
  H       0.866956      2.864774      4.063867
  H       1.818470      1.348047      3.913232
  H       2.777077      3.236865      0.762340
  H       3.418883      2.429032      2.228336
  H       2.524260      3.980695      2.378584
  Si      2.174418     -3.864902      1.497301
  C       2.501517     -5.720801      1.231631
  C       2.961115     -3.325665      3.138737
  C       0.300865     -3.568788      1.584781
  H       3.584902     -5.956102      1.250696
  H       2.092163     -6.081079      0.265780
  H       2.008394     -6.299490      2.042570
  H       2.811469     -2.241465      3.314254
  H       4.050698     -3.532864      3.159023
  H       2.485756     -3.879581      3.976494
  H       0.070916     -2.485333      1.669439
  H      -0.099265     -4.094526      2.480094
  H      -0.218264     -3.969201      0.690425
  H       4.095254     -3.388629      0.379794
  C       3.858544     -3.836369     -4.275141
  C       4.402958     -2.597050     -4.255335
  H       3.674021     -4.405826     -3.345701
  H       3.583996     -4.340958     -5.218556
  Si      4.830662     -1.524394     -5.767469
  H       4.657397     -2.183334     -3.257788
  C       4.177352     -2.363050     -7.334879
  C       6.714899     -1.344671     -5.835073
  C       4.018931      0.169769     -5.528521
  H       4.637937     -3.360536     -7.492057
  H       4.409636     -1.746193     -8.227362
  H       3.075858     -2.494618     -7.300112
  H       7.208687     -2.328325     -5.967800
  H       7.106684     -0.890962     -4.901502
  H       7.016131     -0.692921     -6.681293
  H       2.917857      0.075855     -5.432737
  H       4.235891      0.836862     -6.387531
  H       4.394468      0.666555     -4.610496
  H       2.249513     -2.357782     -4.237525
  H       2.805468     -0.926082      1.233499
71
Coordinates from ORCA-job my_molecule E -2465.734243535410
  Pt      2.938275     -2.603898     -0.295502
  O       0.032265     -0.188279      1.174862
  O       1.730466     -1.320934     -1.640907
  P       1.287499      0.657311      1.075276
  P       0.787054     -2.049026     -2.646725
  O       0.707642     -3.617607     -2.240452
  O       1.337862     -1.962290     -4.166848
  O       1.665204      1.106779     -0.456972
  O       2.639443     -0.050614      1.685655
  C       1.245418      2.261582      1.989116
  C      -0.914077     -1.374296     -2.752283
  C      -1.668206     -2.138325     -3.861190
  C      -0.810309      0.130344     -3.089273
  C      -1.593616     -1.576986     -1.380285
  C       0.068734      3.076654      1.414531
  C       0.991137      1.924921      3.472454
  C       2.574606      3.016912      1.813770
  H       1.389406     -3.750734     -1.502706
  H       1.674262      0.283023     -1.023848
  H      -1.199410     -1.997359     -4.854264
  H      -2.707952     -1.753506     -3.908995
  H      -1.718375     -3.224538     -3.645639
  H      -0.298673      0.306837     -4.056772
  H      -0.283556      0.694564     -2.293575
  H      -1.837944      0.540437     -3.167762
  H      -1.688129     -2.652241     -1.130840
  H      -2.615428     -1.151096     -1.437921
  H      -1.057353     -1.064395     -0.551327
  H      -0.882140      2.512760      1.493297
  H       0.234332      3.330076      0.347992
  H      -0.040315      4.024498      1.982946
  H       0.067535      1.325106      3.592533
  H       0.878866      2.862441      4.057229
  H       1.833966      1.348487      3.902372
  H       2.776259      3.236222      0.746810
  H       3.423963      2.427836      2.210585
  H       2.530852      3.980198      2.365733
  Si      2.164086     -3.867819      1.501248
  C       2.496656     -5.724366      1.251895
  C       2.937427     -3.312875      3.143004
  C       0.288974     -3.575893      1.579089
  H       3.579871     -5.957188      1.273830
  H       2.088252     -6.095878      0.290390
  H       2.004493     -6.295423      2.068352
  H       2.782029     -2.227452      3.309480
  H       4.027142     -3.515361      3.173034
  H       2.457900     -3.862052      3.981800
  H       0.057859     -2.492823      1.659460
  H      -0.113741     -4.100095      2.473562
  H      -0.226857     -3.980483      0.685290
  H       4.084534     -3.402639      0.384593
  C       3.861106     -3.836000     -4.283844
  C       4.412523     -2.598779     -4.259121
  H       3.680116     -4.412290     -3.358497
  H       3.575974     -4.330583     -5.229152
  Si      4.831979     -1.514522     -5.765692
  H       4.677796     -2.195319     -3.258989
  C       4.157664     -2.335596     -7.332790
  C       6.717410     -1.346334     -5.850067
  C       4.033444      0.183480     -5.503125
  H       4.612492     -3.332544     -7.504102
  H       4.382272     -1.712789     -8.223160
  H       3.056980     -2.462226     -7.283426
  H       7.204271     -2.332279     -5.994041
  H       7.121127     -0.900215     -4.918215
  H       7.014673     -0.690791     -6.694571
  H       2.932768      0.094913     -5.399886
  H       4.248080      0.859346     -6.356975
  H       4.419647      0.667737     -4.582955
  H       2.256315     -2.348518     -4.245499
  H       2.789482     -0.933962      1.230096
71
Coordinates from ORCA-job my_molecule E -2465.734237010362
  Pt      2.935881     -2.613463     -0.292288
  O       0.039141     -0.190401      1.171486
  O       1.732114     -1.329902     -1.641934
  P       1.291079      0.655128      1.071062
  P       0.786265     -2.053491     -2.649078
  O       0.701260     -3.624758     -2.250770
  O       1.335858     -1.965622     -4.169775
  O       1.673597      1.099394     -0.459893
  O       2.639352     -0.057488      1.684322
  C       1.246649      2.263872      1.976331
  C      -0.915050     -1.372019     -2.750258
  C      -1.674698     -2.134455     -3.857403
  C      -0.807890      0.129631     -3.084188
  C      -1.591127     -1.578355     -1.379214
  C       0.070617      3.074492      1.395912
  C       0.989129      1.933374      3.460707
  C       2.576135      3.018902      1.801844
  H       1.383207     -3.766204     -1.512118
  H       1.684265      0.277333     -1.028271
  H      -1.208979     -1.993913     -4.851612
  H      -2.714610     -1.748098     -3.901162
  H      -1.725161     -3.221079     -3.643340
  H      -0.303051      0.304472     -4.053942
  H      -0.274713      0.689151     -2.290997
  H      -1.833956      0.543373     -3.153427
  H      -1.679391     -2.655078     -1.133621
  H      -2.618455     -1.158103     -1.430783
  H      -1.049700     -1.070111     -0.554044
  H      -0.879296      2.509230      1.474417
  H       0.238196      3.323465      0.330001
  H      -0.040574      4.023743      1.959448
  H       0.067118      1.330994      3.580822
  H       0.870918      2.873316      4.040635
  H       1.833022      1.361659      3.896313
  H       2.780402      3.234837      0.735231
  H       3.424730      2.431397      2.202896
  H       2.530648      3.983930      2.350657
  Si      2.164215     -3.872781      1.507366
  C       2.497378     -5.730859      1.267549
  C       2.935854     -3.311491      3.148033
  C       0.288505     -3.582175      1.581396
  H       3.581495     -5.964235      1.289666
  H       2.086977     -6.108353      0.308583
  H       2.005510     -6.297195      2.088454
  H       2.780892     -2.225073      3.310534
  H       4.024343     -3.514071      3.180279
  H       2.454831     -3.857207      3.988567
  H       0.056206     -2.500066      1.661307
  H      -0.114922     -4.106508      2.474828
  H      -0.225971     -3.988377      0.685775
  H       4.080281     -3.418136      0.386557
  C       3.863783     -3.837258     -4.292796
  C       4.418267     -2.601972     -4.260170
  H       3.683554     -4.420381     -3.371663
  H       3.571789     -4.322952     -5.242151
  Si      4.832991     -1.507441     -5.760736
  H       4.688144     -2.206179     -3.258515
  C       4.147038     -2.314246     -7.329593
  C       6.717158     -1.343647     -5.854044
  C       4.042908      0.192370     -5.479656
  H       4.592923     -3.314207     -7.507698
  H       4.372775     -1.685835     -8.215575
  H       3.045269     -2.434019     -7.277883
  H       7.200138     -2.330086     -6.007273
  H       7.126993     -0.904766     -4.921623
  H       7.011603     -0.682699     -6.695616
  H       2.941848      0.108388     -5.371463
  H       4.255452      0.874487     -6.328850
  H       4.437515      0.667594     -4.556740
  H       2.251010     -2.357955     -4.247149
  H       2.784624     -0.948569      1.238429
71
Coordinates from ORCA-job my_molecule E -2465.734272832015
  Pt      2.940778     -2.605855     -0.293564
  O       0.030776     -0.185782      1.172764
  O       1.727479     -1.323020     -1.638408
  P       1.285647      0.657473      1.076246
  P       0.784800     -2.049740     -2.646129
  O       0.703583     -3.619395     -2.239558
  O       1.336061     -1.966771     -4.166524
  O       1.670297      1.106054     -0.454572
  O       2.633257     -0.055057      1.690637
  C       1.243348      2.262786      1.987692
  C      -0.916322     -1.371395     -2.754833
  C      -1.670218     -2.135509     -3.864127
  C      -0.809006      0.131833     -3.092139
  C      -1.596592     -1.574378     -1.384724
  C       0.068402      3.078202      1.410034
  C       0.984935      1.928326      3.471518
  C       2.574434      3.016219      1.815271
  H       1.386314     -3.755221     -1.502686
  H       1.680378      0.284141     -1.023964
  H      -1.200481     -1.994696     -4.857135
  H      -2.709880     -1.750903     -3.912477
  H      -1.720595     -3.221434     -3.648789
  H      -0.295222      0.306020     -4.058102
  H      -0.282685      0.695242     -2.296752
  H      -1.835429      0.545176     -3.172434
  H      -1.689554     -2.649863     -1.135968
  H      -2.620774     -1.150306     -1.441667
  H      -1.059208     -1.064801     -0.557536
  H      -0.882635      2.514689      1.487309
  H       0.236172      3.329698      0.344366
  H      -0.040432      4.027116      1.976518
  H       0.060053      1.329578      3.589630
  H       0.871214      2.867014      4.053579
  H       1.825665      1.351629      3.905461
  H       2.778699      3.235020      0.748702
  H       3.422472      2.426212      2.213926
  H       2.530684      3.980124      2.366314
  Si      2.169586     -3.868360      1.503848
  C       2.498914     -5.725695      1.253587
  C       2.947885     -3.316105      3.145154
  C       0.294296     -3.575281      1.580762
  H       3.582180     -5.960563      1.274817
  H       2.088910     -6.095526      0.291641
  H       2.006254     -6.296692      2.069878
  H       2.795723     -2.230983      3.313607
  H       4.037012     -3.521299      3.172900
  H       2.468662     -3.864984      3.984001
  H       0.061445     -2.492906      1.661714
  H      -0.110881     -4.100838      2.473715
  H      -0.219401     -3.980137      0.684581
  H       4.088884     -3.404713      0.382567
  C       3.859772     -3.835811     -4.286159
  C       4.411255     -2.599544     -4.258062
  H       3.677897     -4.413855     -3.361327
  H       3.573445     -4.328715     -5.233008
  Si      4.830692     -1.514473     -5.763855
  H       4.676305     -2.197145     -3.258119
  C       4.154666     -2.333988     -7.330613
  C       6.715427     -1.346953     -5.850085
  C       4.034488      0.184470     -5.498570
  H       4.604380     -3.333942     -7.499351
  H       4.383934     -1.710668     -8.219629
  H       3.052609     -2.456479     -7.284334
  H       7.201215     -2.333367     -5.996067
  H       7.120189     -0.902195     -4.918048
  H       7.012346     -0.690162     -6.694283
  H       2.933748      0.097888     -5.393086
  H       4.248243      0.860158     -6.352573
  H       4.423987      0.668316     -4.578490
  H       2.254029     -2.356691     -4.237614
  H       2.789798     -0.937937      1.234712
71
Coordinates from ORCA-job my_molecule E -2465.734272907546
  Pt      2.940221     -2.604179     -0.296117
  O       0.030280     -0.183723      1.171620
  O       1.728055     -1.324625     -1.640104
  P       1.288034      0.656661      1.076578
  P       0.785106     -2.051424     -2.647675
  O       0.705787     -3.620592     -2.243006
  O       1.337571     -1.965413     -4.167189
  O       1.673550      1.104116     -0.453710
  O       2.635421     -0.057218      1.691151
  C       1.247275      2.261791      1.989170
  C      -0.917334     -1.376218     -2.756145
  C      -1.668570     -2.140297     -3.867189
  C      -0.811964      0.127450     -3.092061
  C      -1.597249     -1.579710     -1.385058
  C       0.074359      3.079807      1.410169
  C       0.986233      1.927062      3.472310
  C       2.579988      3.012968      1.818910
  H       1.386933     -3.753960     -1.504479
  H       1.679455      0.281566     -1.022207
  H      -1.196942     -1.998344     -4.858506
  H      -2.709021     -1.757154     -3.916685
  H      -1.716781     -3.226820     -3.652568
  H      -0.297885      0.302142     -4.058560
  H      -0.284585      0.690355     -2.296203
  H      -1.838231      0.540843     -3.171173
  H      -1.690044     -2.655234     -1.136301
  H      -2.621140     -1.156362     -1.440189
  H      -1.058438     -1.066876     -0.558902
  H      -0.877894      2.517918      1.484412
  H       0.245768      3.331775      0.344018
  H      -0.034517      4.027916      1.977490
  H       0.059995      1.329951      3.588802
  H       0.873448      2.866201      4.054675
  H       1.824939      1.348390      3.906884
  H       2.786238      3.232028      0.753010
  H       3.426865      2.421357      2.218524
  H       2.536938      3.975792      2.370217
  Si      2.166194     -3.865651      1.501895
  C       2.496959     -5.722437      1.254401
  C       2.942565     -3.312120      3.142858
  C       0.291996     -3.572058      1.577759
  H       3.580387     -5.955518      1.276729
  H       2.088526     -6.093163      0.292386
  H       2.004554     -6.293185      2.071335
  H       2.789729     -2.226638      3.309554
  H       4.031912     -3.517758      3.172131
  H       2.462491     -3.859830      3.982223
  H       0.059080     -2.489417      1.660166
  H      -0.113604     -4.098795      2.469020
  H      -0.220952     -3.975052      0.681521
  H       4.087342     -3.402403      0.383221
  C       3.862180     -3.834922     -4.280927
  C       4.411216     -2.597200     -4.255727
  H       3.679758     -4.412166     -3.356410
  H       3.577847     -4.329191     -5.226528
  Si      4.829054     -1.512455     -5.762188
  H       4.674458     -2.193528     -3.255812
  C       4.151712     -2.333353     -7.328940
  C       6.713693     -1.343425     -5.849527
  C       4.031536      0.184748     -5.498805
  H       4.603144     -3.332928     -7.498407
  H       4.377959     -1.711335     -8.219217
  H       3.050132     -2.456328     -7.280382
  H       7.200240     -2.329013     -5.995303
  H       7.119022     -0.897889     -4.917727
  H       7.009135     -0.687033     -6.694191
  H       2.930722      0.097027     -5.394529
  H       4.245663      0.859426     -6.352993
  H       4.419465      0.668757     -4.579532
  H       2.256042     -2.351029     -4.241766
  H       2.792289     -0.938831      1.231882
71
Coordinates from ORCA-job my_molecule E -2465.734282327540
  Pt      2.940166     -2.607642     -0.294471
  O       0.028654     -0.185866      1.171581
  O       1.730094     -1.324468     -1.639532
  P       1.285008      0.656276      1.075103
  P       0.786062     -2.052208     -2.645211
  O       0.703828     -3.620455     -2.237392
  O       1.337858     -1.970081     -4.165639
  O       1.669802      1.103419     -0.455663
  O       2.632222     -0.057151      1.690073
  C       1.244665      2.262784      1.985336
  C      -0.914546     -1.373390     -2.754578
  C      -1.668331     -2.138734     -3.863187
  C      -0.804485      0.129116     -3.094039
  C      -1.594952     -1.573986     -1.383658
  C       0.070468      3.078818      1.407132
  C       0.985934      1.930306      3.468975
  C       2.576340      3.014783      1.811962
  H       1.387573     -3.756097     -1.501355
  H       1.679993      0.281052     -1.023243
  H      -1.197901     -1.998621     -4.855796
  H      -2.708456     -1.754997     -3.912152
  H      -1.717595     -3.224721     -3.646573
  H      -0.290529      0.300156     -4.060876
  H      -0.275037      0.691867     -2.299743
  H      -1.829374      0.545619     -3.173967
  H      -1.689505     -2.649202     -1.134151
  H      -2.618154     -1.148944     -1.440971
  H      -1.057402     -1.063417     -0.555537
  H      -0.881330      2.515937      1.483759
  H       0.239606      3.329041      0.340867
  H      -0.037649      4.027906      1.972702
  H       0.060475      1.332095      3.586793
  H       0.872179      2.869721      4.049338
  H       1.825713      1.353740      3.904386
  H       2.780245      3.232157      0.745348
  H       3.423934      2.424560      2.210749
  H       2.533877      3.979305      2.361747
  Si      2.167139     -3.869646      1.503904
  C       2.497069     -5.726986      1.256374
  C       2.944329     -3.315933      3.144788
  C       0.292384     -3.576495      1.578400
  H       3.580703     -5.960958      1.278687
  H       2.087863     -6.097648      0.294396
  H       2.004174     -6.297645      2.073307
  H       2.792644     -2.229955      3.311222
  H       4.033053     -3.522478      3.174028
  H       2.463656     -3.863057      3.984381
  H       0.058675     -2.494046      1.660240
  H      -0.115313     -4.103937      2.469037
  H      -0.218660     -3.980153      0.680720
  H       4.086847     -3.408563      0.383218
  C       3.862704     -3.835271     -4.284612
  C       4.413534     -2.598252     -4.255615
  H       3.680200     -4.415229     -3.361535
  H       3.575784     -4.326308     -5.231957
  Si      4.829226     -1.510753     -5.760827
  H       4.678582     -2.197079     -3.255188
  C       4.146942     -2.328245     -7.326770
  C       6.713943     -1.343751     -5.853328
  C       4.034372      0.187598     -5.491535
  H       4.598006     -3.327070     -7.499498
  H       4.370273     -1.705212     -8.217303
  H       3.045569     -2.450569     -7.273420
  H       7.199161     -2.329617     -6.001811
  H       7.122161     -0.899681     -4.922419
  H       7.007901     -0.686791     -6.697788
  H       2.933668      0.101515     -5.383984
  H       4.246745      0.864075     -6.345201
  H       4.425881      0.669406     -4.572224
  H       2.256698     -2.356787     -4.237265
  H       2.788946     -0.939912      1.233553
71
Coordinates from ORCA-job my_molecule E -2465.734285175654
  Pt      2.941205     -2.609437     -0.293718
  O       0.028106     -0.183231      1.167708
  O       1.730511     -1.325413     -1.639593
  P       1.285140      0.657057      1.073141
  P       0.787126     -2.052270     -2.646957
  O       0.706099     -3.622333     -2.240743
  O       1.338990     -1.969380     -4.167276
  O       1.673540      1.105763     -0.456511
  O       2.630509     -0.058670      1.688632
  C       1.244908      2.261604      1.985584
  C      -0.914643     -1.375724     -2.756425
  C      -1.666911     -2.143300     -3.864424
  C      -0.807672      0.126710     -3.097523
  C      -1.594387     -1.576690     -1.386404
  C       0.070619      3.078846      1.408549
  C       0.986095      1.927643      3.469532
  C       2.576884      3.012904      1.813161
  H       1.389548     -3.757038     -1.503839
  H       1.684496      0.284182     -1.026535
  H      -1.196229     -2.003822     -4.856988
  H      -2.707424     -1.761371     -3.914256
  H      -1.714426     -3.228859     -3.646764
  H      -0.294005      0.297259     -4.064179
  H      -0.279361      0.691686     -2.304509
  H      -1.833524      0.541838     -3.178168
  H      -1.686439     -2.651862     -1.135868
  H      -2.618954     -1.153797     -1.443415
  H      -1.056911     -1.064884     -0.560668
  H      -0.880776      2.515989      1.485069
  H       0.239090      3.330195      0.343100
  H      -0.037169      4.027587      1.975072
  H       0.061172      1.329238      3.586750
  H       0.871184      2.867415      4.050358
  H       1.826043      1.350548      3.905385
  H       2.780693      3.232485      0.746732
  H       3.424509      2.421015      2.210483
  H       2.534996      3.976428      2.364702
  Si      2.167514     -3.867189      1.506176
  C       2.495683     -5.725348      1.263053
  C       2.944741     -3.310638      3.146333
  C       0.292623     -3.573031      1.577545
  H       3.578752     -5.960403      1.285426
  H       2.085623     -6.098081      0.302285
  H       2.003162     -6.293023      2.081366
  H       2.794382     -2.224620      3.310989
  H       4.033039     -3.518330      3.176786
  H       2.462890     -3.855615      3.986229
  H       0.058703     -2.490975      1.658343
  H      -0.117030     -4.100158      2.467302
  H      -0.217489     -3.977099      0.678814
  H       4.086538     -3.411294      0.382685
  C       3.861599     -3.835830     -4.287588
  C       4.414787     -2.600113     -4.256798
  H       3.679776     -4.417499     -3.365296
  H       3.570987     -4.324163     -5.235672
  Si      4.828946     -1.509958     -5.760311
  H       4.683094     -2.202012     -3.255734
  C       4.140030     -2.321937     -7.325424
  C       6.713509     -1.347406     -5.858062
  C       4.040283      0.190640     -5.483473
  H       4.584363     -3.323415     -7.498768
  H       4.366710     -1.697460     -8.214222
  H       3.037739     -2.439265     -7.272155
  H       7.195382     -2.334749     -6.010510
  H       7.125607     -0.906613     -4.927325
  H       7.006733     -0.688291     -6.701947
  H       2.939917      0.107656     -5.372623
  H       4.251862      0.869139     -6.335885
  H       4.436895      0.668962     -4.563438
  H       2.258408     -2.355571     -4.237359
  H       2.785923     -0.941370      1.232151
71
Coordinates from ORCA-job my_molecule E -2465.734292189831
  Pt      2.940819     -2.610931     -0.293869
  O       0.027386     -0.184037      1.168261
  O       1.730337     -1.327693     -1.639635
  P       1.284966      0.655671      1.073140
  P       0.786718     -2.054350     -2.646529
  O       0.704837     -3.623612     -2.239570
  O       1.339373     -1.972173     -4.166588
  O       1.672703      1.102755     -0.456907
  O       2.630181     -0.060325      1.689223
  C       1.245987      2.261618      1.983861
  C      -0.914292     -1.376178     -2.757031
  C      -1.666749     -2.142867     -3.865459
  C      -0.804587      0.126091     -3.098128
  C      -1.595006     -1.575508     -1.386648
  C       0.072370      3.078935      1.405669
  C       0.986414      1.929245      3.467824
  C       2.578571      3.012284      1.811047
  H       1.387957     -3.758361     -1.502305
  H       1.683641      0.280336     -1.025257
  H      -1.195276     -2.003830     -4.857629
  H      -2.706944     -1.759987     -3.915796
  H      -1.715228     -3.228451     -3.647741
  H      -0.289897      0.295489     -4.064847
  H      -0.275062      0.690128     -2.305079
  H      -1.829465      0.543588     -3.179075
  H      -1.689245     -2.650413     -1.135718
  H      -2.618780     -1.150917     -1.444216
  H      -1.056853     -1.063998     -0.560407
  H      -0.879650      2.516592      1.481813
  H       0.241974      3.328968      0.339707
  H      -0.035155      4.028248      1.971380
  H       0.060620      1.331320      3.585030
  H       0.872123      2.869188      4.047630
  H       1.825485      1.352182      3.904140
  H       2.782759      3.230501      0.744393
  H       3.425964      2.420829      2.209209
  H       2.536774      3.976435      2.361505
  Si      2.166882     -3.868576      1.506734
  C       2.497209     -5.726532      1.265787
  C       2.942899     -3.310357      3.147006
  C       0.291932     -3.575557      1.576466
  H       3.580690     -5.960070      1.288534
  H       2.088005     -6.100183      0.305013
  H       2.005125     -6.294322      2.084687
  H       2.791825     -2.224248      3.310537
  H       4.031440     -3.517884      3.178334
  H       2.460790     -3.854654      3.987356
  H       0.056978     -2.493567      1.658008
  H      -0.118790     -4.103946      2.464996
  H      -0.216332     -3.978902      0.676869
  H       4.086250     -3.413150      0.383171
  C       3.863741     -3.835725     -4.287057
  C       4.415687     -2.599531     -4.255501
  H       3.681904     -4.418601     -3.365553
  H       3.573296     -4.323129     -5.235404
  Si      4.827761     -1.507844     -5.758604
  H       4.683440     -2.202108     -3.254199
  C       4.136481     -2.318834     -7.323535
  C       6.712155     -1.344803     -5.859173
  C       4.039174      0.192101     -5.480005
  H       4.580786     -3.320395     -7.498122
  H       4.361553     -1.694209     -8.212586
  H       3.034301     -2.435851     -7.268504
  H       7.194152     -2.331781     -6.012862
  H       7.125635     -0.904384     -4.928787
  H       7.003688     -0.685504     -6.703175
  H       2.938765      0.109138     -5.368154
  H       4.249969      0.870857     -6.332255
  H       4.436515      0.669694     -4.560376
  H       2.259077     -2.357169     -4.235903
  H       2.785558     -0.943496      1.232950
71
Coordinates from ORCA-job my_molecule E -2465.734296235486
  Pt      2.940214     -2.614091     -0.293921
  O       0.025008     -0.182841      1.165873
  O       1.731718     -1.329441     -1.639083
  P       1.284003      0.655098      1.071372
  P       0.787724     -2.057044     -2.645532
  O       0.705263     -3.625274     -2.237323
  O       1.342129     -1.975741     -4.165148
  O       1.672529      1.101483     -0.458742
  O       2.628465     -0.062225      1.687960
  C       1.246583      2.261331      1.981658
  C      -0.913232     -1.378365     -2.758455
  C      -1.664813     -2.146331     -3.866580
  C      -0.801468      0.123179     -3.101576
  C      -1.594662     -1.575562     -1.388049
  C       0.073659      3.079587      1.403431
  C       0.987218      1.929977      3.465767
  C       2.579785      3.010702      1.807942
  H       1.388742     -3.760079     -1.500792
  H       1.684455      0.278641     -1.026267
  H      -1.192750     -2.007901     -4.858485
  H      -2.705289     -1.764349     -3.917841
  H      -1.712649     -3.231772     -3.648031
  H      -0.285519      0.290186     -4.068101
  H      -0.271329      0.687537     -2.308896
  H      -1.825269      0.542543     -3.184247
  H      -1.690258     -2.649995     -1.136218
  H      -2.617696     -1.150159     -1.446315
  H      -1.056061     -1.063273     -0.562169
  H      -0.878905      2.518174      1.479714
  H       0.243477      3.328926      0.337139
  H      -0.032821      4.029069      1.968744
  H       0.061217      1.332563      3.583187
  H       0.873260      2.870531      4.044683
  H       1.825744      1.352693      3.902894
  H       2.783160      3.228619      0.741310
  H       3.426953      2.418466      2.205360
  H       2.539668      3.974814      2.358104
  Si      2.165396     -3.869393      1.508033
  C       2.495003     -5.728112      1.270549
  C       2.942290     -3.309105      3.146666
  C       0.291163     -3.575282      1.576452
  H       3.578820     -5.961451      1.294009
  H       2.085873     -6.102900      0.310179
  H       2.002837     -6.294839      2.090519
  H       2.793235     -2.222018      3.307805
  H       4.030294     -3.518968      3.178402
  H       2.458944     -3.850967      3.988001
  H       0.056345     -2.493039      1.658272
  H      -0.121538     -4.104039      2.463669
  H      -0.215408     -3.977721      0.675523
  H       4.084442     -3.418065      0.383120
  C       3.865573     -3.835973     -4.287314
  C       4.417887     -2.599554     -4.253405
  H       3.683366     -4.421723     -3.368003
  H       3.573638     -4.320363     -5.236335
  Si      4.826420     -1.504427     -5.755076
  H       4.686672     -2.204440     -3.251673
  C       4.127482     -2.311351     -7.319426
  C       6.710959     -1.343107     -5.863056
  C       4.041046      0.195603     -5.470189
  H       4.571514     -3.312252     -7.498872
  H       4.347336     -1.686245     -8.209551
  H       3.026001     -2.427463     -7.257977
  H       7.191300     -2.330126     -6.020140
  H       7.128940     -0.904440     -4.933807
  H       6.999509     -0.683087     -6.707069
  H       2.940896      0.113982     -5.354971
  H       4.250127      0.875868     -6.321668
  H       4.441754      0.670376     -4.551239
  H       2.263560     -2.356730     -4.233867
  H       2.784378     -0.945079      1.231156
71
Coordinates from ORCA-job my_molecule E -2465.734300053835
  Pt      2.939452     -2.617517     -0.293790
  O       0.024390     -0.183665      1.165438
  O       1.732336     -1.333706     -1.641089
  P       1.284549      0.652745      1.070191
  P       0.787235     -2.060383     -2.646434
  O       0.702545     -3.628383     -2.236831
  O       1.341984     -1.981591     -4.166089
  O       1.673261      1.098028     -0.459866
  O       2.628339     -0.065628      1.687042
  C       1.248627      2.259979      1.979006
  C      -0.912159     -1.379360     -2.760710
  C      -1.664338     -2.146864     -3.868698
  C      -0.797075      0.121729     -3.105059
  C      -1.594441     -1.574092     -1.390323
  C       0.076209      3.078559      1.400008
  C       0.988626      1.930906      3.463301
  C       2.582263      3.008385      1.804455
  H       1.385326     -3.762814     -1.499072
  H       1.684931      0.275468     -1.027249
  H      -1.191841     -2.009094     -4.860596
  H      -2.704581     -1.764217     -3.920283
  H      -1.712809     -3.232470     -3.649959
  H      -0.279512      0.286268     -4.071407
  H      -0.265801      0.685711     -2.312929
  H      -1.819645      0.544186     -3.189310
  H      -1.692640     -2.648426     -1.138015
  H      -2.616379     -1.146208     -1.449131
  H      -1.055222     -1.062330     -0.564173
  H      -0.876904      2.517922      1.476376
  H       0.246519      3.326559      0.333409
  H      -0.029706      4.028457      1.964565
  H       0.062275      1.333768      3.580887
  H       0.874169      2.872334      4.040493
  H       1.826698      1.354197      3.901763
  H       2.785278      3.225335      0.737463
  H       3.429654      2.416448      2.201744
  H       2.542517      3.972960      2.353781
  Si      2.164287     -3.870455      1.510527
  C       2.497339     -5.728884      1.278342
  C       2.939432     -3.305685      3.148933
  C       0.289660     -3.577828      1.574396
  H       3.581462     -5.959446      1.301503
  H       2.089071     -6.106538      0.318784
  H       2.007211     -6.294700      2.099884
  H       2.790152     -2.218476      3.306735
  H       4.027438     -3.515774      3.182550
  H       2.455196     -3.844885      3.991488
  H       0.053233     -2.495798      1.656583
  H      -0.125652     -4.108364      2.459502
  H      -0.213624     -3.979169      0.671440
  H       4.082328     -3.422855      0.384016
  C       3.869484     -3.836357     -4.287456
  C       4.420546     -2.599835     -4.251631
  H       3.687837     -4.424889     -3.369652
  H       3.576322     -4.318156     -5.237877
  Si      4.824379     -1.500656     -5.751559
  H       4.689831     -2.207369     -3.248714
  C       4.118645     -2.303268     -7.314854
  C       6.708225     -1.339915     -5.866872
  C       4.041492      0.198925     -5.459624
  H       4.559275     -3.305438     -7.496390
  H       4.337847     -1.677321     -8.204304
  H       3.016528     -2.416532     -7.250876
  H       7.187443     -2.326812     -6.027843
  H       7.130168     -0.903489     -4.938294
  H       6.993246     -0.678205     -6.710882
  H       2.941631      0.118374     -5.340831
  H       4.248300      0.880750     -6.310159
  H       4.445796      0.670974     -4.540908
  H       2.263105     -2.363118     -4.232638
  H       2.782550     -0.948757      1.229864
71
Coordinates from ORCA-job my_molecule E -2465.734303623572
  Pt      2.939242     -2.621157     -0.293400
  O       0.023691     -0.184077      1.164086
  O       1.732004     -1.336605     -1.640345
  P       1.283889      0.651779      1.068374
  P       0.787449     -2.062820     -2.646723
  O       0.701728     -3.630863     -2.236900
  O       1.343707     -1.984732     -4.165864
  O       1.672653      1.096118     -0.462167
  O       2.627520     -0.066930      1.685196
  C       1.248872      2.259390      1.976291
  C      -0.911648     -1.380450     -2.761952
  C      -1.664281     -2.147628     -3.869808
  C      -0.795201      0.120558     -3.106786
  C      -1.594676     -1.574024     -1.391647
  C       0.076445      3.077830      1.397314
  C       0.989469      1.931142      3.461082
  C       2.582522      3.007759      1.800684
  H       1.384146     -3.765275     -1.498798
  H       1.685968      0.272502     -1.028612
  H      -1.191950     -2.010712     -4.861643
  H      -2.704188     -1.764206     -3.921410
  H      -1.713839     -3.232857     -3.650944
  H      -0.276508      0.284432     -4.072544
  H      -0.264454      0.684905     -2.314680
  H      -1.817581      0.543738     -3.192279
  H      -1.694072     -2.647954     -1.138928
  H      -2.616585     -1.145187     -1.450733
  H      -1.054409     -1.062733     -0.566278
  H      -0.876798      2.517563      1.474632
  H       0.246141      3.325205      0.330472
  H      -0.028835      4.028308      1.961531
  H       0.063017      1.334048      3.579564
  H       0.875644      2.872731      4.037891
  H       1.827640      1.354583      3.899289
  H       2.784763      3.224377      0.733326
  H       3.430361      2.416021      2.197653
  H       2.542955      3.972656      2.349888
  Si      2.163853     -3.871292      1.512776
  C       2.497492     -5.730312      1.284252
  C       2.939265     -3.303192      3.150066
  C       0.289129     -3.578546      1.575328
  H       3.581818     -5.960180      1.307537
  H       2.089351     -6.109697      0.325305
  H       2.007947     -6.294982      2.106851
  H       2.790899     -2.215583      3.305549
  H       4.027158     -3.514128      3.184053
  H       2.454515     -3.840210      3.993625
  H       0.053067     -2.496673      1.658141
  H      -0.127113     -4.109307      2.459594
  H      -0.213727     -3.978846      0.671588
  H       4.081856     -3.427259      0.383806
  C       3.870080     -3.837413     -4.290348
  C       4.422212     -2.601320     -4.251419
  H       3.688982     -4.428446     -3.373977
  H       3.574886     -4.316337     -5.241490
  Si      4.823785     -1.498376     -5.749219
  H       4.693291     -2.211827     -3.247964
  C       4.112521     -2.295764     -7.312442
  C       6.707448     -1.339802     -5.869765
  C       4.044768      0.202220     -5.450130
  H       4.549675     -3.298929     -7.496574
  H       4.331862     -1.668170     -8.200911
  H       3.010379     -2.406812     -7.247064
  H       7.184667     -2.327301     -6.034355
  H       7.132841     -0.906095     -4.941529
  H       6.990692     -0.676374     -6.713269
  H       2.945164      0.123432     -5.328321
  H       4.250272      0.886229     -6.299381
  H       4.452912      0.671308     -4.530927
  H       2.266092     -2.363830     -4.230537
  H       2.781472     -0.950373      1.228407
71
Coordinates from ORCA-job my_molecule E -2465.734307808304
  Pt      2.937997     -2.623713     -0.293418
  O       0.023024     -0.183592      1.163559
  O       1.732007     -1.337716     -1.640939
  P       1.283536      0.651451      1.066986
  P       0.787289     -2.064096     -2.647312
  O       0.700463     -3.632082     -2.236552
  O       1.344358     -1.986898     -4.166328
  O       1.671580      1.096220     -0.463709
  O       2.627403     -0.067757      1.682566
  C       1.248944      2.258557      1.975320
  C      -0.911462     -1.380829     -2.763583
  C      -1.664446     -2.148227     -3.870906
  C      -0.794808      0.119840     -3.109023
  C      -1.594697     -1.573572     -1.393545
  C       0.076308      3.077255      1.397215
  C       0.990522      1.930262      3.460369
  C       2.582319      3.007151      1.798821
  H       1.382882     -3.766746     -1.498543
  H       1.685052      0.272968     -1.030995
  H      -1.193322     -2.010967     -4.863451
  H      -2.704440     -1.765002     -3.921632
  H      -1.713797     -3.233609     -3.652345
  H      -0.275096      0.283659     -4.074074
  H      -0.265846      0.684587     -2.316242
  H      -1.817236      0.542387     -3.196422
  H      -1.694921     -2.647381     -1.140580
  H      -2.616141     -1.143609     -1.452925
  H      -1.054214     -1.062628     -0.568665
  H      -0.876900      2.517451      1.475926
  H       0.244442      3.325123      0.330476
  H      -0.028119      4.027615      1.961793
  H       0.064540      1.333068      3.579834
  H       0.877031      2.872073      4.037316
  H       1.829414      1.354003      3.898122
  H       2.783253      3.224665      0.731363
  H       3.430714      2.415247      2.194351
  H       2.543405      3.971580      2.348783
  Si      2.163330     -3.871459      1.514209
  C       2.497271     -5.730771      1.287715
  C       2.939848     -3.300955      3.149995
  C       0.288820     -3.578110      1.576583
  H       3.581801     -5.959970      1.310366
  H       2.088823     -6.111630      0.329521
  H       2.008633     -6.294876      2.111172
  H       2.793193     -2.212875      3.303040
  H       4.027375     -3.513076      3.183668
  H       2.454786     -3.835693      3.994690
  H       0.053734     -2.496023      1.658951
  H      -0.127542     -4.107916      2.461423
  H      -0.214402     -3.978058      0.672603
  H       4.079704     -3.430954      0.383357
  C       3.871992     -3.839068     -4.291696
  C       4.424361     -2.603108     -4.250745
  H       3.691183     -4.432190     -3.376625
  H       3.576336     -4.315991     -5.243623
  Si      4.823884     -1.497346     -5.747004
  H       4.696221     -2.215613     -3.246599
  C       4.108718     -2.291268     -7.310029
  C       6.707528     -1.339663     -5.871947
  C       4.046874      0.203316     -5.442851
  H       4.544222     -3.294553     -7.496512
  H       4.327212     -1.662708     -8.198104
  H       3.006584     -2.401554     -7.243121
  H       7.183624     -2.327427     -6.038851
  H       7.135816     -0.907347     -4.944423
  H       6.988920     -0.675529     -6.715454
  H       2.947608      0.125045     -5.318382
  H       4.250763      0.888793     -6.291396
  H       4.457408      0.670783     -4.523936
  H       2.267256     -2.365192     -4.230156
  H       2.781386     -0.950502      1.224640
71
Coordinates from ORCA-job my_molecule E -2465.734311173887
  Pt      2.935867     -2.627454     -0.293799
  O       0.023344     -0.185198      1.163412
  O       1.730579     -1.341970     -1.641411
  P       1.284123      0.649177      1.064712
  P       0.786022     -2.068755     -2.647766
  O       0.695313     -3.635723     -2.234429
  O       1.344869     -1.995644     -4.166234
  O       1.670858      1.092725     -0.466794
  O       2.628822     -0.069357      1.678854
  C       1.250626      2.256836      1.971977
  C      -0.911023     -1.382374     -2.766283
  C      -1.665503     -2.148910     -3.873313
  C      -0.791710      0.117855     -3.112812
  C      -1.595316     -1.572867     -1.396488
  C       0.077935      3.075761      1.394140
  C       0.993309      1.930239      3.457444
  C       2.583774      3.005127      1.793651
  H       1.376473     -3.770626     -1.495642
  H       1.683397      0.269401     -1.033818
  H      -1.195378     -2.012000     -4.866272
  H      -2.705043     -1.764184     -3.923235
  H      -1.716584     -3.234310     -3.655239
  H      -0.269231      0.280580     -4.076241
  H      -0.264892      0.682923     -2.318828
  H      -1.813584      0.540590     -3.203907
  H      -1.698542     -2.646376     -1.143826
  H      -2.615354     -1.139736     -1.455903
  H      -1.053476     -1.063320     -0.571501
  H      -0.875667      2.517326      1.474833
  H       0.244608      3.323029      0.327032
  H      -0.025052      4.026423      1.958374
  H       0.067447      1.333791      3.578741
  H       0.881009      2.872830      4.033836
  H       1.832864      1.354216      3.894943
  H       2.783043      3.222351      0.725937
  H       3.432968      2.413484      2.188060
  H       2.545619      3.969568      2.343458
  Si      2.161778     -3.872125      1.516619
  C       2.497142     -5.731533      1.291802
  C       2.939983     -3.298331      3.150345
  C       0.287551     -3.577779      1.580336
  H       3.582195     -5.958449      1.313513
  H       2.088895     -6.113763      0.334074
  H       2.010295     -6.296317      2.115737
  H       2.795405     -2.209474      3.299905
  H       4.027302     -3.511826      3.183267
  H       2.454782     -3.829769      3.997062
  H       0.054467     -2.495261      1.663422
  H      -0.127830     -4.106788      2.465758
  H      -0.217683     -3.976475      0.676855
  H       4.077036     -3.434751      0.383289
  C       3.873773     -3.839883     -4.293025
  C       4.426019     -2.603947     -4.248961
  H       3.693761     -4.435283     -3.379379
  H       3.577838     -4.314921     -5.246360
  Si      4.823113     -1.493691     -5.742377
  H       4.698282     -2.219089     -3.243752
  C       4.103744     -2.282343     -7.306193
  C       6.706463     -1.336310     -5.871809
  C       4.047863      0.206624     -5.431193
  H       4.538711     -3.284922     -7.497333
  H       4.319726     -1.651813     -8.193595
  H       3.001975     -2.392850     -7.236479
  H       7.181503     -2.323915     -6.041919
  H       7.137666     -0.906338     -4.944710
  H       6.985640     -0.670336     -6.714917
  H       2.948956      0.128334     -5.304237
  H       4.249914      0.894571     -6.278318
  H       4.460845      0.671718     -4.512007
  H       2.268141     -2.374123     -4.227804
  H       2.782544     -0.951018      1.218810
71
Coordinates from ORCA-job my_molecule E -2465.734313575795
  Pt      2.934195     -2.630077     -0.293992
  O       0.022153     -0.184870      1.165030
  O       1.730185     -1.343409     -1.642207
  P       1.283451      0.648720      1.064078
  P       0.785688     -2.070267     -2.648470
  O       0.693934     -3.636885     -2.234103
  O       1.345500     -1.996913     -4.166727
  O       1.668248      1.091153     -0.468302
  O       2.628882     -0.070295      1.676728
  C       1.251702      2.256880      1.970328
  C      -0.910893     -1.382469     -2.767610
  C      -1.666033     -2.148874     -3.874157
  C      -0.790671      0.117565     -3.114185
  C      -1.595536     -1.571530     -1.397364
  C       0.079333      3.076131      1.392976
  C       0.995163      1.931575      3.456146
  C       2.585075      3.004614      1.790489
  H       1.376345     -3.772469     -1.496480
  H       1.680474      0.267455     -1.034802
  H      -1.197264     -2.011293     -4.867728
  H      -2.705693     -1.764012     -3.922667
  H      -1.717073     -3.234475     -3.656480
  H      -0.266830      0.280744     -4.076966
  H      -0.265556      0.682205     -2.318773
  H      -1.812527      0.539643     -3.206673
  H      -1.700703     -2.644726     -1.144046
  H      -2.614734     -1.136468     -1.457365
  H      -1.053450     -1.062273     -0.572213
  H      -0.874872      2.518695      1.475551
  H       0.244884      3.322931      0.325541
  H      -0.022021      4.027300      1.956771
  H       0.068967      1.335930      3.578998
  H       0.884434      2.874835      4.031863
  H       1.834932      1.355632      3.893309
  H       2.783365      3.221520      0.722557
  H       3.434339      2.412680      2.184088
  H       2.548047      3.969244      2.340210
  Si      2.160665     -3.873667      1.517428
  C       2.498299     -5.732705      1.293946
  C       2.938207     -3.297539      3.150651
  C       0.286069     -3.579974      1.579900
  H       3.583754     -5.957805      1.315481
  H       2.090602     -6.116514      0.336635
  H       2.012402     -6.297840      2.118253
  H       2.794284     -2.208378      3.297893
  H       4.025445     -3.511306      3.183967
  H       2.452756     -3.827204      3.998226
  H       0.052921     -2.497415      1.662244
  H      -0.129427     -4.108279      2.466150
  H      -0.218856     -3.978924      0.676457
  H       4.075126     -3.438031      0.382924
  C       3.877738     -3.842213     -4.293442
  C       4.428565     -2.605544     -4.247446
  H       3.698246     -4.439807     -3.381102
  H       3.583142     -4.315749     -5.247434
  Si      4.822801     -1.492379     -5.739575
  H       4.700461     -2.222105     -3.241426
  C       4.101428     -2.278932     -7.303574
  C       6.705732     -1.333359     -5.872737
  C       4.046535      0.206471     -5.424185
  H       4.535981     -3.281416     -7.496409
  H       4.316564     -1.647430     -8.190234
  H       2.999556     -2.389809     -7.233270
  H       7.181324     -2.320290     -6.044894
  H       7.138994     -0.903740     -4.946256
  H       6.982148     -0.666920     -6.716138
  H       2.948143      0.126882     -5.294413
  H       4.245616      0.895233     -6.271100
  H       4.461145      0.671174     -4.505553
  H       2.269128     -2.374038     -4.228180
  H       2.783376     -0.951341      1.215949
71
Coordinates from ORCA-job my_molecule E -2465.734315826194
  Pt      2.933256     -2.630536     -0.294200
  O       0.022554     -0.185110      1.165741
  O       1.729001     -1.344562     -1.642292
  P       1.283722      0.648400      1.063774
  P       0.784966     -2.071513     -2.648780
  O       0.692439     -3.637697     -2.233746
  O       1.345284     -1.998965     -4.166900
  O       1.667571      1.090580     -0.468730
  O       2.629461     -0.070529      1.675771
  C       1.252866      2.256880      1.970004
  C      -0.911338     -1.383463     -2.768556
  C      -1.666368     -2.150255     -3.874864
  C      -0.791224      0.116464     -3.115884
  C      -1.596183     -1.571587     -1.398321
  C       0.080452      3.076624      1.393010
  C       0.996491      1.931448      3.455822
  C       2.586477      3.004288      1.790071
  H       1.374825     -3.773288     -1.496118
  H       1.678633      0.266776     -1.034929
  H      -1.197382     -2.012862     -4.868415
  H      -2.705973     -1.765317     -3.923652
  H      -1.717263     -3.235836     -3.656518
  H      -0.266632      0.279397     -4.078374
  H      -0.266920      0.681488     -2.320258
  H      -1.813211      0.538121     -3.209194
  H      -1.702070     -2.644666     -1.144331
  H      -2.615064     -1.135779     -1.458508
  H      -1.053759     -1.062568     -0.573307
  H      -0.873938      2.519482      1.475777
  H       0.245887      3.323274      0.325434
  H      -0.020329      4.027823      1.956839
  H       0.069724      1.336333      3.578738
  H       0.886759      2.874419      4.031633
  H       1.835947      1.355038      3.892337
  H       2.784768      3.221452      0.722090
  H       3.435601      2.412034      2.183369
  H       2.549709      3.968802      2.340046
  Si      2.160034     -3.873481      1.517865
  C       2.498236     -5.732317      1.294821
  C       2.937226     -3.296564      3.150840
  C       0.285636     -3.579929      1.581177
  H       3.583844     -5.956832      1.316616
  H       2.090831     -6.116584      0.337583
  H       2.012342     -6.297641      2.119198
  H       2.793220     -2.207255      3.297189
  H       4.024504     -3.510207      3.184582
  H       2.451607     -3.825430      3.998875
  H       0.052486     -2.497253      1.662841
  H      -0.128980     -4.107462      2.468205
  H      -0.220049     -3.980030      0.678784
  H       4.074414     -3.438426      0.383030
  C       3.878714     -3.842419     -4.294375
  C       4.429051     -2.605741     -4.247461
  H       3.699651     -4.440716     -3.382340
  H       3.584404     -4.315503     -5.248709
  Si      4.822876     -1.491274     -5.738779
  H       4.700696     -2.222944     -3.241357
  C       4.100869     -2.276297     -7.303311
  C       6.705916     -1.332597     -5.872611
  C       4.046817      0.207280     -5.421766
  H       4.535744     -3.278329     -7.497600
  H       4.315208     -1.643670     -8.189474
  H       2.999169     -2.387454     -7.232040
  H       7.181209     -2.319618     -6.045724
  H       7.139939     -0.903333     -4.946423
  H       6.982116     -0.665983     -6.715790
  H       2.948322      0.127276     -5.291722
  H       4.245462      0.896786     -6.268332
  H       4.461719      0.671266     -4.503261
  H       2.268541     -2.376961     -4.227629
  H       2.783799     -0.951703      1.214609
71
Coordinates from ORCA-job my_molecule E -2465.734318841739
  Pt      2.932197     -2.631803     -0.294089
  O       0.022431     -0.184390      1.165994
  O       1.727750     -1.346774     -1.641982
  P       1.284138      0.648183      1.062549
  P       0.784812     -2.074395     -2.648930
  O       0.692004     -3.640032     -2.233327
  O       1.345710     -2.002205     -4.166674
  O       1.667935      1.088174     -0.470521
  O       2.629586     -0.071268      1.674774
  C       1.255652      2.257433      1.967672
  C      -0.911494     -1.386958     -2.769698
  C      -1.665992     -2.155672     -3.875136
  C      -0.792002      0.112597     -3.119089
  C      -1.595881     -1.573009     -1.398914
  C       0.084025      3.078449      1.390779
  C       0.999255      1.933047      3.453791
  C       2.590443      3.002721      1.787376
  H       1.374898     -3.775670     -1.495776
  H       1.677545      0.263553     -1.035364
  H      -1.196512     -2.019060     -4.868474
  H      -2.705725     -1.771167     -3.924664
  H      -1.716010     -3.240940     -3.655082
  H      -0.266806      0.274556     -4.081424
  H      -0.268288      0.678609     -2.323519
  H      -1.814176      0.533263     -3.213044
  H      -1.702138     -2.645549     -1.143197
  H      -2.614706     -1.137033     -1.459324
  H      -1.053070     -1.062976     -0.574342
  H      -0.871194      2.522590      1.474118
  H       0.249771      3.323715      0.322892
  H      -0.014935      4.030403      1.953782
  H       0.071150      1.339855      3.577213
  H       0.891548      2.876650      4.028926
  H       1.837616      1.355257      3.890265
  H       2.789165      3.219459      0.719430
  H       3.438517      2.408935      2.180411
  H       2.555369      3.967295      2.337277
  Si      2.158035     -3.873308      1.518780
  C       2.496559     -5.732100      1.296631
  C       2.933729     -3.295697      3.152154
  C       0.283481     -3.579578      1.582183
  H       3.582300     -5.955910      1.319624
  H       2.089914     -6.116866      0.339256
  H       2.010229     -6.297611      2.120753
  H       2.789521     -2.206452      3.297734
  H       4.021131     -3.509223      3.187489
  H       2.447120     -3.823705      4.000239
  H       0.050036     -2.496861      1.662356
  H      -0.130360     -4.105757      2.470369
  H      -0.223156     -3.981794      0.681395
  H       4.073759     -3.439348      0.383297
  C       3.879439     -3.842222     -4.296685
  C       4.429578     -2.605572     -4.247463
  H       3.701738     -4.441988     -3.385368
  H       3.584586     -4.313920     -5.251704
  Si      4.822284     -1.487738     -5.736636
  H       4.701854     -2.224836     -3.240839
  C       4.097942     -2.268474     -7.302373
  C       6.705155     -1.329936     -5.872490
  C       4.047133      0.210180     -5.414437
  H       4.532327     -3.270177     -7.500138
  H       4.311214     -1.633026     -8.186693
  H       2.996301     -2.379249     -7.229353
  H       7.179659     -2.316636     -6.048588
  H       7.140720     -0.902506     -4.946220
  H       6.980610     -0.661602     -6.714842
  H       2.948793      0.129484     -5.282746
  H       4.244089      0.901542     -6.259947
  H       4.463849      0.672094     -4.495826
  H       2.268749     -2.380762     -4.226960
  H       2.783402     -0.953042      1.214460
71
Coordinates from ORCA-job my_molecule E -2465.734321137109
  Pt      2.931359     -2.633914     -0.293882
  O       0.022545     -0.184136      1.166154
  O       1.727077     -1.349229     -1.642364
  P       1.284467      0.647905      1.061512
  P       0.784807     -2.076808     -2.649858
  O       0.691029     -3.642277     -2.233528
  O       1.346652     -2.005245     -4.167326
  O       1.668115      1.086629     -0.472031
  O       2.630006     -0.071753      1.673471
  C       1.257572      2.257771      1.965792
  C      -0.911458     -1.389310     -2.771332
  C      -1.665975     -2.159857     -3.875610
  C      -0.791975      0.109956     -3.122959
  C      -1.595609     -1.573649     -1.400199
  C       0.086172      3.079599      1.389427
  C       1.001638      1.934377      3.452269
  C       2.593041      3.001521      1.784655
  H       1.375448     -3.777982     -1.497423
  H       1.676599      0.261634     -1.036311
  H      -1.196357     -2.024305     -4.868860
  H      -2.705914     -1.776000     -3.925592
  H      -1.715264     -3.244712     -3.653806
  H      -0.265429      0.270639     -4.084832
  H      -0.269196      0.677129     -2.327653
  H      -1.814345      0.530210     -3.218332
  H      -1.702699     -2.645957     -1.143324
  H      -2.614193     -1.137041     -1.460515
  H      -1.052032     -1.063559     -0.576213
  H      -0.869593      2.524652      1.473663
  H       0.251730      3.323580      0.321164
  H      -0.011372      4.032089      1.951647
  H       0.072573      1.342754      3.576280
  H       0.895462      2.878521      4.026569
  H       1.839243      1.355509      3.888774
  H       2.791627      3.217998      0.716580
  H       3.440629      2.406529      2.177265
  H       2.559121      3.966237      2.334625
  Si      2.156399     -3.873264      1.520276
  C       2.495030     -5.732175      1.299826
  C       2.931545     -3.294096      3.153256
  C       0.281793     -3.579246      1.583435
  H       3.580907     -5.955200      1.324072
  H       2.089244     -6.117873      0.342400
  H       2.008466     -6.297444      2.123880
  H       2.788250     -2.204191      3.296934
  H       4.018635     -3.508578      3.189894
  H       2.443852     -3.820088      4.001873
  H       0.047831     -2.496514      1.661583
  H      -0.131538     -4.103723      2.472873
  H      -0.225447     -3.983982      0.684109
  H       4.072759     -3.441487      0.383650
  C       3.881434     -3.843617     -4.299515
  C       4.431009     -2.606876     -4.247622
  H       3.705171     -4.445685     -3.389432
  H       3.586291     -4.313288     -5.255494
  Si      4.821685     -1.484861     -5.734175
  H       4.703946     -2.228531     -3.240256
  C       4.093659     -2.260268     -7.301101
  C       6.704320     -1.328226     -5.873362
  C       4.047966      0.212331     -5.405131
  H       4.527521     -3.261282     -7.503418
  H       4.304853     -1.621640     -8.183540
  H       2.992283     -2.370619     -7.225416
  H       7.177614     -2.314845     -6.053188
  H       7.142460     -0.903010     -4.947203
  H       6.978311     -0.658206     -6.714707
  H       2.949915      0.131016     -5.271176
  H       4.242571      0.906038     -6.249236
  H       4.467176      0.671431     -4.486146
  H       2.269279     -2.384581     -4.227171
  H       2.783619     -0.953671      1.213422
71
Coordinates from ORCA-job my_molecule E -2465.734324008889
  Pt      2.930607     -2.636806     -0.293524
  O       0.021441     -0.182359      1.165091
  O       1.726726     -1.351922     -1.642429
  P       1.284485      0.647826      1.059595
  P       0.785009     -2.080325     -2.650107
  O       0.690729     -3.645441     -2.232766
  O       1.347966     -2.009331     -4.167232
  O       1.668907      1.084684     -0.474391
  O       2.628926     -0.073303      1.672314
  C       1.260074      2.258338      1.962512
  C      -0.911374     -1.393389     -2.773393
  C      -1.665154     -2.166826     -3.875974
  C      -0.792126      0.105040     -3.128344
  C      -1.595020     -1.574906     -1.401862
  C       0.089857      3.081679      1.385978
  C       1.004172      1.936398      3.449495
  C       2.596792      2.999580      1.780602
  H       1.376124     -3.781204     -1.497216
  H       1.675801      0.259145     -1.038064
  H      -1.195527     -2.032443     -4.869471
  H      -2.705473     -1.784393     -3.926668
  H      -1.712636     -3.251359     -3.652068
  H      -0.264175      0.263565     -4.089775
  H      -0.270575      0.674132     -2.333477
  H      -1.814344      0.524828     -3.226065
  H      -1.702783     -2.646576     -1.142907
  H      -2.613374     -1.137824     -1.462622
  H      -1.050743     -1.063894     -0.579034
  H      -0.866789      2.528422      1.471140
  H       0.255450      3.323742      0.317365
  H      -0.005612      4.035051      1.947022
  H       0.073655      1.347289      3.574240
  H       0.900269      2.881478      4.022847
  H       1.840225      1.355575      3.886379
  H       2.795398      3.215889      0.712545
  H       3.443203      2.402594      2.172519
  H       2.565141      3.964102      2.330919
  Si      2.154469     -3.873030      1.521991
  C       2.492154     -5.732584      1.304015
  C       2.929616     -3.292822      3.154531
  C       0.279909     -3.577861      1.584947
  H       3.578032     -5.955220      1.329579
  H       2.087152     -6.119151      0.346654
  H       2.005263     -6.297157      2.128255
  H       2.787796     -2.202706      3.296635
  H       4.016250     -3.508918      3.192717
  H       2.440228     -3.816759      4.003364
  H       0.046038     -2.495036      1.661050
  H      -0.133308     -4.100446      2.475458
  H      -0.227950     -3.984309      0.686711
  H       4.071518     -3.445123      0.383949
  C       3.883410     -3.845328     -4.303587
  C       4.432549     -2.608492     -4.247470
  H       3.709052     -4.451053     -3.395586
  H       3.587214     -4.311545     -5.260895
  Si      4.820540     -1.480412     -5.730281
  H       4.706606     -2.233879     -3.239086
  C       4.086515     -2.247930     -7.298158
  C       6.702896     -1.325881     -5.874933
  C       4.049874      0.216262     -5.391215
  H       4.518243     -3.248586     -7.506379
  H       4.295879     -1.604983     -8.177948
  H       2.985062     -2.356726     -7.219218
  H       7.174099     -2.312492     -6.060234
  H       7.144718     -0.904608     -4.948827
  H       6.974757     -0.652761     -6.714795
  H       2.952370      0.134743     -5.252953
  H       4.240977      0.913351     -6.233323
  H       4.473318      0.671310     -4.472076
  H       2.270729     -2.388575     -4.226458
  H       2.783079     -0.955099      1.212480
71
Coordinates from ORCA-job my_molecule E -2465.734327125951
  Pt      2.930093     -2.639934     -0.293172
  O       0.020917     -0.181285      1.163463
  O       1.726997     -1.354511     -1.642968
  P       1.284628      0.647839      1.057664
  P       0.785057     -2.083492     -2.650055
  O       0.690017     -3.648230     -2.231327
  O       1.348647     -2.013773     -4.167034
  O       1.669949      1.082483     -0.476928
  O       2.628443     -0.073708      1.671552
  C       1.261331      2.258929      1.959046
  C      -0.911128     -1.396123     -2.774628
  C      -1.665403     -2.171647     -3.875400
  C      -0.790949      0.101502     -3.132641
  C      -1.594409     -1.574995     -1.402672
  C       0.091938      3.082786      1.381842
  C       1.005489      1.938559      3.446443
  C       2.598847      2.998542      1.776517
  H       1.376339     -3.783995     -1.496567
  H       1.676222      0.256171     -1.039846
  H      -1.196230     -2.039340     -4.869383
  H      -2.705855     -1.789743     -3.926462
  H      -1.712337     -3.255620     -3.649504
  H      -0.261683      0.257448     -4.093744
  H      -0.269928      0.672194     -2.338650
  H      -1.812762      0.522036     -3.232694
  H      -1.703489     -2.646252     -1.142558
  H      -2.612272     -1.136762     -1.463365
  H      -1.048623     -1.064020     -0.580941
  H      -0.865326      2.530778      1.467908
  H       0.257571      3.322893      0.313043
  H      -0.002317      4.037107      1.941591
  H       0.073918      1.351505      3.571829
  H       0.903133      2.884459      4.019007
  H       1.840332      1.356224      3.883982
  H       2.797429      3.214428      0.708319
  H       3.444537      2.400494      2.168359
  H       2.568432      3.963046      2.327119
  Si      2.153135     -3.873347      1.523506
  C       2.490130     -5.733606      1.308556
  C       2.928871     -3.291457      3.155258
  C       0.278530     -3.577549      1.586135
  H       3.576116     -5.955665      1.335236
  H       2.086015     -6.121224      0.351253
  H       2.003151     -6.297280      2.133234
  H       2.788704     -2.200913      3.295480
  H       4.014977     -3.509511      3.194749
  H       2.437844     -3.813137      4.004468
  H       0.044642     -2.494554      1.659676
  H      -0.134639     -4.097870      2.478202
  H      -0.229725     -3.985996      0.688886
  H       4.070187     -3.448925      0.384375
  C       3.886013     -3.848294     -4.308593
  C       4.434381     -2.611346     -4.248195
  H       3.713888     -4.458050     -3.402938
  H       3.588844     -4.310763     -5.267416
  Si      4.819697     -1.476706     -5.726661
  H       4.709556     -2.240731     -3.238520
  C       4.079332     -2.235319     -7.295831
  C       6.701905     -1.324668     -5.876660
  C       4.052470      0.219335     -5.376992
  H       4.508890     -3.235402     -7.511039
  H       4.286521     -1.587599     -8.172553
  H       2.978013     -2.342758     -7.213692
  H       7.170794     -2.311288     -6.067642
  H       7.147470     -0.908013     -4.950186
  H       6.971754     -0.648373     -6.714502
  H       2.955395      0.137684     -5.235043
  H       4.240761      0.920469     -6.216394
  H       4.479591      0.669458     -4.457167
  H       2.271170     -2.393768     -4.226259
  H       2.782378     -0.955577      1.212208
71
Coordinates from ORCA-job my_molecule E -2465.734330618228
  Pt      2.930902     -2.644594     -0.291318
  O       0.021100     -0.180874      1.162228
  O       1.728626     -1.359448     -1.642529
  P       1.285463      0.647187      1.055156
  P       0.786811     -2.088192     -2.650001
  O       0.690683     -3.653242     -2.230560
  O       1.352061     -2.018858     -4.166664
  O       1.670658      1.079685     -0.480079
  O       2.628446     -0.074723      1.670536
  C       1.263031      2.259983      1.953451
  C      -0.908735     -1.400049     -2.776417
  C      -1.663155     -2.178233     -3.874889
  C      -0.787154      0.096406     -3.138354
  C      -1.591797     -1.575318     -1.403762
  C       0.094462      3.083510      1.374345
  C       1.007001      1.942455      3.441577
  C       2.601120      2.998339      1.769177
  H       1.377067     -3.788833     -1.495950
  H       1.675909      0.253010     -1.042542
  H      -1.194602     -2.048004     -4.869665
  H      -2.703990     -1.797679     -3.926371
  H      -1.708859     -3.262052     -3.646945
  H      -0.256332      0.248896     -4.099289
  H      -0.266905      0.669529     -2.345656
  H      -1.808255      0.517987     -3.241754
  H      -1.702594     -2.646050     -1.142163
  H      -2.608632     -1.135303     -1.464634
  H      -1.044756     -1.064247     -0.583052
  H      -0.863163      2.532617      1.462049
  H       0.260107      3.320480      0.304699
  H       0.000830      4.039164      1.931550
  H       0.074087      1.357980      3.568473
  H       0.906900      2.889418      4.013013
  H       1.840285      1.358457      3.879814
  H       2.799432      3.213499      0.700842
  H       3.446191      2.399647      2.161363
  H       2.571901      3.962606      2.319757
  Si      2.151197     -3.874293      1.526499
  C       2.486020     -5.735714      1.315652
  C       2.927431     -3.290864      3.157747
  C       0.276626     -3.576927      1.588154
  H       3.571811     -5.958323      1.344186
  H       2.083403     -6.124577      0.358308
  H       1.997838     -6.297300      2.140947
  H       2.789613     -2.199714      3.296359
  H       4.012632     -3.511933      3.198878
  H       2.433848     -3.810259      4.006720
  H       0.043632     -2.493772      1.659346
  H      -0.136760     -4.094933      2.480868
  H      -0.231436     -3.986385      0.691081
  H       4.069730     -3.454556      0.387012
  C       3.887818     -3.852510     -4.316511
  C       4.435274     -2.615327     -4.249328
  H       3.719358     -4.468844     -3.414523
  H       3.588648     -4.308752     -5.277526
  Si      4.816818     -1.471106     -5.721603
  H       4.712454     -2.250488     -3.238017
  C       4.067097     -2.216197     -7.292719
  C       6.698729     -1.323281     -5.878798
  C       4.055186      0.224315     -5.356197
  H       4.493403     -3.215134     -7.518551
  H       4.270937     -1.561323     -8.165092
  H       2.965961     -2.321883     -7.205950
  H       7.163935     -2.310016     -6.077892
  H       7.149278     -0.914174     -4.951417
  H       6.966354     -0.642014     -6.713403
  H       2.959152      0.142943     -5.207644
  H       4.238745      0.930986     -6.191676
  H       4.488435      0.667492     -4.435610
  H       2.274343     -2.400066     -4.225641
  H       2.782656     -0.956978      1.212995
71
Coordinates from ORCA-job my_molecule E -2465.734334623997
  Pt      2.931228     -2.646525     -0.291415
  O       0.021034     -0.180364      1.160108
  O       1.729752     -1.361404     -1.643909
  P       1.285930      0.647136      1.053279
  P       0.786511     -2.091050     -2.649264
  O       0.689326     -3.655150     -2.227749
  O       1.351235     -2.024054     -4.166122
  O       1.672557      1.077445     -0.482310
  O       2.628349     -0.074401      1.670431
  C       1.263468      2.260651      1.949873
  C      -0.908789     -1.402051     -2.776384
  C      -1.664300     -2.180909     -3.873592
  C      -0.785866      0.093658     -3.140434
  C      -1.591898     -1.575126     -1.403422
  C       0.095950      3.083878      1.368577
  C       1.006466      1.944476      3.437752
  C       2.601785      2.998427      1.765993
  H       1.374744     -3.790321     -1.492315
  H       1.677614      0.249975     -1.043739
  H      -1.196484     -2.052825     -4.868990
  H      -2.704963     -1.799838     -3.924949
  H      -1.710730     -3.264252     -3.644394
  H      -0.254354      0.243959     -4.101325
  H      -0.265577      0.667762     -2.348596
  H      -1.806337      0.516452     -3.245754
  H      -1.704422     -2.645568     -1.141458
  H      -2.607982     -1.133198     -1.463835
  H      -1.042859     -1.064654     -0.583659
  H      -0.862065      2.533724      1.456183
  H       0.262662      3.319441      0.298934
  H       0.002211      4.040398      1.924400
  H       0.072604      1.361750      3.564638
  H       0.907920      2.891507      4.009261
  H       1.838490      1.359025      3.876451
  H       2.800595      3.213045      0.697714
  H       3.446308      2.399732      2.159239
  H       2.572411      3.962950      2.316655
  Si      2.150939     -3.874822      1.527003
  C       2.484608     -5.736717      1.318291
  C       2.928517     -3.290655      3.157550
  C       0.276412     -3.576521      1.589472
  H       3.570398     -5.959419      1.347194
  H       2.082519     -6.126151      0.360981
  H       1.996160     -6.297245      2.144128
  H       2.792038     -2.199408      3.295429
  H       4.013406     -3.513600      3.199199
  H       2.433725     -3.808877      4.006614
  H       0.044588     -2.492898      1.659005
  H      -0.136841     -4.092825      2.483710
  H      -0.232492     -3.986442      0.693292
  H       4.069098     -3.456705      0.388092
  C       3.890480     -3.856352     -4.321783
  C       4.436411     -2.618704     -4.250579
  H       3.724370     -4.476767     -3.422247
  H       3.590895     -4.309095     -5.284312
  Si      4.816255     -1.468301     -5.718457
  H       4.713841     -2.257376     -3.238073
  C       4.061603     -2.204481     -7.291087
  C       6.698211     -1.322891     -5.879130
  C       4.057660      0.226471     -5.343565
  H       4.485930     -3.202694     -7.523777
  H       4.264058     -1.545411     -8.160489
  H       2.960356     -2.309192     -7.201778
  H       7.161559     -2.309551     -6.083423
  H       7.151139     -0.919098     -4.950624
  H       6.965097     -0.638310     -6.711090
  H       2.961797      0.145126     -5.192576
  H       4.239873      0.937308     -6.175874
  H       4.493198      0.664665     -4.421753
  H       2.272685     -2.407076     -4.225504
  H       2.783292     -0.956438      1.212379
71
Coordinates from ORCA-job my_molecule E -2465.734339547986
  Pt      2.932136     -2.647666     -0.290734
  O       0.021941     -0.180798      1.159251
  O       1.730727     -1.363804     -1.644029
  P       1.286711      0.646814      1.051770
  P       0.787148     -2.093811     -2.648559
  O       0.689460     -3.657558     -2.225873
  O       1.351568     -2.028500     -4.165551
  O       1.673224      1.074970     -0.484280
  O       2.629201     -0.073731      1.670033
  C       1.263635      2.261399      1.946671
  C      -0.907362     -1.403453     -2.776032
  C      -1.664049     -2.182668     -3.872298
  C      -0.782762      0.091652     -3.141901
  C      -1.590733     -1.573979     -1.402652
  C       0.096488      3.083558      1.363039
  C       1.005300      1.946627      3.434459
  C       2.602091      2.999546      1.763436
  H       1.373380     -3.792171     -1.489077
  H       1.678563      0.246647     -1.044352
  H      -1.196959     -2.056073     -4.868293
  H      -2.704498     -1.800804     -3.923132
  H      -1.711474     -3.265763     -3.642204
  H      -0.250993      0.240029     -4.102980
  H      -0.261861      0.666376     -2.350905
  H      -1.802666      0.515638     -3.248335
  H      -1.705300     -2.644083     -1.140257
  H      -2.605821     -1.129841     -1.462802
  H      -1.040202     -1.064199     -0.583171
  H      -0.861618      2.533511      1.450739
  H       0.264117      3.317964      0.293297
  H       0.002100      4.040926      1.917416
  H       0.070591      1.365155      3.561355
  H       0.908044      2.893785      4.006083
  H       1.836577      1.360524      3.873681
  H       2.801583      3.213773      0.695111
  H       3.446535      2.401693      2.157962
  H       2.571860      3.964204      2.313780
  Si      2.151025     -3.875426      1.527673
  C       2.483793     -5.737371      1.320396
  C       2.928610     -3.290399      3.158114
  C       0.276576     -3.576811      1.589533
  H       3.569480     -5.961022      1.349692
  H       2.082047     -6.127335      0.363142
  H       1.994256     -6.296617      2.146557
  H       2.792870     -2.199023      3.295609
  H       4.013354     -3.514485      3.200264
  H       2.432817     -3.808014      4.007121
  H       0.045542     -2.492900      1.658090
  H      -0.137076     -4.092314      2.484138
  H      -0.231923     -3.987149      0.693356
  H       4.069470     -3.457795      0.390060
  C       3.892004     -3.860432     -4.327334
  C       4.436040     -2.622332     -4.252096
  H       3.728482     -4.484856     -3.430141
  H       3.592093     -4.309885     -5.291336
  Si      4.814400     -1.466242     -5.715859
  H       4.713728     -2.264276     -3.238493
  C       4.055977     -2.193875     -7.290742
  C       6.696386     -1.323065     -5.878437
  C       4.058572      0.227762     -5.332744
  H       4.478943     -3.191202     -7.530141
  H       4.256931     -1.530424     -8.157177
  H       2.955070     -2.298652     -7.199674
  H       7.158071     -2.309545     -6.087189
  H       7.151035     -0.924188     -4.948548
  H       6.963678     -0.635694     -6.707695
  H       2.962881      0.146622     -5.179796
  H       4.240082      0.942073     -6.162221
  H       4.496079      0.661753     -4.410124
  H       2.272263     -2.413420     -4.225082
  H       2.784073     -0.956101      1.212507
71
Coordinates from ORCA-job my_molecule E -2465.734347181599
  Pt      2.934318     -2.650308     -0.289240
  O       0.023264     -0.180828      1.157577
  O       1.733756     -1.369223     -1.645266
  P       1.288397      0.646072      1.048008
  P       0.789346     -2.100199     -2.648050
  O       0.690891     -3.663079     -2.223014
  O       1.352800     -2.037996     -4.165358
  O       1.674800      1.071258     -0.488662
  O       2.630758     -0.073448      1.667345
  C       1.265620      2.262710      1.939922
  C      -0.904570     -1.408766     -2.776068
  C      -1.662379     -2.189678     -3.870447
  C      -0.778585      0.085305     -3.145769
  C      -1.588058     -1.574688     -1.401937
  C       0.099410      3.083920      1.352836
  C       1.005228      1.950486      3.427525
  C       2.604238      3.000640      1.756941
  H       1.371753     -3.796143     -1.483494
  H       1.681178      0.241722     -1.046510
  H      -1.196241     -2.065056     -4.867079
  H      -2.702768     -1.807491     -3.920669
  H      -1.710551     -3.272383     -3.638280
  H      -0.246419      0.230911     -4.107238
  H      -0.257259      0.661455     -2.356185
  H      -1.798151      0.509914     -3.253806
  H      -1.705467     -2.643970     -1.137365
  H      -2.601729     -1.127272     -1.461984
  H      -1.035505     -1.064643     -0.583689
  H      -0.858954      2.534369      1.440973
  H       0.268495      3.316266      0.282653
  H       0.004592      4.042793      1.904439
  H       0.068854      1.371613      3.554781
  H       0.911280      2.897865      3.999153
  H       1.834994      1.362796      3.867075
  H       2.804331      3.214171      0.688706
  H       3.448486      2.403377      2.152904
  H       2.573425      3.965887      2.306251
  Si      2.149924     -3.875811      1.529889
  C       2.479903     -5.737989      1.325717
  C       2.926550     -3.289356      3.160509
  C       0.275647     -3.575055      1.589562
  H       3.565055     -5.964448      1.356403
  H       2.078541     -6.129206      0.368783
  H       1.987355     -6.294111      2.152470
  H       2.792516     -2.197552      3.297062
  H       4.010910     -3.515734      3.204086
  H       2.428577     -3.805542      4.009335
  H       0.046610     -2.490662      1.657161
  H      -0.139782     -4.089746      2.483779
  H      -0.231846     -3.985213      0.692921
  H       4.070214     -3.460075      0.394595
  C       3.895128     -3.867651     -4.338450
  C       4.436066     -2.628727     -4.254551
  H       3.736628     -4.500614     -3.446272
  H       3.593730     -4.309796     -5.305438
  Si      4.810558     -1.460579     -5.709929
  H       4.715025     -2.277842     -3.238856
  C       4.042921     -2.170208     -7.288532
  C       6.692383     -1.322380     -5.878155
  C       4.061189      0.232033     -5.308199
  H       4.462116     -3.165894     -7.541110
  H       4.241160     -1.498617     -8.149287
  H       2.942221     -2.273868     -7.192678
  H       7.150350     -2.308437     -6.096964
  H       7.151251     -0.933850     -4.945961
  H       6.960302     -0.628908     -6.702020
  H       2.966087      0.152172     -5.150327
  H       4.240654      0.953393     -6.131961
  H       4.504083      0.656969     -4.383968
  H       2.272394     -2.425387     -4.225155
  H       2.786311     -0.956417      1.210650
71
Coordinates from ORCA-job my_molecule E -2465.734355166577
  Pt      2.935704     -2.654092     -0.287183
  O       0.024501     -0.180353      1.156403
  O       1.735966     -1.375937     -1.646062
  P       1.290103      0.645309      1.043614
  P       0.791780     -2.108261     -2.648086
  O       0.692651     -3.670451     -2.220424
  O       1.354966     -2.049641     -4.165606
  O       1.675979      1.066348     -0.494149
  O       2.632305     -0.073616      1.663812
  C       1.268652      2.264379      1.931600
  C      -0.901288     -1.415436     -2.777326
  C      -1.660347     -2.199088     -3.869024
  C      -0.773642      0.077304     -3.152317
  C      -1.584354     -1.575474     -1.402317
  C       0.103284      3.084936      1.341535
  C       1.006772      1.956108      3.419687
  C       2.608000      3.001098      1.748006
  H       1.371372     -3.801819     -1.478642
  H       1.683623      0.235499     -1.049608
  H      -1.195606     -2.076208     -4.866506
  H      -2.700853     -1.817104     -3.918191
  H      -1.708237     -3.281274     -3.634302
  H      -0.240517      0.219083     -4.113749
  H      -0.251984      0.655468     -2.364258
  H      -1.792640      0.502421     -3.262520
  H      -1.705084     -2.643666     -1.134839
  H      -2.596495     -1.124614     -1.462431
  H      -1.029659     -1.065253     -0.585486
  H      -0.855714      2.536600      1.431088
  H       0.272977      3.313999      0.270667
  H       0.009381      4.045756      1.889763
  H       0.068355      1.380671      3.547995
  H       0.916657      2.904757      3.989840
  H       1.834829      1.366826      3.860357
  H       2.808194      3.213202      0.679362
  H       3.452094      2.404077      2.144730
  H       2.577601      3.967346      2.295502
  Si      2.148218     -3.876109      1.533059
  C       2.475227     -5.738705      1.332018
  C       2.923565     -3.288100      3.163646
  C       0.274398     -3.573001      1.589187
  H       3.559703     -5.968285      1.364578
  H       2.073963     -6.131137      0.375458
  H       1.979492     -6.291702      2.158931
  H       2.791998     -2.195813      3.298427
  H       4.007445     -3.517018      3.209081
  H       2.423238     -3.801844      4.012632
  H       0.046641     -2.488237      1.655699
  H      -0.143896     -4.087018      2.482392
  H      -0.231212     -3.983498      0.691679
  H       4.070250     -3.463809      0.399322
  C       3.899384     -3.876257     -4.351298
  C       4.436450     -2.636487     -4.256473
  H       3.746469     -4.519486     -3.465600
  H       3.596594     -4.309579     -5.321832
  Si      4.805345     -1.453331     -5.701214
  H       4.717023     -2.294756     -3.238093
  C       4.026167     -2.141607     -7.283656
  C       6.686594     -1.320021     -5.877618
  C       4.063749      0.236894     -5.276534
  H       4.441015     -3.135141     -7.551766
  H       4.220509     -1.459950     -8.137425
  H       2.925996     -2.244067     -7.181714
  H       7.140114     -2.305310     -6.109063
  H       7.151245     -0.943279     -4.943391
  H       6.954111     -0.619073     -6.695296
  H       2.969522      0.158336     -5.112228
  H       4.239980      0.966499     -6.093775
  H       4.513971      0.651161     -4.350987
  H       2.273837     -2.438560     -4.225386
  H       2.787880     -0.957362      1.208397
71
Coordinates from ORCA-job my_molecule E -2465.734368962648
  Pt      2.938625     -2.664389     -0.283809
  O       0.025937     -0.177930      1.151973
  O       1.742070     -1.391253     -1.649913
  P       1.293529      0.643632      1.031997
  P       0.796688     -2.127198     -2.648412
  O       0.695119     -3.687109     -2.213802
  O       1.358506     -2.077584     -4.166582
  O       1.677490      1.056947     -0.508148
  O       2.635077     -0.075520      1.652627
  C       1.277294      2.267245      1.912273
  C      -0.895285     -1.432133     -2.780540
  C      -1.656898     -2.222475     -3.865870
  C      -0.765171      0.057933     -3.166827
  C      -1.576905     -1.580117     -1.403793
  C       0.114325      3.088432      1.317924
  C       1.013722      1.967460      3.401982
  C       2.618481      2.999549      1.725415
  H       1.371162     -3.815756     -1.469172
  H       1.688843      0.222554     -1.058184
  H      -1.194779     -2.103759     -4.865001
  H      -2.697707     -1.841363     -3.913828
  H      -1.703902     -3.303398     -3.625021
  H      -0.229617      0.192248     -4.128030
  H      -0.244250      0.640744     -2.381822
  H      -1.783858      0.482979     -3.281563
  H      -1.703643     -2.645666     -1.128875
  H      -2.586381     -1.123160     -1.464781
  H      -1.017936     -1.068108     -0.591097
  H      -0.846400      2.543613      1.411354
  H       0.284242      3.310173      0.245415
  H       0.023984      4.053364      1.859486
  H       0.071461      1.399206      3.533427
  H       0.931336      2.919572      3.968127
  H       1.838284      1.374707      3.845053
  H       2.817512      3.208377      0.655973
  H       3.461972      2.401470      2.122163
  H       2.591309      3.967849      2.268992
  Si      2.142642     -3.876450      1.540143
  C       2.463857     -5.740517      1.347930
  C       2.913857     -3.283522      3.170805
  C       0.269451     -3.567516      1.587097
  H       3.546845     -5.975778      1.385344
  H       2.063177     -6.136530      0.392553
  H       1.961738     -6.286698      2.175691
  H       2.787564     -2.189689      3.299673
  H       3.996290     -3.517611      3.221306
  H       2.408043     -3.790443      4.020808
  H       0.044358     -2.482158      1.651767
  H      -0.155566     -4.080241      2.477700
  H      -0.232410     -3.977779      0.687083
  H       4.069794     -3.474019      0.408526
  C       3.910160     -3.892214     -4.378128
  C       4.440308     -2.651608     -4.259485
  H       3.768641     -4.557205     -3.506698
  H       3.603008     -4.305698     -5.356088
  Si      4.795332     -1.435274     -5.680422
  H       4.725584     -2.330626     -3.235714
  C       3.988140     -2.076921     -7.268470
  C       6.674862     -1.312014     -5.879027
  C       4.071841      0.248683     -5.203750
  H       4.391537     -3.065832     -7.569551
  H       4.174260     -1.374178     -8.106829
  H       2.888968     -2.174996     -7.152136
  H       7.118044     -2.294935     -6.138883
  H       7.154001     -0.960629     -4.942064
  H       6.939171     -0.594830     -6.683669
  H       2.979851      0.173065     -5.024707
  H       4.240247      0.996162     -6.006359
  H       4.538784      0.638712     -4.275961
  H       2.277222     -2.467477     -4.225933
  H       2.790471     -0.961117      1.200429
71
Coordinates from ORCA-job my_molecule E -2465.734380159279
  Pt      2.939559     -2.675149     -0.280139
  O       0.028176     -0.175585      1.149062
  O       1.746265     -1.406043     -1.653788
  P       1.297587      0.641803      1.021295
  P       0.800940     -2.145249     -2.650209
  O       0.697990     -3.703355     -2.209332
  O       1.362339     -2.102921     -4.168815
  O       1.680549      1.045989     -0.521852
  O       2.638367     -0.077477      1.643305
  C       1.286741      2.270438      1.892133
  C      -0.889979     -1.448056     -2.785152
  C      -1.654245     -2.243867     -3.864360
  C      -0.757530      0.039333     -3.181328
  C      -1.569479     -1.585796     -1.406693
  C       0.125823      3.092190      1.293887
  C       1.023257      1.980973      3.383725
  C       2.629953      2.997382      1.699776
  H       1.372244     -3.828912     -1.462565
  H       1.695042      0.209500     -1.068085
  H      -1.195444     -2.128138     -4.865163
  H      -2.695471     -1.863744     -3.910159
  H      -1.699307     -3.323713     -3.618815
  H      -0.220279      0.166659     -4.142308
  H      -0.236470      0.625910     -2.398887
  H      -1.775251      0.464527     -3.299415
  H      -1.701705     -2.649234     -1.125965
  H      -2.576390     -1.123427     -1.467954
  H      -1.006546     -1.073261     -0.597239
  H      -0.837023      2.551844      1.392158
  H       0.294717      3.305224      0.219660
  H       0.040426      4.061274      1.828376
  H       0.077139      1.420138      3.519469
  H       0.948568      2.937207      3.943370
  H       1.844244      1.385508      3.829565
  H       2.827166      3.200380      0.628518
  H       3.473034      2.398792      2.096857
  H       2.606367      3.969181      2.237705
  Si      2.136819     -3.877413      1.546927
  C       2.452801     -5.743231      1.361107
  C       2.904694     -3.281310      3.177330
  C       0.264892     -3.563361      1.586170
  H       3.534411     -5.983569      1.403106
  H       2.052090     -6.141314      0.406482
  H       1.945587     -6.284366      2.188758
  H       2.783169     -2.186570      3.301351
  H       3.986246     -3.519271      3.232149
  H       2.394817     -3.782319      4.028020
  H       0.041314     -2.477454      1.649556
  H      -0.166158     -4.074950      2.474501
  H      -0.233632     -3.973639      0.684343
  H       4.067741     -3.483900      0.417377
  C       3.920460     -3.907287     -4.403134
  C       4.443341     -2.665813     -4.260512
  H       3.789361     -4.592479     -3.546108
  H       3.610362     -4.301955     -5.387826
  Si      4.784336     -1.417333     -5.656949
  H       4.732855     -2.365160     -3.231650
  C       3.951644     -2.015841     -7.248245
  C       6.661615     -1.300489     -5.877153
  C       4.077161      0.258460     -5.130698
  H       4.345363     -2.998569     -7.580008
  H       4.129093     -1.293150     -8.071460
  H       2.853771     -2.111222     -7.117809
  H       7.095698     -2.279895     -6.164396
  H       7.153920     -0.972809     -4.938568
  H       6.921290     -0.566909     -6.668894
  H       2.987433      0.184535     -4.938468
  H       4.237784      1.023154     -5.918877
  H       4.559551      0.625245     -4.201080
  H       2.281149     -2.491612     -4.228766
  H       2.791957     -0.965279      1.194874
71
Coordinates from ORCA-job my_molecule E -2465.734392854608
  Pt      2.940399     -2.675727     -0.280742
  O       0.028556     -0.172981      1.147875
  O       1.747662     -1.408015     -1.657015
  P       1.299164      0.642476      1.018559
  P       0.800655     -2.149724     -2.650143
  O       0.697225     -3.706582     -2.205345
  O       1.360018     -2.112149     -4.169510
  O       1.680690      1.045529     -0.525395
  O       2.639587     -0.077991      1.639771
  C       1.291242      2.271590      1.887944
  C      -0.890634     -1.452786     -2.785558
  C      -1.655471     -2.249933     -3.863377
  C      -0.759230      0.034686     -3.182773
  C      -1.569246     -1.589684     -1.406955
  C       0.131837      3.095263      1.289891
  C       1.028027      1.985434      3.380702
  C       2.635591      2.995602      1.693437
  H       1.373408     -3.831696     -1.460250
  H       1.696497      0.207948     -1.070616
  H      -1.197606     -2.134615     -4.864812
  H      -2.696790     -1.870199     -3.908868
  H      -1.699812     -3.329578     -3.617120
  H      -0.221849      0.161870     -4.143553
  H      -0.239497      0.622403     -2.400374
  H      -1.777720      0.458330     -3.300671
  H      -1.701060     -2.652767     -1.124744
  H      -2.576568     -1.128231     -1.468918
  H      -1.006802     -1.075425     -0.598617
  H      -0.832149      2.557002      1.389130
  H       0.300255      3.306044      0.215197
  H       0.048992      4.065057      1.823637
  H       0.081327      1.426250      3.517630
  H       0.953760      2.944064      3.936880
  H       1.848047      1.389710      3.828848
  H       2.832117      3.195478      0.621512
  H       3.478199      2.396518      2.090796
  H       2.614238      3.968864      2.228516
  Si      2.134925     -3.876719      1.545984
  C       2.449842     -5.743148      1.357662
  C       2.901300     -3.282652      3.177506
  C       0.263335     -3.560846      1.583101
  H       3.530817     -5.985072      1.400741
  H       2.048692     -6.139287      0.402455
  H       1.941548     -6.285242      2.183951
  H       2.779751     -2.187747      3.301108
  H       3.982793     -3.519569      3.232317
  H       2.392035     -3.783430      4.028561
  H       0.039719     -2.475115      1.649503
  H      -0.169747     -4.074737      2.469084
  H      -0.234583     -3.967980      0.679277
  H       4.068510     -3.482821      0.419204
  C       3.925029     -3.910774     -4.406320
  C       4.444554     -2.668501     -4.258181
  H       3.794715     -4.598731     -3.551399
  H       3.616746     -4.303220     -5.392317
  Si      4.781966     -1.413432     -5.649639
  H       4.733356     -2.370972     -3.228622
  C       3.948109     -2.006959     -7.242279
  C       6.658681     -1.293256     -5.871871
  C       4.073683      0.259069     -5.115576
  H       4.342020     -2.988527     -7.577692
  H       4.124362     -1.280953     -8.062760
  H       2.850344     -2.102712     -7.111734
  H       7.093528     -2.270865     -6.163964
  H       7.151403     -0.968688     -4.932274
  H       6.916169     -0.555828     -6.660771
  H       2.983899      0.184598     -4.924284
  H       4.233735      1.026184     -5.901443
  H       4.555991      0.622297     -4.184489
  H       2.280467     -2.497556     -4.229081
  H       2.793556     -0.965591      1.191362
71
Coordinates from ORCA-job my_molecule E -2465.734408601002
  Pt      2.941413     -2.680346     -0.280775
  O       0.031598     -0.172275      1.143678
  O       1.748834     -1.415647     -1.661339
  P       1.303678      0.640470      1.012546
  P       0.798816     -2.159565     -2.650103
  O       0.690881     -3.713898     -2.197931
  O       1.357928     -2.130387     -4.169706
  O       1.684845      1.039596     -0.532790
  O       2.643148     -0.080665      1.635053
  C       1.298790      2.271625      1.877569
  C      -0.890766     -1.458429     -2.788697
  C      -1.658076     -2.255114     -3.864712
  C      -0.755393      0.027932     -3.187892
  C      -1.570287     -1.592168     -1.410092
  C       0.141751      3.097153      1.277747
  C       1.035799      1.991882      3.371578
  C       2.644824      2.991247      1.678906
  H       1.369484     -3.838877     -1.455330
  H       1.700022      0.201052     -1.077289
  H      -1.200717     -2.143097     -4.866793
  H      -2.698541     -1.872928     -3.911112
  H      -1.704743     -3.334295     -3.617053
  H      -0.217149      0.152183     -4.148600
  H      -0.235761      0.616105     -2.405934
  H      -1.773007      0.453142     -3.307210
  H      -1.705968     -2.654468     -1.126999
  H      -2.576268     -1.128120     -1.473674
  H      -1.006587     -1.079077     -0.602245
  H      -0.823867      2.562273      1.378556
  H       0.310226      3.303463      0.202272
  H       0.061867      4.068437      1.809483
  H       0.087917      1.435199      3.510665
  H       0.961836      2.953865      3.921644
  H       1.853945      1.396362      3.823233
  H       2.840883      3.185242      0.605975
  H       3.486337      2.392038      2.078298
  H       2.626186      3.966893      2.209646
  Si      2.132459     -3.877447      1.546539
  C       2.448130     -5.744796      1.358449
  C       2.896052     -3.283029      3.178926
  C       0.261001     -3.560906      1.581113
  H       3.528986     -5.986339      1.403142
  H       2.047580     -6.140323      0.402799
  H       1.940144     -6.287771      2.184345
  H       2.773621     -2.187880      3.300051
  H       3.977635     -3.518213      3.235154
  H       2.386718     -3.782356      4.030614
  H       0.036948     -2.475350      1.650019
  H      -0.173180     -4.076476      2.465826
  H      -0.236776     -3.964945      0.675725
  H       4.069443     -3.483153      0.423622
  C       3.933408     -3.916042     -4.409849
  C       4.446389     -2.672553     -4.253594
  H       3.805368     -4.609669     -3.559310
  H       3.627527     -4.303125     -5.398820
  Si      4.775726     -1.404281     -5.635102
  H       4.735209     -2.380896     -3.221926
  C       3.935667     -1.987152     -7.228215
  C       6.651500     -1.278917     -5.865352
  C       4.067957      0.262838     -5.083878
  H       4.328552     -2.966021     -7.571847
  H       4.108453     -1.254742     -8.043834
  H       2.838207     -2.083100     -7.094309
  H       7.086330     -2.253327     -6.167497
  H       7.147832     -0.960956     -4.925422
  H       6.902409     -0.533704     -6.649110
  H       2.978435      0.186715     -4.892405
  H       4.226013      1.036425     -5.863836
  H       4.551648      0.617541     -4.150233
  H       2.279035     -2.514582     -4.228210
  H       2.796003     -0.969020      1.187937
71
Coordinates from ORCA-job my_molecule E -2465.734422317152
  Pt      2.943317     -2.683981     -0.280158
  O       0.036491     -0.172119      1.139346
  O       1.751416     -1.423374     -1.665466
  P       1.309464      0.639265      1.006186
  P       0.798573     -2.168892     -2.649844
  O       0.686538     -3.721102     -2.191147
  O       1.356578     -2.146558     -4.170156
  O       1.690210      1.033953     -0.540709
  O       2.648127     -0.081587      1.630989
  C       1.306984      2.273009      1.865647
  C      -0.889632     -1.464769     -2.790417
  C      -1.659158     -2.261296     -3.864777
  C      -0.751875      0.020904     -3.191518
  C      -1.570562     -1.595869     -1.412052
  C       0.152089      3.098883      1.262646
  C       1.044003      1.999721      3.360732
  C       2.654313      2.989683      1.663359
  H       1.367089     -3.845496     -1.450525
  H       1.704133      0.194028     -1.083093
  H      -1.202448     -2.153569     -4.867880
  H      -2.698608     -1.876432     -3.911963
  H      -1.708593     -3.339978     -3.615237
  H      -0.215363      0.142648     -4.153551
  H      -0.230704      0.609802     -2.411249
  H      -1.768934      0.447821     -3.310177
  H      -1.709367     -2.658067     -1.129303
  H      -2.575309     -1.129602     -1.476939
  H      -1.005978     -1.084292     -0.603785
  H      -0.814780      2.566663      1.364571
  H       0.321560      3.301164      0.186815
  H       0.074145      4.071713      1.792023
  H       0.095367      1.445042      3.501942
  H       0.970115      2.964456      3.905699
  H       1.860579      1.404622      3.815683
  H       2.851168      3.177292      0.589272
  H       3.494696      2.391777      2.066894
  H       2.636664      3.968104      2.189443
  Si      2.129407     -3.878947      1.546029
  C       2.444508     -5.747032      1.357995
  C       2.889447     -3.284776      3.179873
  C       0.258188     -3.561793      1.579355
  H       3.524874     -5.989455      1.404381
  H       2.044546     -6.141440      0.401757
  H       1.935965     -6.289829      2.183604
  H       2.764432     -2.190005      3.300479
  H       3.971572     -3.517320      3.238020
  H       2.379723     -3.784843      4.030719
  H       0.034777     -2.476207      1.651610
  H      -0.175973     -4.079444      2.462733
  H      -0.240310     -3.961703      0.672571
  H       4.070724     -3.482906      0.429573
  C       3.941412     -3.922890     -4.417172
  C       4.447449     -2.677830     -4.249354
  H       3.816307     -4.623461     -3.571781
  H       3.637328     -4.303110     -5.409145
  Si      4.768770     -1.395308     -5.619406
  H       4.736036     -2.393170     -3.216126
  C       3.922772     -1.966089     -7.213712
  C       6.643474     -1.263592     -5.857477
  C       4.061111      0.265227     -5.049406
  H       4.315405     -2.941311     -7.567655
  H       4.091145     -1.226612     -8.023681
  H       2.825965     -2.063917     -7.075696
  H       7.079027     -2.233885     -6.171513
  H       7.143066     -0.953942     -4.916550
  H       6.887596     -0.509412     -6.634548
  H       2.971654      0.186823     -4.857772
  H       4.217839      1.046298     -5.822113
  H       4.545481      0.610295     -4.112791
  H       2.279334     -2.527237     -4.227815
  H       2.798949     -0.971493      1.185801
71
Coordinates from ORCA-job my_molecule E -2465.734439143908
  Pt      2.946961     -2.690302     -0.279517
  O       0.042392     -0.170661      1.129382
  O       1.754978     -1.437507     -1.671794
  P       1.317855      0.636233      0.993859
  P       0.797581     -2.186645     -2.648814
  O       0.678799     -3.734740     -2.177932
  O       1.354956     -2.177638     -4.169574
  O       1.699606      1.022880     -0.554521
  O       2.654358     -0.084813      1.622822
  C       1.319811      2.274173      1.845672
  C      -0.887670     -1.476594     -2.794160
  C      -1.659419     -2.274474     -3.865825
  C      -0.743738      0.006461     -3.201277
  C      -1.571422     -1.598800     -1.415834
  C       0.169117      3.101284      1.236547
  C       1.054114      2.010096      3.341727
  C       2.669887      2.985406      1.640703
  H       1.360763     -3.858163     -1.439206
  H       1.710921      0.181223     -1.094346
  H      -1.201864     -2.174304     -4.869333
  H      -2.697427     -1.885669     -3.915895
  H      -1.713730     -3.351949     -3.611526
  H      -0.207759      0.121452     -4.164458
  H      -0.220374      0.597353     -2.424090
  H      -1.759035      0.436907     -3.322386
  H      -1.718308     -2.659055     -1.130699
  H      -2.572844     -1.125965     -1.483421
  H      -1.004093     -1.088665     -0.608244
  H      -0.800056      2.573624      1.339217
  H       0.341971      3.298199      0.160013
  H       0.093971      4.076557      1.761889
  H       0.102716      1.460222      3.484640
  H       0.982676      2.978117      3.880722
  H       1.867078      1.414207      3.801444
  H       2.869227      3.165535      0.565984
  H       3.507494      2.387934      2.050350
  H       2.654357      3.966682      2.161244
  Si      2.125678     -3.879964      1.546433
  C       2.438010     -5.748795      1.360319
  C       2.881727     -3.284666      3.181655
  C       0.254724     -3.560281      1.577353
  H       3.517929     -5.993241      1.409130
  H       2.039569     -6.142504      0.403223
  H       1.927308     -6.289984      2.185843
  H       2.754949     -2.189860      3.300478
  H       3.963992     -3.515922      3.242794
  H       2.369753     -3.784408      4.031528
  H       0.033563     -2.474356      1.652205
  H      -0.180151     -4.079377      2.459857
  H      -0.244242     -3.955764      0.669036
  H       4.073611     -3.482467      0.439373
  C       3.954072     -3.934336     -4.429541
  C       4.448357     -2.687421     -4.244531
  H       3.835721     -4.647665     -3.594045
  H       3.651914     -4.301953     -5.426978
  Si      4.756197     -1.379553     -5.593663
  H       4.737215     -2.415519     -3.207792
  C       3.896703     -1.923523     -7.190360
  C       6.628761     -1.240468     -5.846980
  C       4.052811      0.270001     -4.987833
  H       4.286096     -2.892381     -7.564948
  H       4.057926     -1.169816     -7.988836
  H       2.801348     -2.023939     -7.044216
  H       7.062792     -2.204165     -6.182859
  H       7.136545     -0.947350     -4.905165
  H       6.863341     -0.471506     -6.611899
  H       2.964323      0.188331     -4.792428
  H       4.206249      1.065292     -5.746581
  H       4.541780      0.596900     -4.047192
  H       2.277803     -2.558259     -4.224991
  H       2.804081     -0.976430      1.180341
71
Coordinates from ORCA-job my_molecule E -2465.734457013416
  Pt      2.951380     -2.695469     -0.277946
  O       0.050843     -0.169656      1.118774
  O       1.759673     -1.451796     -1.679062
  P       1.328343      0.633371      0.980816
  P       0.798406     -2.204043     -2.649138
  O       0.673814     -3.748266     -2.166801
  O       1.354445     -2.207213     -4.170322
  O       1.712226      1.011528     -0.569264
  O       2.662570     -0.087805      1.614527
  C       1.334441      2.275912      1.824106
  C      -0.884304     -1.488881     -2.798788
  C      -1.657232     -2.288578     -3.868283
  C      -0.734743     -0.008333     -3.212183
  C      -1.571731     -1.601978     -1.421155
  C       0.187343      3.103526      1.208289
  C       1.065712      2.020670      3.320662
  C       2.687319      2.982226      1.617305
  H       1.356435     -3.870108     -1.429224
  H       1.719524      0.168234     -1.106022
  H      -1.197737     -2.195766     -4.871659
  H      -2.693641     -1.895753     -3.921408
  H      -1.716823     -3.364702     -3.608713
  H      -0.201118      0.100494     -4.177555
  H      -0.206977      0.583675     -2.438741
  H      -1.748217      0.426239     -3.333472
  H      -1.726586     -2.660661     -1.133936
  H      -2.569639     -1.122354     -1.491823
  H      -1.002665     -1.093828     -0.613119
  H      -0.783883      2.579943      1.311813
  H       0.363855      3.295800      0.131613
  H       0.114524      4.081554      1.729255
  H       0.111911      1.475081      3.465410
  H       0.997312      2.991370      3.854415
  H       1.875722      1.424536      3.784408
  H       2.890713      3.154467      0.542052
  H       3.521932      2.385748      2.034366
  H       2.672735      3.967012      2.131389
  Si      2.122010     -3.881096      1.546841
  C       2.429868     -5.750182      1.361670
  C       2.873475     -3.285388      3.183763
  C       0.251421     -3.558619      1.575226
  H       3.509163     -5.997728      1.411483
  H       2.031703     -6.142691      0.403939
  H       1.916707     -6.289273      2.187109
  H       2.743723     -2.190912      3.302757
  H       3.956276     -3.514598      3.247642
  H       2.359625     -3.787195      4.031294
  H       0.032482     -2.472432      1.652837
  H      -0.183854     -4.079744      2.456367
  H      -0.247151     -3.950492      0.665411
  H       4.076554     -3.480837      0.450542
  C       3.965967     -3.947027     -4.443160
  C       4.447038     -2.697903     -4.237724
  H       3.855165     -4.673995     -3.618272
  H       3.665756     -4.301192     -5.445937
  Si      4.740069     -1.364241     -5.564645
  H       4.735602     -2.439621     -3.197605
  C       3.868833     -1.881787     -7.164294
  C       6.610076     -1.213451     -5.832034
  C       4.038704      0.272336     -4.922350
  H       4.256956     -2.842782     -7.559473
  H       4.021767     -1.114230     -7.950894
  H       2.775230     -1.988047     -7.009948
  H       7.044500     -2.168375     -6.190767
  H       7.125638     -0.936974     -4.889489
  H       6.834681     -0.428342     -6.583484
  H       2.951135      0.186356     -4.723216
  H       4.188863      1.082550     -5.665808
  H       4.531762      0.581226     -3.978012
  H       2.278662     -2.584570     -4.222707
  H       2.810027     -0.981691      1.174440
71
Coordinates from ORCA-job my_molecule E -2465.734473742999
  Pt      2.953238     -2.704835     -0.276881
  O       0.056843     -0.166968      1.106960
  O       1.763424     -1.469394     -1.685998
  P       1.337023      0.630877      0.964142
  P       0.798787     -2.225263     -2.650019
  O       0.667966     -3.765493     -2.156364
  O       1.354784     -2.241297     -4.171352
  O       1.721255      0.999985     -0.587796
  O       2.669289     -0.091214      1.600550
  C       1.349954      2.278146      1.798674
  C      -0.881393     -1.505497     -2.804168
  C      -1.655426     -2.310240     -3.869560
  C      -0.726725     -0.028459     -3.227938
  C      -1.570465     -1.606155     -1.426327
  C       0.205944      3.106487      1.178453
  C       1.079951      2.031983      3.296664
  C       2.705580      2.978405      1.589202
  H       1.351319     -3.885688     -1.419315
  H       1.725719      0.154207     -1.120187
  H      -1.194209     -2.225121     -4.872719
  H      -2.690595     -1.915293     -3.925860
  H      -1.718422     -3.384298     -3.602417
  H      -0.193075      0.072066     -4.194112
  H      -0.196350      0.566926     -2.458908
  H      -1.738669      0.409148     -3.352399
  H      -1.733250     -2.662162     -1.133664
  H      -2.564903     -1.119267     -1.499564
  H      -0.998242     -1.098098     -0.620363
  H      -0.767251      2.587414      1.285169
  H       0.383761      3.293119      0.100810
  H       0.137241      4.087595      1.694001
  H       0.123523      1.491981      3.444789
  H       1.017352      3.005524      3.826349
  H       1.887544      1.434549      3.763103
  H       2.910892      3.144652      0.513449
  H       3.537321      2.380807      2.010376
  H       2.694284      3.965775      2.098263
  Si      2.116219     -3.882125      1.549704
  C       2.417783     -5.751877      1.370124
  C       2.864590     -3.282937      3.186684
  C       0.246143     -3.554693      1.573881
  H       3.496448     -6.002444      1.421705
  H       2.020538     -6.145632      0.412444
  H       1.901034     -6.286867      2.196058
  H       2.735504     -2.188182      3.302828
  H       3.946860     -3.513896      3.254695
  H       2.346535     -3.782998      4.032945
  H       0.030495     -2.467877      1.650425
  H      -0.191336     -4.074808      2.454478
  H      -0.250849     -3.945938      0.663041
  H       4.076392     -3.486009      0.459595
  C       3.979322     -3.958819     -4.462410
  C       4.449778     -2.709904     -4.233744
  H       3.878197     -4.703669     -3.652549
  H       3.677402     -4.294300     -5.471145
  Si      4.725978     -1.345046     -5.532416
  H       4.740501     -2.471077     -3.189480
  C       3.833208     -1.823383     -7.132747
  C       6.591932     -1.186764     -5.822618
  C       4.034894      0.275836     -4.841461
  H       4.214942     -2.775023     -7.556443
  H       3.975646     -1.037448     -7.903023
  H       2.742064     -1.933785     -6.965125
  H       7.021674     -2.132579     -6.210805
  H       7.121750     -0.932238     -4.881703
  H       6.805622     -0.384062     -6.558346
  H       2.949937      0.186315     -4.630616
  H       4.177813      1.104400     -5.565907
  H       4.539826      0.561129     -3.895687
  H       2.279948     -2.617001     -4.219498
  H       2.813502     -0.987949      1.164166
71
Coordinates from ORCA-job my_molecule E -2465.734494275538
  Pt      2.953607     -2.721111     -0.274995
  O       0.065973     -0.161179      1.087521
  O       1.769131     -1.494007     -1.696848
  P       1.349998      0.628557      0.936891
  P       0.800536     -2.254933     -2.652962
  O       0.664811     -3.790148     -2.145376
  O       1.355396     -2.286288     -4.174530
  O       1.735042      0.984119     -0.617997
  O       2.679505     -0.095574      1.576537
  C       1.373563      2.282274      1.758988
  C      -0.877929     -1.531713     -2.812324
  C      -1.652428     -2.345551     -3.871000
  C      -0.718854     -0.059665     -3.251138
  C      -1.567112     -1.615665     -1.433747
  C       0.232670      3.112401      1.135102
  C       1.104485      2.047565      3.259245
  C       2.733122      2.973074      1.543986
  H       1.349603     -3.907927     -1.409393
  H       1.736933      0.135213     -1.144943
  H      -1.188255     -2.269883     -4.873161
  H      -2.686902     -1.949633     -3.931922
  H      -1.717611     -3.416664     -3.592804
  H      -0.186161      0.029956     -4.218717
  H      -0.184290      0.540693     -2.488724
  H      -1.729225      0.380695     -3.378075
  H      -1.738032     -2.667437     -1.131757
  H      -2.557809     -1.121097     -1.510077
  H      -0.990875     -1.105128     -0.632272
  H      -0.743154      2.599787      1.248308
  H       0.409447      3.290942      0.055747
  H       0.170918      4.098015      1.642945
  H       0.144785      1.514925      3.413823
  H       1.051610      3.024415      3.783893
  H       1.909956      1.448284      3.726901
  H       2.939678      3.130978      0.467323
  H       3.560925      2.372618      1.968811
  H       2.728079      3.964052      2.045808
  Si      2.106149     -3.884092      1.555748
  C       2.395740     -5.755456      1.384678
  C       2.851910     -3.280260      3.192002
  C       0.237314     -3.546597      1.574002
  H       3.473140     -6.011502      1.437659
  H       1.998199     -6.151014      0.427743
  H       1.873850     -6.283847      2.211362
  H       2.725291     -2.184586      3.304096
  H       3.932908     -3.515185      3.265289
  H       2.328026     -3.777272      4.036861
  H       0.027014     -2.458500      1.645962
  H      -0.204201     -4.062250      2.455459
  H      -0.257479     -3.940012      0.663041
  H       4.073450     -3.497736      0.471116
  C       3.996200     -3.973601     -4.495096
  C       4.453980     -2.726907     -4.228193
  H       3.910088     -4.745612     -3.708631
  H       3.689433     -4.279852     -5.511597
  Si      4.705576     -1.316470     -5.482848
  H       4.749398     -2.519194     -3.178920
  C       3.781034     -1.735864     -7.081841
  C       6.565121     -1.145485     -5.806066
  C       4.031138      0.278840     -4.719138
  H       4.153018     -2.671856     -7.546606
  H       3.908458     -0.922685     -7.826075
  H       2.693738     -1.853640     -6.895557
  H       6.986998     -2.076001     -6.237633
  H       7.116418     -0.923288     -4.869437
  H       6.763154     -0.316618     -6.517167
  H       2.950601      0.183962     -4.489492
  H       4.162605      1.134523     -5.413674
  H       4.555131      0.528684     -3.773418
  H       2.283433     -2.654522     -4.218640
  H       2.816340     -0.997813      1.148032
71
Coordinates from ORCA-job my_molecule E -2465.734509331245
  Pt      2.949350     -2.727983     -0.275286
  O       0.067653     -0.159718      1.084611
  O       1.766410     -1.500678     -1.698337
  P       1.351556      0.629423      0.929627
  P       0.798135     -2.263095     -2.653741
  O       0.661578     -3.797545     -2.144398
  O       1.353925     -2.296913     -4.174792
  O       1.733967      0.982215     -0.626779
  O       2.681821     -0.094960      1.567757
  C       1.378195      2.284699      1.747923
  C      -0.880202     -1.539424     -2.813963
  C      -1.655784     -2.356105     -3.869824
  C      -0.720512     -0.068627     -3.257196
  C      -1.567071     -1.619524     -1.434371
  C       0.235881      3.114367      1.126727
  C       1.113648      2.052380      3.249738
  C       2.737875      2.973575      1.528877
  H       1.346903     -3.914742     -1.408335
  H       1.735296      0.132062     -1.151562
  H      -1.191733     -2.282354     -4.872264
  H      -2.690024     -1.960380     -3.931006
  H      -1.720386     -3.426209     -3.588694
  H      -0.186094      0.018140     -4.224035
  H      -0.186322      0.533349     -2.495980
  H      -1.730552      0.372124     -3.385861
  H      -1.737804     -2.670604     -1.129341
  H      -2.557702     -1.124328     -1.510093
  H      -0.989408     -1.108064     -0.634865
  H      -0.739943      2.602753      1.245078
  H       0.407938      3.289814      0.046287
  H       0.177027      4.101449      1.631989
  H       0.154205      1.521015      3.408826
  H       1.064486      3.030035      3.773962
  H       1.920687      1.452692      3.714900
  H       2.941956      3.130006      0.451474
  H       3.565777      2.371693      1.951524
  H       2.735495      3.965222      2.029617
  Si      2.102365     -3.885557      1.559083
  C       2.387960     -5.757924      1.391354
  C       2.851632     -3.280058      3.193245
  C       0.234152     -3.544046      1.577564
  H       3.465460     -6.014217      1.443580
  H       1.990008     -6.154306      0.434808
  H       1.865499     -6.285423      2.218265
  H       2.728365     -2.183890      3.303368
  H       3.931756     -3.518368      3.266596
  H       2.326996     -3.774216      4.039082
  H       0.025622     -2.455433      1.644119
  H      -0.208075     -4.054742      2.461210
  H      -0.260752     -3.941961      0.668586
  H       4.068743     -3.506219      0.469665
  C       3.998416     -3.974795     -4.506343
  C       4.457921     -2.730925     -4.229638
  H       3.915751     -4.754324     -3.727247
  H       3.688545     -4.272310     -5.524368
  Si      4.706336     -1.308729     -5.471768
  H       4.755728     -2.533885     -3.178759
  C       3.772736     -1.708907     -7.070367
  C       6.564050     -1.137379     -5.803539
  C       4.038775      0.279307     -4.687500
  H       4.141799     -2.639811     -7.547709
  H       3.896077     -0.887309     -7.805774
  H       2.686409     -1.828368     -6.879369
  H       6.981831     -2.064190     -6.246757
  H       7.122167     -0.924706     -4.868610
  H       6.758808     -0.302003     -6.508357
  H       2.960248      0.183306     -4.449124
  H       4.164911      1.142308     -5.373726
  H       4.570663      0.519283     -3.743407
  H       2.283007     -2.663216     -4.216846
  H       2.814173     -0.999493      1.142578
71
Coordinates from ORCA-job my_molecule E -2465.734527353340
  Pt      2.941781     -2.731395     -0.276098
  O       0.065136     -0.156458      1.083597
  O       1.758848     -1.498264     -1.695437
  P       1.348891      0.633158      0.928830
  P       0.792840     -2.261067     -2.652943
  O       0.659474     -3.796468     -2.146470
  O       1.349687     -2.292364     -4.173478
  O       1.730559      0.987000     -0.627701
  O       2.679146     -0.092809      1.565799
  C       1.376372      2.287478      1.748213
  C      -0.887080     -1.540368     -2.812267
  C      -1.662255     -2.357136     -3.868445
  C      -0.729498     -0.068784     -3.253408
  C      -1.570996     -1.624107     -1.431885
  C       0.231641      3.117656      1.132814
  C       1.117408      2.052227      3.250907
  C       2.735575      2.975547      1.527025
  H       1.345889     -3.914026     -1.411028
  H       1.730110      0.136604     -1.152735
  H      -1.197020     -2.282172     -4.870121
  H      -2.696599     -1.961890     -3.930923
  H      -1.725494     -3.427086     -3.587942
  H      -0.192495      0.019697     -4.218507
  H      -0.197430      0.532942     -2.490427
  H      -1.740023      0.370446     -3.382097
  H      -1.735122     -2.675784     -1.125303
  H      -2.564592     -1.134687     -1.506305
  H      -0.994632     -1.108350     -0.634803
  H      -0.743410      2.605155      1.254410
  H       0.397308      3.293301      0.051481
  H       0.174078      4.104084      1.639130
  H       0.159894      1.518632      3.412873
  H       1.069091      3.028825      3.777653
  H       1.928086      1.452842      3.711032
  H       2.936815      3.132149      0.449062
  H       3.563602      2.371372      1.946136
  H       2.735618      3.966759      2.028779
  Si      2.101418     -3.887608      1.561863
  C       2.382940     -5.761001      1.390864
  C       2.860817     -3.286207      3.193151
  C       0.234392     -3.540007      1.586303
  H       3.460650     -6.016691      1.437667
  H       1.982192     -6.155066      0.434572
  H       1.863387     -6.291465      2.217255
  H       2.741937     -2.189653      3.304506
  H       3.940139     -3.528541      3.261631
  H       2.339251     -3.778997      4.041627
  H       0.028319     -2.450337      1.645001
  H      -0.207310     -4.042855      2.474736
  H      -0.263634     -3.944357      0.682004
  H       4.063153     -3.513246      0.462140
  C       3.992007     -3.969110     -4.506054
  C       4.459429     -2.727044     -4.230829
  H       3.906996     -4.747206     -3.725588
  H       3.681411     -4.268629     -5.523099
  Si      4.715044     -1.309422     -5.477027
  H       4.756891     -2.530429     -3.179811
  C       3.791052     -1.713869     -7.079229
  C       6.574247     -1.138525     -5.799569
  C       4.042952      0.280258     -4.699955
  H       4.165553     -2.645166     -7.551467
  H       3.916794     -0.893073     -7.815223
  H       2.703658     -1.834809     -6.895515
  H       6.993545     -2.066677     -6.239078
  H       7.129656     -0.922918     -4.863930
  H       6.770285     -0.305015     -6.506394
  H       2.964489      0.184589     -4.461028
  H       4.167768      1.142121     -5.387687
  H       4.574138      0.523268     -3.756034
  H       2.280570     -2.653791     -4.215290
  H       2.808974     -0.997931      1.142162
71
Coordinates from ORCA-job my_molecule E -2465.734540532179
  Pt      2.941177     -2.749538     -0.277497
  O       0.071215     -0.151491      1.064154
  O       1.760484     -1.521799     -1.705778
  P       1.359259      0.630618      0.904088
  P       0.790250     -2.289159     -2.655821
  O       0.648976     -3.819146     -2.136180
  O       1.347160     -2.336224     -4.176299
  O       1.741441      0.971464     -0.655526
  O       2.685425     -0.098466      1.546191
  C       1.396105      2.290452      1.711162
  C      -0.886290     -1.561637     -2.821391
  C      -1.666631     -2.380991     -3.871545
  C      -0.720800     -0.093311     -3.271750
  C      -1.569947     -1.633473     -1.440445
  C       0.255587      3.123117      1.091600
  C       1.138655      2.068108      3.216114
  C       2.759274      2.968199      1.483019
  H       1.336906     -3.934794     -1.401911
  H       1.736753      0.116452     -1.173740
  H      -1.201611     -2.314777     -4.874233
  H      -2.699000     -1.980659     -3.936936
  H      -1.734550     -3.448932     -3.584857
  H      -0.179577     -0.014258     -4.235346
  H      -0.189000      0.511426     -2.511014
  H      -1.729235      0.349246     -3.406134
  H      -1.740568     -2.682237     -1.127524
  H      -2.560133     -1.138154     -1.517853
  H      -0.990183     -1.116184     -0.646856
  H      -0.722291      2.617098      1.219343
  H       0.418167      3.288018      0.008304
  H       0.204706      4.113917      1.590207
  H       0.178365      1.541787      3.384403
  H       1.097912      3.049281      3.735134
  H       1.946916      1.466793      3.678648
  H       2.959674      3.114239      0.403449
  H       3.583739      2.361632      1.905670
  H       2.766327      3.963199      1.977053
  Si      2.094594     -3.891043      1.567097
  C       2.367684     -5.766975      1.402380
  C       2.857438     -3.287731      3.196175
  C       0.229672     -3.532039      1.587539
  H       3.444588     -6.025489      1.448357
  H       1.965647     -6.161766      0.447062
  H       1.847180     -6.294924      2.229807
  H       2.745638     -2.189593      3.301357
  H       3.934853     -3.536531      3.266517
  H       2.333225     -3.772211      4.047740
  H       0.029346     -2.440910      1.639269
  H      -0.216854     -4.027398      2.477768
  H      -0.269669     -3.938596      0.684582
  H       4.060532     -3.529447      0.466263
  C       4.006678     -3.976438     -4.528115
  C       4.463969     -2.738538     -4.223235
  H       3.934846     -4.777009     -3.769835
  H       3.693640     -4.250708     -5.551922
  Si      4.698141     -1.283083     -5.430029
  H       4.765056     -2.569760     -3.167605
  C       3.747133     -1.638834     -7.027539
  C       6.551554     -1.100467     -5.779465
  C       4.039816      0.280950     -4.592231
  H       4.114966     -2.554448     -7.534519
  H       3.859266     -0.795458     -7.739487
  H       2.662718     -1.766231     -6.829538
  H       6.963020     -2.014127     -6.254864
  H       7.124658     -0.912626     -4.848608
  H       6.731795     -0.245196     -6.464375
  H       2.965804      0.178871     -4.336411
  H       4.151643      1.164241     -5.254298
  H       4.588184      0.493830     -3.651112
  H       2.281076     -2.690792     -4.213266
  H       2.811818     -1.006089      1.126729
71
Coordinates from ORCA-job my_molecule E -2465.734555910515
  Pt      2.939605     -2.750371     -0.278428
  O       0.073527     -0.150679      1.058645
  O       1.757738     -1.524476     -1.706604
  P       1.362274      0.630624      0.900208
  P       0.787088     -2.291994     -2.655657
  O       0.646803     -3.822023     -2.135483
  O       1.342990     -2.338668     -4.176719
  O       1.747178      0.969994     -0.659219
  O       2.686801     -0.098723      1.544998
  C       1.399014      2.290849      1.706863
  C      -0.889525     -1.564468     -2.819889
  C      -1.670684     -2.381511     -3.870499
  C      -0.724362     -0.095516     -3.268270
  C      -1.572769     -1.638115     -1.438512
  C       0.258979      3.123362      1.086718
  C       1.141643      2.068595      3.211797
  C       2.762461      2.968406      1.477811
  H       1.334964     -3.936533     -1.401408
  H       1.739694      0.115188     -1.177204
  H      -1.205495     -2.316569     -4.873335
  H      -2.701989     -1.978482     -3.936789
  H      -1.741025     -3.449636     -3.584299
  H      -0.185695     -0.015468     -4.233473
  H      -0.190675      0.507687     -2.508000
  H      -1.733075      0.347488     -3.399604
  H      -1.740422     -2.687406     -1.125779
  H      -2.564390     -1.145636     -1.515954
  H      -0.994236     -1.118622     -0.645127
  H      -0.718841      2.616846      1.213721
  H       0.422147      3.288694      0.003410
  H       0.207441      4.113860      1.585779
  H       0.181938      1.540753      3.380050
  H       1.099014      3.049629      3.730656
  H       1.950664      1.468363      3.673977
  H       2.963822      3.111883      0.398149
  H       3.586300      2.363039      1.902850
  H       2.769138      3.964328      1.970131
  Si      2.093490     -3.890950      1.566990
  C       2.364086     -5.767250      1.399757
  C       2.860081     -3.290250      3.195240
  C       0.229931     -3.528819      1.590971
  H       3.440736     -6.027887      1.444101
  H       1.960156     -6.159910      0.444244
  H       1.843803     -6.295732      2.227392
  H       2.749017     -2.192269      3.302646
  H       3.937786     -3.539264      3.262514
  H       2.338134     -3.775236      4.047842
  H       0.031618     -2.437444      1.641769
  H      -0.215960     -4.021769      2.482744
  H      -0.272550     -3.935382      0.689768
  H       4.059636     -3.529134      0.465196
  C       4.007136     -3.975693     -4.529716
  C       4.463329     -2.737660     -4.221659
  H       3.935283     -4.777525     -3.772850
  H       3.695915     -4.248692     -5.554316
  Si      4.698287     -1.280454     -5.426278
  H       4.763075     -2.570374     -3.165950
  C       3.752276     -1.636761     -7.026658
  C       6.552595     -1.094627     -5.770557
  C       4.036333      0.281935     -4.588101
  H       4.124362     -2.550802     -7.533732
  H       3.864653     -0.792507     -7.737734
  H       2.667575     -1.766967     -6.831917
  H       6.966244     -2.006232     -6.247479
  H       7.123276     -0.908852     -4.837676
  H       6.732482     -0.237119     -6.452699
  H       2.961712      0.179384     -4.335505
  H       4.149875      1.166398     -5.248228
  H       4.582234      0.492909     -3.645239
  H       2.278215     -2.689229     -4.215467
  H       2.811447     -1.007275      1.127167
71
Coordinates from ORCA-job my_molecule E -2465.734580255663
  Pt      2.937094     -2.754095     -0.279315
  O       0.077201     -0.148475      1.046741
  O       1.754311     -1.530075     -1.707724
  P       1.368090      0.630217      0.892651
  P       0.783302     -2.296734     -2.656165
  O       0.644203     -3.827337     -2.137026
  O       1.337920     -2.340998     -4.177871
  O       1.759969      0.965732     -0.665465
  O       2.688102     -0.101272      1.544104
  C       1.405159      2.291757      1.697817
  C      -0.893283     -1.569289     -2.818320
  C      -1.675577     -2.381585     -3.871088
  C      -0.728159     -0.098887     -3.261218
  C      -1.577422     -1.646902     -1.437024
  C       0.266599      3.123772      1.073855
  C       1.145589      2.070499      3.202157
  C       2.769396      2.968623      1.468914
  H       1.331258     -3.940538     -1.402010
  H       1.746214      0.110564     -1.182033
  H      -1.209683     -2.320124     -4.873716
  H      -2.704791     -1.972373     -3.939754
  H      -1.752875     -3.449895     -3.586198
  H      -0.194246     -0.016439     -4.229035
  H      -0.191257      0.501149     -2.500667
  H      -1.737121      0.344698     -3.387473
  H      -1.738763     -2.697517     -1.124976
  H      -2.572050     -1.160860     -1.514871
  H      -1.001246     -1.123308     -0.644160
  H      -0.711088      2.616359      1.197607
  H       0.433347      3.290349     -0.009001
  H       0.212507      4.113773      1.573284
  H       0.186832      1.539989      3.368639
  H       1.098106      3.051197      3.720549
  H       1.955346      1.472437      3.665163
  H       2.974266      3.106645      0.389156
  H       3.591711      2.366368      1.901412
  H       2.774124      3.966433      1.957462
  Si      2.092468     -3.893052      1.568040
  C       2.357582     -5.769659      1.396812
  C       2.868768     -3.297077      3.193493
  C       0.231865     -3.522359      1.600151
  H       3.433050     -6.035518      1.436099
  H       1.947613     -6.159393      0.442650
  H       1.840011     -6.297032      2.226818
  H       2.760956     -2.199023      3.304511
  H       3.946857     -3.548285      3.253599
  H       2.351294     -3.781126      4.049515
  H       0.039816     -2.429430      1.646366
  H      -0.213060     -4.007353      2.496810
  H      -0.279566     -3.929135      0.704134
  H       4.057395     -3.533418      0.463478
  C       4.004107     -3.972973     -4.532860
  C       4.456770     -2.735493     -4.218377
  H       3.933859     -4.779047     -3.779551
  H       3.696551     -4.241952     -5.559704
  Si      4.693870     -1.274358     -5.418270
  H       4.754481     -2.571139     -3.161773
  C       3.761098     -1.632471     -7.026083
  C       6.550868     -1.082768     -5.748220
  C       4.023440      0.285149     -4.581310
  H       4.143069     -2.542901     -7.532139
  H       3.875788     -0.786260     -7.734928
  H       2.675881     -1.769441     -6.841051
  H       6.969373     -1.991074     -6.227119
  H       7.114341     -0.901120     -4.810424
  H       6.732710     -0.221811     -6.424412
  H       2.946986      0.180721     -4.337231
  H       4.141849      1.171607     -5.237694
  H       4.563077      0.492617     -3.634729
  H       2.275690     -2.684743     -4.217981
  H       2.812370     -1.011287      1.129067
71
Coordinates from ORCA-job my_molecule E -2465.734593453087
  Pt      2.935575     -2.758198     -0.281804
  O       0.080847     -0.145504      1.035641
  O       1.752358     -1.537231     -1.711500
  P       1.373860      0.629703      0.882450
  P       0.779342     -2.305493     -2.656904
  O       0.639960     -3.834792     -2.134117
  O       1.332244     -2.352406     -4.179122
  O       1.769366      0.960884     -0.675505
  O       2.690862     -0.103084      1.538109
  C       1.413166      2.292664      1.685138
  C      -0.896850     -1.577765     -2.818317
  C      -1.680387     -2.390150     -3.869939
  C      -0.731008     -0.107734     -3.262968
  C      -1.580152     -1.653013     -1.436456
  C       0.275399      3.124489      1.059095
  C       1.152866      2.074018      3.189534
  C       2.778273      2.967717      1.455116
  H       1.327249     -3.946347     -1.399311
  H       1.750325      0.104930     -1.190512
  H      -1.213956     -2.332145     -4.872634
  H      -2.708453     -1.977860     -3.940254
  H      -1.761631     -3.457807     -3.582927
  H      -0.198933     -0.026840     -4.231829
  H      -0.191974      0.492367     -2.503747
  H      -1.739765      0.336424     -3.388692
  H      -1.739129     -2.703126     -1.121743
  H      -2.575627     -1.169211     -1.514944
  H      -1.004597     -1.126255     -0.644955
  H      -0.702619      2.617402      1.182321
  H       0.443833      3.290380     -0.023666
  H       0.221198      4.115142      1.557221
  H       0.193927      1.543545      3.356088
  H       1.104535      3.055356      3.706332
  H       1.962353      1.476839      3.653598
  H       2.984863      3.101587      0.375279
  H       3.599440      2.366946      1.891534
  H       2.783254      3.967297      1.939789
  Si      2.090832     -3.892912      1.568456
  C       2.347889     -5.770225      1.394227
  C       2.876114     -3.301291      3.191184
  C       0.232532     -3.513414      1.605313
  H       3.422346     -6.041496      1.430455
  H       1.933242     -6.156718      0.440708
  H       1.830334     -6.296575      2.225181
  H       2.773981     -2.202840      3.303898
  H       3.953517     -3.556872      3.245590
  H       2.360776     -3.783179      4.049763
  H       0.045767     -2.419554      1.646583
  H      -0.212869     -3.991498      2.505439
  H      -0.284252     -3.921952      0.713157
  H       4.054975     -3.537324      0.462379
  C       4.005677     -3.974456     -4.540038
  C       4.453690     -2.737770     -4.215536
  H       3.939345     -4.787635     -3.794563
  H       3.700995     -4.235627     -5.569769
  Si      4.688664     -1.265677     -5.402709
  H       4.749923     -2.581557     -3.157154
  C       3.759935     -1.612200     -7.015626
  C       6.545720     -1.068629     -5.728030
  C       4.015216      0.285360     -4.552713
  H       4.146993     -2.516307     -7.529498
  H       3.873677     -0.759007     -7.716271
  H       2.674757     -1.755237     -6.834364
  H       6.965803     -1.971189     -6.216404
  H       7.107218     -0.897014     -4.787151
  H       6.727995     -0.200426     -6.394872
  H       2.938917      0.177640     -4.309917
  H       4.133390      1.177690     -5.201257
  H       4.554518      0.483974     -3.603857
  H       2.271087     -2.692007     -4.220037
  H       2.815593     -1.013555      1.124125
71
Coordinates from ORCA-job my_molecule E -2465.734611226574
  Pt      2.930849     -2.771227     -0.284347
  O       0.085864     -0.140101      1.019946
  O       1.750251     -1.552783     -1.717293
  P       1.382910      0.627612      0.864081
  P       0.774895     -2.321404     -2.660101
  O       0.633338     -3.848979     -2.133194
  O       1.327067     -2.371499     -4.182596
  O       1.780832      0.950266     -0.694940
  O       2.696211     -0.108115      1.523604
  C       1.429771      2.293782      1.660075
  C      -0.900591     -1.592619     -2.821571
  C      -1.685254     -2.407155     -3.870734
  C      -0.733251     -0.123965     -3.270512
  C      -1.582973     -1.661907     -1.438970
  C       0.292516      3.125492      1.032509
  C       1.171383      2.082130      3.165773
  C       2.795957      2.964214      1.425192
  H       1.321507     -3.959707     -1.398740
  H       1.755620      0.091615     -1.205486
  H      -1.217197     -2.354895     -4.872855
  H      -2.711628     -1.991325     -3.944292
  H      -1.772190     -3.473184     -3.578810
  H      -0.202956     -0.045756     -4.240604
  H      -0.191646      0.476588     -2.513496
  H      -1.741560      0.321662     -3.396009
  H      -1.739384     -2.710532     -1.118399
  H      -2.579436     -1.180405     -1.518923
  H      -1.007735     -1.130108     -0.650672
  H      -0.686157      2.620498      1.158065
  H       0.461258      3.288280     -0.050729
  H       0.240531      4.118067      1.527181
  H       0.212656      1.552579      3.335609
  H       1.123406      3.065716      3.678551
  H       1.981224      1.486735      3.631692
  H       3.002934      3.090618      0.344675
  H       3.616021      2.364911      1.865995
  H       2.803210      3.967197      1.902747
  Si      2.085726     -3.895818      1.572140
  C       2.332158     -5.774398      1.400632
  C       2.882523     -3.304729      3.189590
  C       0.230321     -3.504043      1.612863
  H       3.405124     -6.051750      1.432310
  H       1.910113     -6.160171      0.450102
  H       1.816353     -6.296450      2.235384
  H       2.789029     -2.205381      3.300512
  H       3.958639     -3.567422      3.237506
  H       2.369157     -3.780770      4.052539
  H       0.051045     -2.408643      1.644250
  H      -0.216148     -3.969890      2.518747
  H      -0.292474     -3.917143      0.726368
  H       4.047596     -3.552734      0.461205
  C       4.009063     -3.974435     -4.556789
  C       4.449956     -2.741433     -4.210372
  H       3.951061     -4.802439     -3.826767
  H       3.705329     -4.218584     -5.591136
  Si      4.677105     -1.247459     -5.371899
  H       4.746548     -2.602688     -3.149348
  C       3.749443     -1.570360     -6.990837
  C       6.533159     -1.039994     -5.695884
  C       4.001461      0.286933     -4.494131
  H       4.142657     -2.462650     -7.520540
  H       3.858872     -0.704182     -7.676069
  H       2.665132     -1.723718     -6.812827
  H       6.954399     -1.932193     -6.202034
  H       7.095139     -0.885268     -4.752229
  H       6.714176     -0.159152     -6.346389
  H       2.926096      0.172506     -4.250540
  H       4.116943      1.190665     -5.127472
  H       4.542780      0.469352     -3.543257
  H       2.268816     -2.703688     -4.220491
  H       2.818760     -1.020910      1.114533
71
Coordinates from ORCA-job my_molecule E -2465.734628821137
  Pt      2.924105     -2.787692     -0.288848
  O       0.093179     -0.134729      1.003231
  O       1.747655     -1.571210     -1.725504
  P       1.394767      0.624204      0.842787
  P       0.768518     -2.340892     -2.664288
  O       0.621627     -3.865190     -2.130593
  O       1.320798     -2.397397     -4.186105
  O       1.793905      0.936347     -0.718133
  O       2.704748     -0.114415      1.505778
  C       1.450452      2.294347      1.630023
  C      -0.905207     -1.609024     -2.827322
  C      -1.692026     -2.427235     -3.872444
  C      -0.734807     -0.142850     -3.283933
  C      -1.586514     -1.669416     -1.444039
  C       0.313312      3.126057      1.001518
  C       1.195237      2.091761      3.137673
  C       2.817750      2.959228      1.388000
  H       1.312269     -3.976234     -1.398400
  H       1.760890      0.075005     -1.223938
  H      -1.222011     -2.382063     -4.873893
  H      -2.716606     -2.007782     -3.949764
  H      -1.784787     -3.490866     -3.573750
  H      -0.204727     -0.069687     -4.254358
  H      -0.190981      0.460009     -2.529807
  H      -1.741968      0.304988     -3.411816
  H      -1.742338     -2.716084     -1.116695
  H      -2.582935     -1.188206     -1.525998
  H      -1.010797     -1.133689     -0.658877
  H      -0.666149      2.623947      1.130955
  H       0.481309      3.283963     -0.082301
  H       0.264678      4.121019      1.491921
  H       0.236765      1.563503      3.312576
  H       1.148392      3.078672      3.644516
  H       2.005400      1.498838      3.606193
  H       3.023905      3.076895      0.306271
  H       3.637221      2.361332      1.831909
  H       2.828324      3.966178      1.856846
  Si      2.079642     -3.899821      1.575875
  C       2.315060     -5.780214      1.408590
  C       2.889522     -3.308091      3.186793
  C       0.226807     -3.495300      1.622146
  H       3.386952     -6.062195      1.434674
  H       1.884481     -6.166131      0.462037
  H       1.802674     -6.297919      2.248101
  H       2.806134     -2.207531      3.293411
  H       3.963805     -3.579380      3.227727
  H       2.377982     -3.776462      4.055024
  H       0.055630     -2.398348      1.643020
  H      -0.219173     -3.947714      2.534863
  H      -0.302732     -3.913921      0.742299
  H       4.037268     -3.572390      0.458239
  C       4.014705     -3.973721     -4.573009
  C       4.446880     -2.744644     -4.202751
  H       3.965833     -4.817635     -3.861422
  H       3.711981     -4.198438     -5.612187
  Si      4.662936     -1.224914     -5.332968
  H       4.743935     -2.625864     -3.138788
  C       3.735788     -1.520473     -6.957791
  C       6.516940     -1.003751     -5.657153
  C       3.983818      0.288587     -4.422597
  H       4.135622     -2.398833     -7.505662
  H       3.839014     -0.639375     -7.624458
  H       2.652536     -1.685497     -6.783275
  H       6.939954     -1.883523     -6.183416
  H       7.079848     -0.867613     -4.711137
  H       6.695486     -0.108466     -6.288701
  H       2.909914      0.165015     -4.177391
  H       4.094249      1.204895     -5.038560
  H       4.527308      0.453553     -3.469620
  H       2.265053     -2.722782     -4.220571
  H       2.825104     -1.029488      1.101355
71
Coordinates from ORCA-job my_molecule E -2465.734646255050
  Pt      2.917686     -2.806035     -0.292905
  O       0.100834     -0.130223      0.988603
  O       1.744761     -1.590495     -1.732398
  P       1.406543      0.620163      0.822079
  P       0.762651     -2.360015     -2.668550
  O       0.609370     -3.881275     -2.128742
  O       1.316090     -2.423249     -4.189619
  O       1.804750      0.921458     -0.741560
  O       2.714166     -0.120791      1.487052
  C       1.471821      2.293941      1.600056
  C      -0.908898     -1.623749     -2.833836
  C      -1.698134     -2.445252     -3.874969
  C      -0.734502     -0.160601     -3.298029
  C      -1.589727     -1.675115     -1.450056
  C       0.334623      3.125835      0.971677
  C       1.221495      2.100739      3.109850
  C       2.839799      2.953130      1.349485
  H       1.302877     -3.993848     -1.399058
  H       1.766109      0.056721     -1.241860
  H      -1.225847     -2.407484     -4.875535
  H      -2.720734     -2.022188     -3.956316
  H      -1.795939     -3.506477     -3.569549
  H      -0.204333     -0.093153     -4.268702
  H      -0.188600      0.444361     -2.547040
  H      -1.740028      0.290475     -3.427701
  H      -1.746737     -2.719553     -1.116540
  H      -2.585556     -1.192634     -1.534167
  H      -1.012873     -1.136466     -0.668028
  H      -0.645569      2.626879      1.106013
  H       0.500372      3.278096     -0.113297
  H       0.290129      4.123051      1.457964
  H       0.263509      1.574030      3.291135
  H       1.176956      3.091042      3.610387
  H       2.032309      1.510185      3.580459
  H       3.043261      3.061962      0.266357
  H       3.659347      2.356155      1.794940
  H       2.854400      3.963946      1.809792
  Si      2.073248     -3.904635      1.579585
  C       2.300447     -5.786943      1.420887
  C       2.891641     -3.308459      3.184859
  C       0.222088     -3.490828      1.628391
  H       3.371652     -6.071516      1.442454
  H       1.862770     -6.175656      0.478811
  H       1.791615     -6.299038      2.265924
  H       2.815079     -2.207004      3.285264
  H       3.964369     -3.585803      3.221831
  H       2.381325     -3.769675      4.057383
  H       0.057378     -2.392828      1.640529
  H      -0.223361     -3.932436      2.546541
  H      -0.311528     -3.914014      0.753339
  H       4.028212     -3.592844      0.455564
  C       4.021942     -3.971060     -4.589587
  C       4.445183     -2.746587     -4.194942
  H       3.981911     -4.830038     -3.895606
  H       3.718538     -4.176987     -5.632377
  Si      4.648219     -1.202173     -5.293782
  H       4.743496     -2.647487     -3.129233
  C       3.719553     -1.472275     -6.922539
  C       6.499916     -0.966209     -5.620059
  C       3.965375      0.290119     -4.352149
  H       4.125303     -2.336659     -7.487910
  H       3.814368     -0.577688     -7.572051
  H       2.637769     -1.648784     -6.749464
  H       6.925083     -1.833615     -6.164962
  H       7.064627     -0.846684     -4.672805
  H       6.674224     -0.057339     -6.233490
  H       2.892638      0.157705     -4.106965
  H       4.071275      1.218678     -4.950718
  H       4.509522      0.438601     -3.396878
  H       2.263169     -2.741610     -4.219522
  H       2.830887     -1.038546      1.088375
71
Coordinates from ORCA-job my_molecule E -2465.734666563635
  Pt      2.907489     -2.835021     -0.300473
  O       0.116469     -0.124923      0.966628
  O       1.739406     -1.621135     -1.743991
  P       1.427766      0.613231      0.790078
  P       0.752091     -2.390622     -2.675034
  O       0.587630     -3.906642     -2.125308
  O       1.307103     -2.465079     -4.194727
  O       1.824029      0.897243     -0.777879
  O       2.732011     -0.130758      1.458443
  C       1.506340      2.292947      1.552958
  C      -0.915397     -1.646051     -2.844227
  C      -1.709881     -2.471723     -3.878599
  C      -0.733726     -0.187977     -3.320607
  C      -1.595368     -1.683464     -1.459748
  C       0.368979      3.124756      0.924316
  C       1.263600      2.114212      3.065926
  C       2.875071      2.943988      1.288201
  H       1.285463     -4.022230     -1.400194
  H       1.775669      0.027993     -1.269855
  H      -1.234581     -2.446453     -4.878032
  H      -2.729021     -2.041984     -3.965952
  H      -1.815579     -3.528983     -3.562853
  H      -0.203380     -0.130565     -4.291914
  H      -0.184435      0.420876     -2.575146
  H      -1.736559      0.268418     -3.453037
  H      -1.756182     -2.724502     -1.117585
  H      -2.589192     -1.197255     -1.546964
  H      -1.015463     -1.141798     -0.682283
  H      -0.612069      2.630090      1.066536
  H       0.530599      3.267630     -0.162330
  H       0.330289      4.125417      1.404143
  H       0.306439      1.589812      3.257340
  H       1.222695      3.109770      3.556655
  H       2.075742      1.527468      3.539397
  H       3.073341      3.038839      0.202612
  H       3.695427      2.348978      1.735150
  H       2.895599      3.960578      1.735106
  Si      2.063519     -3.912495      1.584005
  C       2.279373     -5.797931      1.440065
  C       2.893384     -3.308490      3.180839
  C       0.214482     -3.485900      1.638078
  H       3.349824     -6.085322      1.453989
  H       1.830633     -6.192538      0.505790
  H       1.776871     -6.300642      2.294303
  H       2.825513     -2.205841      3.271225
  H       3.964181     -3.593928      3.213348
  H       2.384720     -3.759308      4.059549
  H       0.059425     -2.386327      1.638647
  H      -0.228405     -3.912850      2.564173
  H      -0.325748     -3.915165      0.770265
  H       4.014629     -3.624421      0.449802
  C       4.034491     -3.964971     -4.613324
  C       4.442532     -2.747260     -4.182360
  H       4.007896     -4.845592     -3.946645
  H       3.729667     -4.142627     -5.661057
  Si      4.624763     -1.166104     -5.231582
  H       4.742661     -2.677440     -3.114557
  C       3.695311     -1.397997     -6.866175
  C       6.473247     -0.906427     -5.557936
  C       3.933779      0.292246     -4.244918
  H       4.110482     -2.240324     -7.457216
  H       3.776924     -0.483353     -7.488767
  H       2.615973     -1.592348     -6.697193
  H       6.903044     -1.754162     -6.129476
  H       7.039383     -0.811839     -4.608582
  H       6.641046      0.022296     -6.142837
  H       2.861735      0.146714     -4.004408
  H       4.034761      1.238826     -4.815794
  H       4.475108      0.415642     -3.284597
  H       2.257884     -2.773336     -4.219819
  H       2.842811     -1.052620      1.068502
71
Coordinates from ORCA-job my_molecule E -2465.734688845494
  Pt      2.902452     -2.833467     -0.303225
  O       0.117404     -0.130161      0.981419
  O       1.731079     -1.612636     -1.736678
  P       1.426241      0.612219      0.804542
  P       0.745960     -2.378978     -2.672271
  O       0.580837     -3.897189     -2.128974
  O       1.303012     -2.447327     -4.190973
  O       1.818471      0.901511     -0.763900
  O       2.733908     -0.130032      1.468163
  C       1.499775      2.289137      1.572738
  C      -0.921404     -1.633444     -2.840056
  C      -1.716312     -2.456858     -3.876268
  C      -0.739818     -0.174730     -3.313674
  C      -1.601602     -1.675609     -1.455833
  C       0.357518      3.118497      0.949593
  C       1.260909      2.104274      3.085549
  C       2.864466      2.947728      1.306214
  H       1.279989     -4.016667     -1.405882
  H       1.769175      0.033559     -1.258242
  H      -1.240101     -2.429685     -4.875339
  H      -2.735388     -2.026916     -3.963005
  H      -1.820563     -3.514774     -3.562621
  H      -0.209120     -0.115863     -4.284780
  H      -0.190742      0.433635     -2.567724
  H      -1.742211      0.282929     -3.444739
  H      -1.761795     -2.718050     -1.117371
  H      -2.595825     -1.189898     -1.541981
  H      -1.022251     -1.137115     -0.675822
  H      -0.620824      2.618309      1.091074
  H       0.516556      3.265714     -0.136696
  H       0.314917      4.116659      1.434405
  H       0.307213      1.573576      3.276935
  H       1.215301      3.098390      3.578676
  H       2.076636      1.520850      3.556834
  H       3.057989      3.046884      0.219991
  H       3.690183      2.355196      1.746928
  H       2.881466      3.963236      1.755526
  Si      2.066351     -3.914103      1.582530
  C       2.289297     -5.799563      1.443091
  C       2.896814     -3.305084      3.177536
  C       0.214740     -3.496160      1.641940
  H       3.361404     -6.081218      1.452510
  H       1.837270     -6.199503      0.512676
  H       1.793078     -6.300977      2.301838
  H       2.824853     -2.202666      3.265896
  H       3.968517     -3.586791      3.207952
  H       2.391868     -3.757413      4.057327
  H       0.056128     -2.397243      1.645204
  H      -0.222599     -3.926804      2.568938
  H      -0.324966     -3.926502      0.774560
  H       4.011728     -3.626182      0.440089
  C       4.026679     -3.958171     -4.596598
  C       4.439203     -2.735004     -4.184406
  H       3.988884     -4.826797     -3.915669
  H       3.724437     -4.151627     -5.642177
  Si      4.636474     -1.173174     -5.258288
  H       4.735252     -2.648548     -3.117042
  C       3.735241     -1.439221     -6.903719
  C       6.490543     -0.920446     -5.557509
  C       3.926485      0.304133     -4.315436
  H       4.161000     -2.292794     -7.470342
  H       3.824908     -0.537708     -7.543663
  H       2.653069     -1.631079     -6.748997
  H       6.930821     -1.779745     -6.102799
  H       7.037866     -0.807863     -4.599048
  H       6.671137     -0.003037     -6.156525
  H       2.848603      0.163999     -4.098675
  H       4.041764      1.239029     -4.903000
  H       4.443812      0.447166     -3.344797
  H       2.253019     -2.759006     -4.218187
  H       2.847132     -1.049553      1.074350
71
Coordinates from ORCA-job my_molecule E -2465.734719261287
  Pt      2.899528     -2.843640     -0.305528
  O       0.126236     -0.131067      0.978009
  O       1.728639     -1.620562     -1.739077
  P       1.435373      0.609993      0.797636
  P       0.742798     -2.385549     -2.674197
  O       0.574908     -3.903398     -2.129656
  O       1.299554     -2.457192     -4.193232
  O       1.825024      0.895013     -0.772217
  O       2.743206     -0.132577      1.460390
  C       1.511305      2.287949      1.563106
  C      -0.922878     -1.636549     -2.842517
  C      -1.720331     -2.459766     -3.877088
  C      -0.738379     -0.179368     -3.318807
  C      -1.602782     -1.676283     -1.458004
  C       0.367774      3.116505      0.941567
  C       1.276487      2.105368      3.076633
  C       2.875137      2.946280      1.291392
  H       1.273898     -4.024004     -1.406431
  H       1.772886      0.025865     -1.264419
  H      -1.243630     -2.437581     -4.876171
  H      -2.737850     -2.026416     -3.965369
  H      -1.826690     -3.516642     -3.560836
  H      -0.209562     -0.124898     -4.291121
  H      -0.186075      0.429242     -2.575217
  H      -1.739585      0.280756     -3.447990
  H      -1.765375     -2.718349     -1.118906
  H      -2.596084     -1.188774     -1.544589
  H      -1.022608     -1.137944     -0.678408
  H      -0.609966      2.615701      1.085606
  H       0.523553      3.262839     -0.145596
  H       0.326034      4.114572      1.426106
  H       0.323385      1.574547      3.271366
  H       1.232380      3.100135      3.568153
  H       2.093772      1.523011      3.546038
  H       3.064768      3.041795      0.204143
  H       3.702601      2.355516      1.731041
  H       2.893132      3.963179      1.737368
  Si      2.063867     -3.916907      1.583585
  C       2.283336     -5.803362      1.451601
  C       2.896212     -3.304024      3.176099
  C       0.212691     -3.496433      1.645351
  H       3.355165     -6.086492      1.455942
  H       1.826171     -6.207583      0.525506
  H       1.790196     -6.299138      2.315345
  H       2.822292     -2.201681      3.262400
  H       3.968283     -3.584023      3.206189
  H       2.393175     -3.755789      4.057253
  H       0.056582     -2.397238      1.647378
  H      -0.222883     -3.925954      2.573838
  H      -0.329205     -3.926789      0.779179
  H       4.009493     -3.636161      0.436802
  C       4.030196     -3.955185     -4.603942
  C       4.433764     -2.732604     -4.181357
  H       3.995524     -4.828298     -3.927249
  H       3.729808     -4.144729     -5.650321
  Si      4.627254     -1.164161     -5.245655
  H       4.727335     -2.650985     -3.113594
  C       3.741507     -1.429012     -6.899138
  C       6.482434     -0.899942     -5.527784
  C       3.900100      0.304654     -4.303328
  H       4.177843     -2.277235     -7.465467
  H       3.829510     -0.524263     -7.535160
  H       2.659611     -1.629586     -6.754378
  H       6.932460     -1.754262     -6.073319
  H       7.020404     -0.789984     -4.563965
  H       6.663185      0.021353     -6.120163
  H       2.819436      0.161049     -4.103137
  H       4.020605      1.243015     -4.884276
  H       4.402272      0.445096     -3.324281
  H       2.250697     -2.765034     -4.219053
  H       2.854406     -1.052770      1.068010
71
Coordinates from ORCA-job my_molecule E -2465.734774566299
  Pt      2.892563     -2.865591     -0.313537
  O       0.150282     -0.133420      0.966953
  O       1.720155     -1.644060     -1.748630
  P       1.461303      0.602261      0.778423
  P       0.730673     -2.407702     -2.679214
  O       0.557185     -3.923861     -2.130000
  O       1.285269     -2.486209     -4.199526
  O       1.848389      0.874278     -0.794267
  O       2.766487     -0.142847      1.442960
  C       1.545269      2.285048      1.533198
  C      -0.931554     -1.650807     -2.847733
  C      -1.735886     -2.473002     -3.877181
  C      -0.739400     -0.196943     -3.329941
  C      -1.608651     -1.682828     -1.461499
  C       0.401578      3.112741      0.911156
  C       1.317268      2.112666      3.048393
  C       2.909602      2.937936      1.248814
  H       1.253357     -4.044839     -1.404650
  H       1.783139      0.002915     -1.280676
  H      -1.259691     -2.462560     -4.877190
  H      -2.749669     -2.031443     -3.968155
  H      -1.848172     -3.527476     -3.554889
  H      -0.214878     -0.152486     -4.305598
  H      -0.179722      0.410805     -2.591870
  H      -1.738463      0.267925     -3.455120
  H      -1.779121     -2.722739     -1.119673
  H      -2.598601     -1.189385     -1.547651
  H      -1.024303     -1.144164     -0.684716
  H      -0.576023      2.613205      1.062265
  H       0.550971      3.253985     -0.177907
  H       0.363317      4.113044      1.391310
  H       0.363214      1.586504      3.250845
  H       1.279426      3.110466      3.533780
  H       2.136188      1.530562      3.515381
  H       3.092010      3.022272      0.159514
  H       3.738787      2.350065      1.689299
  H       2.932338      3.958837      1.685127
  Si      2.057197     -3.922213      1.583484
  C       2.267273     -5.810646      1.465045
  C       2.895044     -3.303958      3.170349
  C       0.208243     -3.493464      1.652474
  H       3.337958     -6.097655      1.456504
  H       1.797986     -6.223045      0.548371
  H       1.782127     -6.295235      2.339098
  H       2.818063     -2.201601      3.254795
  H       3.968270     -3.581109      3.200153
  H       2.395714     -3.755000      4.054283
  H       0.057559     -2.393492      1.650990
  H      -0.223058     -3.920438      2.584367
  H      -0.340491     -3.924046      0.790724
  H       4.005093     -3.656257      0.428296
  C       4.041212     -3.946361     -4.614918
  C       4.418732     -2.723179     -4.169676
  H       4.016272     -4.830042     -3.950563
  H       3.749269     -4.125733     -5.665495
  Si      4.603540     -1.136958     -5.207902
  H       4.704171     -2.653798     -3.098932
  C       3.757135     -1.393611     -6.882425
  C       6.461154     -0.843496     -5.442930
  C       3.831842      0.308878     -4.265244
  H       4.221299     -2.225373     -7.450784
  H       3.840561     -0.478554     -7.504881
  H       2.677427     -1.618171     -6.763966
  H       6.935465     -1.683404     -5.990275
  H       6.975798     -0.743046     -4.465402
  H       6.642007      0.088780     -6.016587
  H       2.745021      0.156472     -4.109913
  H       3.965818      1.257696     -4.825360
  H       4.294085      0.439180     -3.265406
  H       2.238115     -2.787424     -4.225342
  H       2.873776     -1.063596      1.051364
71
Coordinates from ORCA-job my_molecule E -2465.734807676078
  Pt      2.888956     -2.874730     -0.318331
  O       0.157854     -0.135306      0.959313
  O       1.715003     -1.651871     -1.750495
  P       1.470160      0.598209      0.770706
  P       0.724096     -2.414811     -2.680385
  O       0.549291     -3.930848     -2.130474
  O       1.277928     -2.494426     -4.200871
  O       1.858766      0.867341     -0.801556
  O       2.772988     -0.149642      1.436331
  C       1.557864      2.281589      1.524895
  C      -0.936917     -1.655881     -2.848755
  C      -1.744044     -2.479213     -3.874954
  C      -0.742641     -0.202739     -3.334440
  C      -1.611002     -1.684203     -1.461064
  C       0.414000      3.110363      0.905226
  C       1.333148      2.109864      3.040812
  C       2.923346      2.931941      1.236581
  H       1.243775     -4.050984     -1.403692
  H       1.786140     -0.003717     -1.287265
  H      -1.269498     -2.473578     -4.875936
  H      -2.757016     -2.035433     -3.966741
  H      -1.858431     -3.532375     -3.549431
  H      -0.221272     -0.162704     -4.311801
  H      -0.178397      0.404588     -2.599207
  H      -1.741497      0.263252     -3.457927
  H      -1.782772     -2.723524     -1.117295
  H      -2.600716     -1.190101     -1.546425
  H      -1.025431     -1.144430     -0.685787
  H      -0.563670      2.611156      1.058774
  H       0.560232      3.253079     -0.184167
  H       0.377624      4.110777      1.385392
  H       0.378142      1.585752      3.245500
  H       1.298295      3.107535      3.526399
  H       2.152678      1.526337      3.504157
  H       3.102873      3.015940      0.146875
  H       3.752245      2.342902      1.675591
  H       2.949975      3.952661      1.672769
  Si      2.054478     -3.922955      1.584123
  C       2.258787     -5.812023      1.472052
  C       2.896824     -3.302580      3.167536
  C       0.207242     -3.488578      1.656142
  H       3.328928     -6.101988      1.457896
  H       1.783518     -6.227884      0.559924
  H       1.777163     -6.291603      2.351321
  H       2.820091     -2.199715      3.251739
  H       3.969841     -3.579709      3.197163
  H       2.398388     -3.751884      4.053409
  H       0.058123     -2.388708      1.652141
  H      -0.223400     -3.913420      2.589395
  H      -0.345320     -3.919943      0.796804
  H       4.002844     -3.666724      0.419968
  C       4.044160     -3.938405     -4.614149
  C       4.412715     -2.714815     -4.163942
  H       4.020507     -4.824187     -3.952418
  H       3.757065     -4.116495     -5.666228
  Si      4.598406     -1.126958     -5.199253
  H       4.693060     -2.647234     -3.092143
  C       3.773827     -1.388324     -6.883571
  C       6.456557     -0.819221     -5.408878
  C       3.802528      0.312252     -4.266511
  H       4.252277     -2.215822     -7.447274
  H       3.857351     -0.472529     -7.504653
  H       2.694628     -1.623146     -6.777523
  H       6.944070     -1.653946     -5.952574
  H       6.958079     -0.718065     -4.424861
  H       6.636897      0.115434     -5.979067
  H       2.713685      0.155349     -4.132315
  H       3.942909      1.262510     -4.821798
  H       4.244645      0.443378     -3.257631
  H       2.231678     -2.792216     -4.226768
  H       2.879683     -1.069367      1.041711
71
Coordinates from ORCA-job my_molecule E -2465.734870274370
  Pt      2.877839     -2.895946     -0.329143
  O       0.171079     -0.135022      0.943840
  O       1.700668     -1.672597     -1.756339
  P       1.488815      0.587924      0.753306
  P       0.706400     -2.433826     -2.684187
  O       0.528907     -3.948824     -2.132429
  O       1.258689     -2.514476     -4.205235
  O       1.882108      0.847218     -0.819028
  O       2.784269     -0.168172      1.423360
  C       1.591364      2.274777      1.499826
  C      -0.953403     -1.671308     -2.850627
  C      -1.765409     -2.498934     -3.868779
  C      -0.755253     -0.220882     -3.344325
  C      -1.620651     -1.689160     -1.459664
  C       0.449143      3.107309      0.882949
  C       1.374315      2.112412      3.018286
  C       2.960421      2.913069      1.200452
  H       1.221227     -4.068763     -1.404295
  H       1.792910     -0.023826     -1.301777
  H      -1.294141     -2.501653     -4.871365
  H      -2.777467     -2.053219     -3.961615
  H      -1.882968     -3.549367     -3.535514
  H      -0.239160     -0.188712     -4.324596
  H      -0.183048      0.385776     -2.615050
  H      -1.753232      0.247563     -3.465604
  H      -1.794435     -2.725885     -1.109549
  H      -2.610128     -1.194346     -1.543256
  H      -1.032340     -1.145519     -0.689003
  H      -0.530397      2.613991      1.043544
  H       0.589817      3.247805     -0.207598
  H       0.420350      4.110048      1.359419
  H       0.416286      1.597216      3.230313
  H       1.348259      3.112933      3.498858
  H       2.192854      1.525408      3.478981
  H       3.134059      2.991495      0.109329
  H       3.786916      2.319842      1.638455
  H       2.998758      3.935481      1.632287
  Si      2.047564     -3.927277      1.584589
  C       2.239404     -5.817982      1.483110
  C       2.901984     -3.303839      3.159609
  C       0.204363     -3.479955      1.664430
  H       3.308178     -6.113047      1.457400
  H       1.750444     -6.238934      0.580496
  H       1.767603     -6.289398      2.372283
  H       2.828722     -2.200317      3.243326
  H       3.974571     -3.583270      3.187052
  H       2.405619     -3.748843      4.049273
  H       0.058729     -2.379652      1.655248
  H      -0.224888     -3.898717      2.601053
  H      -0.356235     -3.913408      0.811333
  H       3.993533     -3.692017      0.401979
  C       4.051572     -3.918399     -4.608233
  C       4.399221     -2.693150     -4.146087
  H       4.031425     -4.809493     -3.954681
  H       3.778284     -4.091644     -5.664968
  Si      4.586149     -1.099132     -5.171476
  H       4.667690     -2.630077     -3.070648
  C       3.812275     -1.369134     -6.878620
  C       6.443748     -0.757820     -5.323935
  C       3.736064      0.324364     -4.262055
  H       4.324059     -2.184221     -7.432057
  H       3.893676     -0.449422     -7.493913
  H       2.736353     -1.628529     -6.801925
  H       6.960579     -1.580780     -5.858751
  H       6.915667     -0.654055     -4.325657
  H       6.623685      0.182013     -5.885471
  H       2.644108      0.155759     -4.178166
  H       3.891188      1.279592     -4.804552
  H       4.131413      0.454564     -3.233788
  H       2.214452     -2.804708     -4.231489
  H       2.889686     -1.085655      1.023156
71
Coordinates from ORCA-job my_molecule E -2465.734922857290
  Pt      2.860120     -2.938801     -0.345700
  O       0.197817     -0.131180      0.907288
  O       1.683557     -1.713551     -1.769295
  P       1.525984      0.570741      0.712452
  P       0.681094     -2.471162     -2.692584
  O       0.495431     -3.983101     -2.136606
  O       1.230250     -2.557366     -4.213987
  O       1.926225      0.808104     -0.861456
  O       2.809284     -0.198207      1.391408
  C       1.654090      2.263584      1.442596
  C      -0.975624     -1.700277     -2.856867
  C      -1.797561     -2.536014     -3.859797
  C      -0.771265     -0.255845     -3.367558
  C      -1.632695     -1.698382     -1.461478
  C       0.514833      3.102330      0.829389
  C       1.449992      2.119160      2.965234
  C       3.028880      2.880655      1.123965
  H       1.186355     -4.104701     -1.408326
  H       1.811242     -0.063923     -1.337484
  H      -1.331358     -2.555193     -4.864446
  H      -2.807268     -2.085313     -3.954687
  H      -1.922705     -3.580418     -3.511402
  H      -0.264543     -0.237318     -4.352821
  H      -0.185982      0.352753     -2.650081
  H      -1.767251      0.218446     -3.485618
  H      -1.807707     -2.730671     -1.098840
  H      -2.622559     -1.203503     -1.543001
  H      -1.038084     -1.148767     -0.700588
  H      -0.468585      2.620501      1.002040
  H       0.647815      3.236110     -0.262845
  H       0.499366      4.109087      1.298472
  H       0.487489      1.618246      3.191190
  H       1.438375      3.125109      3.434963
  H       2.266181      1.527751      3.424465
  H       3.193762      2.947080      0.030823
  H       3.850890      2.280928      1.561399
  H       3.086594      3.906419      1.545665
  Si      2.033159     -3.937534      1.587309
  C       2.204183     -5.831115      1.509233
  C       2.906351     -3.304576      3.147820
  C       0.196115     -3.467140      1.676385
  H       3.270030     -6.134892      1.466222
  H       1.691895     -6.261752      0.624542
  H       1.749766     -6.286241      2.416164
  H       2.841102     -2.199222      3.223900
  H       3.976862     -3.590419      3.171561
  H       2.412367     -3.737725      4.045113
  H       0.059329     -2.365834      1.655506
  H      -0.230582     -3.869679      2.621372
  H      -0.378389     -3.905471      0.834767
  H       3.974172     -3.744187      0.377762
  C       4.067829     -3.885967     -4.609640
  C       4.378083     -2.663958     -4.114460
  H       4.060283     -4.793270     -3.979978
  H       3.814745     -4.038757     -5.674643
  Si      4.555050     -1.046387     -5.104477
  H       4.630658     -2.619085     -3.034014
  C       3.855948     -1.309940     -6.845286
  C       6.405518     -0.646083     -5.172953
  C       3.622794      0.337042     -4.213742
  H       4.418878     -2.095270     -7.392997
  H       3.926211     -0.376711     -7.440102
  H       2.788047     -1.610475     -6.813326
  H       6.967488     -1.441481     -5.703445
  H       6.833611     -0.549663     -4.154429
  H       6.579337      0.310068     -5.709562
  H       2.531439      0.146508     -4.207188
  H       3.795055      1.307817     -4.723001
  H       3.946226      0.449535     -3.158682
  H       2.190333     -2.832380     -4.238649
  H       2.907980     -1.115819      0.989126
71
Coordinates from ORCA-job my_molecule E -2465.734964222665
  Pt      2.859292     -2.930659     -0.343685
  O       0.187339     -0.128270      0.914365
  O       1.685213     -1.701533     -1.768199
  P       1.515963      0.573799      0.723204
  P       0.683277     -2.459004     -2.691184
  O       0.504539     -3.973286     -2.139210
  O       1.229422     -2.538160     -4.214147
  O       1.916415      0.818557     -0.849481
  O       2.799158     -0.197032      1.400428
  C       1.643603      2.264082      1.458748
  C      -0.977515     -1.695290     -2.849982
  C      -1.796891     -2.533406     -3.853261
  C      -0.782282     -0.248791     -3.357419
  C      -1.632977     -1.698491     -1.453841
  C       0.505029      3.105365      0.847754
  C       1.438223      2.115203      2.980888
  C       3.018980      2.881157      1.144784
  H       1.196766     -4.094051     -1.410934
  H       1.805718     -0.051486     -1.330372
  H      -1.333548     -2.545358     -4.859087
  H      -2.809919     -2.089407     -3.943401
  H      -1.915361     -3.579616     -3.507673
  H      -0.276923     -0.223065     -4.343171
  H      -0.200053      0.361287     -2.638759
  H      -1.780612      0.220964     -3.473233
  H      -1.800638     -2.731860     -1.090959
  H      -2.625947     -1.209696     -1.534343
  H      -1.041118     -1.145311     -0.693648
  H      -0.478964      2.624764      1.018846
  H       0.638982      3.241331     -0.243982
  H       0.490181      4.110973      1.319235
  H       0.474895      1.615194      3.204933
  H       1.428006      3.119789      3.453775
  H       2.252537      1.521075      3.440021
  H       3.185851      2.954132      0.052377
  H       3.838925      2.277174      1.579906
  H       3.077825      3.904281      1.573190
  Si      2.035322     -3.936274      1.587034
  C       2.206301     -5.829543      1.501818
  C       2.909230     -3.308157      3.149054
  C       0.198367     -3.467223      1.676480
  H       3.271852     -6.133860      1.461153
  H       1.695199     -6.256291      0.614795
  H       1.750947     -6.288598      2.406120
  H       2.845587     -2.203216      3.227256
  H       3.979470     -3.595568      3.171860
  H       2.414089     -3.742990      4.044670
  H       0.060479     -2.365688      1.659387
  H      -0.228623     -3.871351      2.620537
  H      -0.375660     -3.903120      0.832679
  H       3.970875     -3.740720      0.377667
  C       4.060593     -3.884922     -4.598739
  C       4.379680     -2.659409     -4.117622
  H       4.045541     -4.784719     -3.958388
  H       3.811701     -4.047964     -5.663348
  Si      4.569071     -1.056295     -5.128950
  H       4.629488     -2.601978     -3.037006
  C       3.879636     -1.340665     -6.870118
  C       6.420850     -0.659726     -5.192359
  C       3.633742      0.341696     -4.262861
  H       4.442509     -2.134076     -7.405206
  H       3.955726     -0.413922     -7.474685
  H       2.810569     -1.636687     -6.840502
  H       6.984107     -1.463842     -5.708274
  H       6.843652     -0.547580     -4.173034
  H       6.599520      0.288084     -5.741921
  H       2.542154      0.150767     -4.258798
  H       3.809049      1.304720     -4.785397
  H       3.952748      0.468377     -3.208039
  H       2.188329     -2.817746     -4.241593
  H       2.898819     -1.113618      0.995936
71
Coordinates from ORCA-job my_molecule E -2465.735017734124
  Pt      2.852577     -2.943280     -0.344786
  O       0.184418     -0.121019      0.902764
  O       1.684063     -1.711302     -1.772754
  P       1.517720      0.571616      0.710615
  P       0.678737     -2.468536     -2.692699
  O       0.500257     -3.981724     -2.138492
  O       1.220408     -2.548222     -4.217459
  O       1.916473      0.812633     -0.863533
  O       2.797546     -0.204042      1.389063
  C       1.656393      2.262280      1.441345
  C      -0.982888     -1.706466     -2.847441
  C      -1.805184     -2.548460     -3.845652
  C      -0.792878     -0.262207     -3.360197
  C      -1.635412     -1.704325     -1.449581
  C       0.519943      3.108716      0.833754
  C       1.455790      2.118015      2.964696
  C       3.033478      2.871154      1.123631
  H       1.197520     -4.103773     -1.413647
  H       1.804947     -0.058124     -1.343357
  H      -1.345549     -2.559777     -4.852992
  H      -2.819337     -2.106655     -3.931976
  H      -1.921235     -3.594219     -3.497425
  H      -0.289594     -0.235625     -4.346707
  H      -0.211440      0.351940     -2.644527
  H      -1.791190      0.207404     -3.474828
  H      -1.795017     -2.735839     -1.078356
  H      -2.631190     -1.220976     -1.531585
  H      -1.043913     -1.143793     -0.695043
  H      -0.465967      2.635036      1.009691
  H       0.651054      3.239060     -0.259050
  H       0.512503      4.115397      1.302953
  H       0.491058      1.623851      3.194634
  H       1.453929      3.123898      3.435624
  H       2.267243      1.520348      3.424458
  H       3.199231      2.943356      0.030913
  H       3.849726      2.260590      1.556503
  H       3.099325      3.893796      1.553020
  Si      2.030142     -3.940633      1.591139
  C       2.189536     -5.835213      1.505927
  C       2.913166     -3.315626      3.149498
  C       0.196781     -3.459170      1.681649
  H       3.253150     -6.145252      1.465140
  H       1.673404     -6.257715      0.619912
  H       1.735123     -6.293412      2.410996
  H       2.860744     -2.210366      3.222435
  H       3.980558     -3.614216      3.168550
  H       2.416337     -3.743356      4.046880
  H       0.067542     -2.356179      1.662829
  H      -0.231588     -3.854418      2.628613
  H      -0.381208     -3.892916      0.839407
  H       3.957979     -3.761680      0.375651
  C       4.060895     -3.872575     -4.596736
  C       4.380748     -2.649679     -4.108945
  H       4.046865     -4.776941     -3.962768
  H       3.819084     -4.028375     -5.664059
  Si      4.569336     -1.041634     -5.113467
  H       4.626846     -2.596387     -3.027082
  C       3.894789     -1.323867     -6.860460
  C       6.419058     -0.632456     -5.165706
  C       3.619006      0.349652     -4.251163
  H       4.466104     -2.109465     -7.396881
  H       3.966174     -0.391444     -7.457427
  H       2.827361     -1.626052     -6.839443
  H       6.990311     -1.432066     -5.680380
  H       6.835315     -0.517059     -4.143926
  H       6.594376      0.317813     -5.711944
  H       2.528575      0.150726     -4.256339
  H       3.792640      1.314616     -4.770415
  H       3.928266      0.474300     -3.193130
  H       2.180309     -2.823972     -4.246193
  H       2.893041     -1.122456      0.988356
71
Coordinates from ORCA-job my_molecule E -2465.735061769695
  Pt      2.847224     -2.956735     -0.346691
  O       0.189826     -0.118722      0.894666
  O       1.681473     -1.721328     -1.775163
  P       1.526528      0.567088      0.702894
  P       0.672914     -2.475563     -2.693438
  O       0.492127     -3.988476     -2.140135
  O       1.209968     -2.555327     -4.219699
  O       1.924861      0.803534     -0.872631
  O       2.803362     -0.213374      1.382184
  C       1.672678      2.257866      1.430729
  C      -0.987447     -1.710619     -2.844427
  C      -1.815075     -2.551377     -3.839623
  C      -0.797994     -0.268011     -3.360090
  C      -1.638563     -1.705845     -1.445572
  C       0.538040      3.108598      0.824908
  C       1.474132      2.115816      2.954388
  C       3.051539      2.861718      1.110804
  H       1.191277     -4.112477     -1.417087
  H       1.808360     -0.066710     -1.351951
  H      -1.359219     -2.563095     -4.848869
  H      -2.828532     -2.106952     -3.920869
  H      -1.931536     -3.597015     -3.491499
  H      -0.299145     -0.242408     -4.349148
  H      -0.212930      0.347900     -2.648453
  H      -1.795380      0.204526     -3.469839
  H      -1.793358     -2.736461     -1.070160
  H      -2.635718     -1.225611     -1.528027
  H      -1.046108     -1.141388     -0.694751
  H      -0.449658      2.639310      1.003638
  H       0.667453      3.235560     -0.268297
  H       0.536151      4.115268      1.293576
  H       0.507455      1.626441      3.187514
  H       1.479104      3.121836      3.424558
  H       2.283323      1.514877      3.414563
  H       3.216539      2.933278      0.017870
  H       3.865754      2.247238      1.541803
  H       3.121317      3.883611      1.541210
  Si      2.026946     -3.946883      1.594193
  C       2.177751     -5.842274      1.511729
  C       2.918347     -3.322315      3.148206
  C       0.196117     -3.455946      1.688771
  H       3.239668     -6.157042      1.465451
  H       1.653760     -6.263290      0.629683
  H       1.727804     -6.297400      2.420471
  H       2.871841     -2.216656      3.216428
  H       3.983998     -3.627114      3.162195
  H       2.423339     -3.745499      4.048371
  H       0.074345     -2.351672      1.672285
  H      -0.231200     -3.848428      2.637445
  H      -0.386544     -3.884945      0.847766
  H       3.948658     -3.782617      0.372274
  C       4.060046     -3.857681     -4.586181
  C       4.372157     -2.633514     -4.096468
  H       4.043895     -4.761548     -3.950680
  H       3.832263     -4.016055     -5.655782
  Si      4.562471     -1.029015     -5.106260
  H       4.607119     -2.574565     -3.012721
  C       3.933868     -1.330504     -6.867171
  C       6.407027     -0.594814     -5.118063
  C       3.571902      0.356097     -4.279589
  H       4.526819     -2.110228     -7.387580
  H       4.004756     -0.399051     -7.465702
  H       2.869862     -1.645837     -6.869433
  H       7.001304     -1.389276     -5.613513
  H       6.796885     -0.466347     -4.087494
  H       6.581377      0.354993     -5.665569
  H       2.484183      0.145227     -4.317936
  H       3.751076      1.319398     -4.799831
  H       3.845640      0.490208     -3.213076
  H       2.171038     -2.826752     -4.250605
  H       2.895051     -1.132373      0.981587
71
Coordinates from ORCA-job my_molecule E -2465.735110298207
  Pt      2.833232     -2.990465     -0.353530
  O       0.210568     -0.110937      0.872462
  O       1.669641     -1.752414     -1.783442
  P       1.555951      0.555796      0.675521
  P       0.654591     -2.503667     -2.696455
  O       0.470551     -4.014809     -2.139993
  O       1.182252     -2.588377     -4.225947
  O       1.952308      0.774180     -0.903795
  O       2.824634     -0.236197      1.357525
  C       1.725007      2.249628      1.389987
  C      -1.002614     -1.731699     -2.839883
  C      -1.843232     -2.573909     -3.823878
  C      -0.812144     -0.294877     -3.367659
  C      -1.645940     -1.714783     -1.436506
  C       0.596719      3.110057      0.784687
  C       1.532770      2.119941      2.915416
  C       3.109195      2.836212      1.060589
  H       1.171203     -4.139972     -1.418585
  H       1.818374     -0.096663     -1.376990
  H      -1.397227     -2.592798     -4.837241
  H      -2.854959     -2.124171     -3.895996
  H      -1.959907     -3.617581     -3.470302
  H      -0.325122     -0.279256     -4.363097
  H      -0.215338      0.324510     -2.668651
  H      -1.807117      0.184424     -3.466996
  H      -1.793729     -2.742344     -1.049055
  H      -2.645117     -1.238831     -1.517854
  H      -1.049513     -1.139265     -0.696837
  H      -0.395432      2.654179      0.973561
  H       0.720662      3.224790     -0.310687
  H       0.611101      4.119536      1.246598
  H       0.559161      1.648595      3.157945
  H       1.559083      3.128066      3.379958
  H       2.334214      1.508600      3.375484
  H       3.270477      2.900428     -0.033374
  H       3.917591      2.213111      1.489891
  H       3.192127      3.858408      1.487984
  Si      2.014713     -3.960564      1.598149
  C       2.143046     -5.857696      1.523366
  C       2.924641     -3.337224      3.141862
  C       0.191032     -3.446972      1.703055
  H       3.200678     -6.184876      1.464165
  H       1.602235     -6.275169      0.649664
  H       1.700522     -6.304268      2.439904
  H       2.889745     -2.230998      3.202222
  H       3.986926     -3.654020      3.146652
  H       2.433455     -3.751252      4.048127
  H       0.084782     -2.340744      1.688550
  H      -0.234104     -3.833551      2.655289
  H      -0.401947     -3.867890      0.866094
  H       3.929430     -3.825398      0.362788
  C       4.064979     -3.822381     -4.572614
  C       4.347604     -2.597769     -4.066798
  H       4.051456     -4.731175     -3.943254
  H       3.870576     -3.977664     -5.648860
  Si      4.537005     -0.987749     -5.067368
  H       4.555238     -2.537794     -2.978552
  C       4.015448     -1.308275     -6.859560
  C       6.363878     -0.493488     -4.979188
  C       3.455247      0.367852     -4.308326
  H       4.660310     -2.063400     -7.353031
  H       4.081296     -0.370676     -7.449498
  H       2.964450     -1.660038     -6.917800
  H       7.010478     -1.267424     -5.439799
  H       6.691976     -0.351373     -3.929030
  H       6.534672      0.462368     -5.516781
  H       2.379067      0.129718     -4.428724
  H       3.647080      1.336318     -4.814305
  H       3.643844      0.507839     -3.224174
  H       2.145403     -2.850659     -4.261309
  H       2.905126     -1.157803      0.960319
71
Coordinates from ORCA-job my_molecule E -2465.735147294419
  Pt      2.832857     -2.989939     -0.350915
  O       0.212054     -0.114854      0.877314
  O       1.667073     -1.752404     -1.778047
  P       1.554372      0.556880      0.675688
  P       0.652785     -2.502978     -2.692894
  O       0.467733     -4.014630     -2.137604
  O       1.182537     -2.585892     -4.221614
  O       1.944644      0.776624     -0.904974
  O       2.828110     -0.231625      1.352072
  C       1.719780      2.250450      1.392061
  C      -1.003316     -1.729388     -2.836916
  C      -1.844827     -2.568289     -3.822950
  C      -0.810944     -0.291506     -3.362895
  C      -1.646271     -1.715290     -1.433505
  C       0.588602      3.108519      0.788692
  C       1.528940      2.117038      2.917256
  C       3.101856      2.842794      1.062145
  H       1.168332     -4.139896     -1.416328
  H       1.812452     -0.095928     -1.375693
  H      -1.398426     -2.586111     -4.836464
  H      -2.855894     -2.116451     -3.894549
  H      -1.962132     -3.612882     -3.471843
  H      -0.325068     -0.276751     -4.358990
  H      -0.212355      0.326404     -2.664290
  H      -1.805913      0.188983     -3.460274
  H      -1.792789     -2.743245     -1.047272
  H      -2.645748     -1.239728     -1.513835
  H      -1.049100     -1.140453     -0.693839
  H      -0.402095      2.649139      0.978862
  H       0.710582      3.224053     -0.306873
  H       0.601848      4.117705      1.251089
  H       0.556745      1.642190      3.159262
  H       1.552970      3.123780      3.384520
  H       2.332817      1.506543      3.374123
  H       3.262001      2.908466     -0.031753
  H       3.913366      2.222525      1.490015
  H       3.180777      3.864700      1.490361
  Si      2.015015     -3.961637      1.600321
  C       2.143603     -5.858532      1.524627
  C       2.927047     -3.338405      3.143140
  C       0.191054     -3.448924      1.706062
  H       3.201147     -6.186480      1.465785
  H       1.605106     -6.274248      0.648460
  H       1.697287     -6.305320      2.439358
  H       2.892997     -2.232102      3.203093
  H       3.989193     -3.655946      3.145259
  H       2.438258     -3.751636      4.051275
  H       0.085243     -2.343160      1.689195
  H      -0.233979     -3.835611      2.658386
  H      -0.400951     -3.871151      0.869195
  H       3.930828     -3.822200      0.366347
  C       4.060491     -3.823221     -4.574272
  C       4.349077     -2.599041     -4.073258
  H       4.043301     -4.730081     -3.942138
  H       3.865590     -3.981267     -5.650451
  Si      4.542635     -0.989917     -5.074632
  H       4.556637     -2.538437     -2.984605
  C       4.021446     -1.309968     -6.867148
  C       6.371113     -0.501549     -4.986772
  C       3.465650      0.369593     -4.316580
  H       4.663862     -2.067537     -7.360416
  H       4.092007     -0.372846     -7.457310
  H       2.969100     -1.658171     -6.926624
  H       7.016044     -1.277730     -5.445617
  H       6.699154     -0.359741     -3.936675
  H       6.544487      0.453573     -5.525095
  H       2.388419      0.132950     -4.430689
  H       3.656112      1.336273     -4.826793
  H       3.660214      0.514361     -3.234072
  H       2.145340     -2.850693     -4.255768
  H       2.903428     -1.156501      0.961358
71
Coordinates from ORCA-job my_molecule E -2465.735202695325
  Pt      2.828937     -2.996410     -0.348784
  O       0.221146     -0.117077      0.881228
  O       1.660959     -1.760399     -1.774195
  P       1.561441      0.556076      0.668884
  P       0.646180     -2.509764     -2.689571
  O       0.462129     -4.022108     -2.134139
  O       1.174939     -2.589600     -4.218344
  O       1.943313      0.772637     -0.913926
  O       2.838537     -0.232148      1.338566
  C       1.730355      2.250655      1.383040
  C      -1.009880     -1.736227     -2.830698
  C      -1.854659     -2.575983     -3.813949
  C      -0.817895     -0.297833     -3.358936
  C      -1.646620     -1.721802     -1.425012
  C       0.598556      3.108393      0.779293
  C       1.541400      2.117021      2.908399
  C       3.111928      2.843723      1.050483
  H       1.163039     -4.146222     -1.413750
  H       1.806828     -0.102688     -1.378045
  H      -1.411691     -2.595083     -4.828999
  H      -2.866146     -2.124420     -3.883261
  H      -1.969856     -3.620465     -3.462103
  H      -0.341141     -0.288310     -4.359213
  H      -0.210622      0.318228     -2.666377
  H      -1.813906      0.183013     -3.448048
  H      -1.788422     -2.749149     -1.035967
  H      -2.647505     -1.249084     -1.502546
  H      -1.048588     -1.142325     -0.689066
  H      -0.391420      2.649163      0.973742
  H       0.717258      3.220973     -0.316808
  H       0.615127      4.119534      1.237625
  H       0.567933      1.644989      3.150096
  H       1.568736      3.122897      3.377461
  H       2.344768      1.502988      3.360998
  H       3.269841      2.910008     -0.043554
  H       3.925231      2.224206      1.476646
  H       3.191247      3.865328      1.478340
  Si      2.010015     -3.965997      1.603161
  C       2.127162     -5.863167      1.524503
  C       2.931798     -3.348007      3.142524
  C       0.188538     -3.445440      1.715880
  H       3.182144     -6.199647      1.464004
  H       1.588347     -6.272085      0.645014
  H       1.672612     -6.307361      2.436562
  H       2.904155     -2.241536      3.204241
  H       3.992622     -3.670973      3.139149
  H       2.446242     -3.758418      4.054367
  H       0.086682     -2.340034      1.694077
  H      -0.235641     -3.831163      2.669033
  H      -0.405718     -3.868807      0.880941
  H       3.929224     -3.825024      0.369455
  C       4.055206     -3.813101     -4.574281
  C       4.343231     -2.588279     -4.073870
  H       4.032880     -4.718123     -3.939488
  H       3.869078     -3.975310     -5.651545
  Si      4.543451     -0.978820     -5.073078
  H       4.541173     -2.526666     -2.983338
  C       4.054499     -1.301989     -6.874402
  C       6.367536     -0.480865     -4.955233
  C       3.446718      0.376240     -4.336568
  H       4.707699     -2.056682     -7.358699
  H       4.133780     -0.364009     -7.461936
  H       3.004743     -1.654993     -6.952647
  H       7.025907     -1.253588     -5.401334
  H       6.676567     -0.336828     -3.899817
  H       6.544845      0.474510     -5.491394
  H       2.372572      0.132314     -4.463209
  H       3.637110      1.341536     -4.850013
  H       3.626864      0.531379     -3.252851
  H       2.137093     -2.855632     -4.255476
  H       2.903701     -1.162920      0.958845
71
Coordinates from ORCA-job my_molecule E -2465.735239060501
  Pt      2.822250     -3.006720     -0.349906
  O       0.227714     -0.114511      0.879779
  O       1.653102     -1.769583     -1.773201
  P       1.569432      0.553801      0.660954
  P       0.636693     -2.517886     -2.688500
  O       0.452552     -4.030353     -2.133393
  O       1.164487     -2.595540     -4.217522
  O       1.948691      0.764452     -0.923140
  O       2.845870     -0.237827      1.327774
  C       1.745610      2.249094      1.372152
  C      -1.020004     -1.744341     -2.827049
  C      -1.867328     -2.587484     -3.804422
  C      -0.828610     -0.306793     -3.359352
  C      -1.650088     -1.725759     -1.418771
  C       0.616105      3.109095      0.767695
  C       1.557842      2.118163      2.898027
  C       3.128626      2.837437      1.037138
  H       1.154686     -4.155038     -1.414591
  H       1.804203     -0.111637     -1.383233
  H      -1.429696     -2.607304     -4.821679
  H      -2.880269     -2.138784     -3.869979
  H      -1.978754     -3.631622     -3.450158
  H      -0.360588     -0.301791     -4.363818
  H      -0.212846      0.307683     -2.673104
  H      -1.824973      0.175199     -3.441119
  H      -1.786915     -2.751555     -1.024443
  H      -2.653048     -1.257016     -1.493815
  H      -1.050473     -1.141112     -0.688340
  H      -0.375579      2.654782      0.965349
  H       0.733501      3.218108     -0.329048
  H       0.638136      4.122101      1.221747
  H       0.581453      1.652800      3.139957
  H       1.590525      3.124167      3.366430
  H       2.357773      1.498763      3.349343
  H       3.284786      2.903878     -0.057073
  H       3.941357      2.215983      1.461889
  H       3.212017      3.859107      1.464880
  Si      2.005560     -3.970519      1.605692
  C       2.107334     -5.868535      1.524155
  C       2.943231     -3.360360      3.138746
  C       0.189055     -3.436811      1.728600
  H       3.159062     -6.214730      1.461184
  H       1.564734     -6.269710      0.643370
  H       1.647782     -6.310143      2.434859
  H       2.926939     -2.253629      3.201039
  H       4.001341     -3.692278      3.127546
  H       2.461741     -3.764635      4.055402
  H       0.092516     -2.331367      1.702474
  H      -0.234084     -3.818218      2.683972
  H      -0.410580     -3.859819      0.897470
  H       3.922868     -3.835955      0.366420
  C       4.055389     -3.800120     -4.571281
  C       4.335406     -2.575037     -4.068951
  H       4.027180     -4.704854     -3.936387
  H       3.884475     -3.964090     -5.651069
  Si      4.541175     -0.965258     -5.066223
  H       4.518440     -2.512241     -2.975845
  C       4.096070     -1.296478     -6.877639
  C       6.356158     -0.446712     -4.908813
  C       3.414097      0.380903     -4.360327
  H       4.766465     -2.045659     -7.346679
  H       4.182211     -0.358252     -7.463926
  H       3.051370     -1.658446     -6.979829
  H       7.033356     -1.212782     -5.337560
  H       6.639982     -0.296842     -3.847032
  H       6.534990      0.509343     -5.443502
  H       2.345673      0.123821     -4.507003
  H       3.604027      1.344186     -4.878029
  H       3.571330      0.547301     -3.274670
  H       2.126981     -2.859454     -4.255207
  H       2.903797     -1.171327      0.953677
71
Coordinates from ORCA-job my_molecule E -2465.735281298743
  Pt      2.812285     -3.021440     -0.352771
  O       0.237944     -0.110567      0.879919
  O       1.643825     -1.781522     -1.774674
  P       1.581635      0.550676      0.651371
  P       0.625286     -2.528018     -2.689494
  O       0.442140     -4.040951     -2.135069
  O       1.149774     -2.602087     -4.219611
  O       1.955540      0.753169     -0.934926
  O       2.857470     -0.245163      1.314413
  C       1.768426      2.246959      1.357508
  C      -1.033076     -1.755773     -2.822049
  C      -1.883894     -2.605664     -3.789899
  C      -0.846250     -0.319455     -3.360277
  C      -1.653488     -1.731352     -1.409823
  C       0.641948      3.110583      0.752373
  C       1.583182      2.120647      2.884144
  C       3.153092      2.827668      1.017550
  H       1.147939     -4.167092     -1.419690
  H       1.801564     -0.124775     -1.389593
  H      -1.454062     -2.627070     -4.810318
  H      -2.899333     -2.162535     -3.850675
  H      -1.989217     -3.648580     -3.430777
  H      -0.391210     -0.318210     -4.370387
  H      -0.220257      0.294471     -2.682748
  H      -1.843535      0.162413     -3.431362
  H      -1.782796     -2.755250     -1.007939
  H      -2.659414     -1.268424     -1.481751
  H      -1.052730     -1.139291     -0.686841
  H      -0.351703      2.663756      0.954600
  H       0.756888      3.214544     -0.345053
  H       0.670573      4.126144      1.200510
  H       0.603736      1.663350      3.127498
  H       1.622643      3.127667      3.350414
  H       2.378941      1.495501      3.334998
  H       3.305151      2.895177     -0.077135
  H       3.964857      2.202476      1.438448
  H       3.244071      3.848909      1.445037
  Si      1.998913     -3.977427      1.607718
  C       2.078458     -5.876585      1.522831
  C       2.957596     -3.378089      3.132455
  C       0.189001     -3.425640      1.745420
  H       3.125141     -6.236147      1.456697
  H       1.529572     -6.268015      0.641649
  H       1.613686     -6.313759      2.432593
  H       2.957252     -2.271143      3.193875
  H       4.011374     -3.722658      3.112237
  H       2.480059     -3.772982      4.055309
  H       0.099777     -2.319822      1.711971
  H      -0.229965     -3.798515      2.705936
  H      -0.420312     -3.849400      0.921494
  H       3.912419     -3.853989      0.360294
  C       4.054019     -3.781342     -4.566179
  C       4.323426     -2.554856     -4.060122
  H       4.016312     -4.685048     -3.930375
  H       3.903598     -3.947806     -5.648254
  Si      4.537655     -0.945781     -5.055719
  H       4.485902     -2.489930     -2.963969
  C       4.157166     -1.290396     -6.879481
  C       6.337393     -0.396258     -4.841374
  C       3.366709      0.387081     -4.396689
  H       4.852069     -2.032445     -7.323351
  H       4.252874     -0.353211     -7.466117
  H       3.120846     -1.664668     -7.015849
  H       7.041369     -1.153454     -5.242795
  H       6.583055     -0.236233     -3.771654
  H       6.519407      0.559897     -5.375141
  H       2.308011      0.109426     -4.573348
  H       3.556671      1.346895     -4.921549
  H       3.488363      0.569235     -3.308809
  H       2.112836     -2.862799     -4.260661
  H       2.905717     -1.181777      0.947128
71
Coordinates from ORCA-job my_molecule E -2465.735317575073
  Pt      2.804881     -3.032278     -0.355573
  O       0.242382     -0.105567      0.880011
  O       1.638404     -1.788860     -1.776936
  P       1.588145      0.549200      0.645818
  P       0.618681     -2.534305     -2.691227
  O       0.436261     -4.047240     -2.137627
  O       1.141523     -2.605912     -4.221955
  O       1.959230      0.745671     -0.942000
  O       2.862692     -0.249955      1.308162
  C       1.782499      2.246167      1.347567
  C      -1.041569     -1.764017     -2.820366
  C      -1.893542     -2.620052     -3.780773
  C      -0.859358     -0.329031     -3.363057
  C      -1.655918     -1.734115     -1.405589
  C       0.659919      3.112892      0.740538
  C       1.597028      2.124176      2.874575
  C       3.168821      2.819930      1.004867
  H       1.144527     -4.175317     -1.424501
  H       1.799679     -0.132769     -1.393848
  H      -1.468710     -2.642579     -4.803035
  H      -2.911324     -2.182210     -3.838748
  H      -1.993703     -3.661926     -3.417467
  H      -0.412755     -0.328257     -4.376884
  H      -0.227961      0.285799     -2.691193
  H      -1.857280      0.152222     -3.427044
  H      -1.780851     -2.756103     -0.997504
  H      -2.663697     -1.274774     -1.475767
  H      -1.053224     -1.137245     -0.688816
  H      -0.336215      2.672883      0.944390
  H       0.774857      3.213106     -0.357264
  H       0.692551      4.130256      1.184285
  H       0.615650      1.671904      3.118591
  H       1.640410      3.132364      3.338337
  H       2.389328      1.495873      3.327561
  H       3.318285      2.888169     -0.090360
  H       3.979274      2.191354      1.423583
  H       3.265472      3.841180      1.431962
  Si      1.995545     -3.982242      1.608985
  C       2.057039     -5.882328      1.521971
  C       2.970446     -3.392282      3.127435
  C       0.191129     -3.415700      1.758271
  H       3.099898     -6.252534      1.455315
  H       1.503632     -6.266700      0.640718
  H       1.588085     -6.315891      2.431251
  H       2.983456     -2.285321      3.187367
  H       4.020521     -3.747642      3.101287
  H       2.494963     -3.779113      4.054338
  H       0.107550     -2.309413      1.718210
  H      -0.223185     -3.779081      2.724132
  H      -0.427281     -3.840803      0.941635
  H       3.903789     -3.868803      0.354064
  C       4.056022     -3.769888     -4.566031
  C       4.317027     -2.543660     -4.055397
  H       4.010770     -4.673921     -3.931094
  H       3.917888     -3.935195     -5.650110
  Si      4.535718     -0.933336     -5.047336
  H       4.465223     -2.479663     -2.957192
  C       4.193193     -1.283533     -6.877344
  C       6.324500     -0.362745     -4.799317
  C       3.338813      0.389012     -4.413305
  H       4.901160     -2.022882     -7.304191
  H       4.296554     -0.347383     -7.464445
  H       3.162025     -1.662536     -7.035430
  H       7.044221     -1.113443     -5.184703
  H       6.547693     -0.197039     -3.725356
  H       6.507440      0.593731     -5.332280
  H       2.286535      0.095644     -4.602653
  H       3.524459      1.346103     -4.944993
  H       3.443958      0.580635     -3.325267
  H       2.105845     -2.861549     -4.263714
  H       2.905287     -1.187880      0.944555
71
Coordinates from ORCA-job my_molecule E -2465.735361168773
  Pt      2.799203     -3.040682     -0.358414
  O       0.244105     -0.103381      0.881931
  O       1.637061     -1.793765     -1.780883
  P       1.590419      0.548391      0.642496
  P       0.617668     -2.538724     -2.695448
  O       0.435912     -4.051945     -2.143142
  O       1.140079     -2.608275     -4.226697
  O       1.956556      0.741732     -0.946948
  O       2.865963     -0.251331      1.302827
  C       1.788935      2.245868      1.341157
  C      -1.043884     -1.770385     -2.822055
  C      -1.896506     -2.632595     -3.775936
  C      -0.867561     -0.337001     -3.369363
  C      -1.653974     -1.735154     -1.405197
  C       0.668923      3.114395      0.732794
  C       1.602738      2.126893      2.868156
  C       3.175788      2.815362      0.995903
  H       1.145526     -4.181342     -1.430368
  H       1.798001     -0.138053     -1.397358
  H      -1.474252     -2.657844     -4.799091
  H      -2.915898     -2.198857     -3.833737
  H      -1.992855     -3.672932     -3.407510
  H      -0.427305     -0.334738     -4.385744
  H      -0.234206      0.280882     -2.701819
  H      -1.866239      0.142841     -3.428206
  H      -1.777407     -2.755708     -0.992455
  H      -2.662122     -1.276318     -1.474601
  H      -1.049151     -1.136157     -0.692449
  H      -0.328774      2.678512      0.936439
  H       0.784185      3.212823     -0.365241
  H       0.702023      4.132678      1.174090
  H       0.621859      1.673820      3.112648
  H       1.645444      3.136278      3.329654
  H       2.394460      1.499974      3.324156
  H       3.321220      2.885767     -0.099877
  H       3.986050      2.184336      1.410715
  H       3.276525      3.836195      1.422948
  Si      1.993484     -3.984783      1.610368
  C       2.040174     -5.885377      1.525153
  C       2.978974     -3.399720      3.124321
  C       0.193055     -3.407186      1.767319
  H       3.079456     -6.264527      1.460932
  H       1.483846     -6.267109      0.644826
  H       1.567796     -6.313384      2.434866
  H       3.002624     -2.292651      3.179774
  H       4.025545     -3.764379      3.096944
  H       2.502511     -3.777546      4.054070
  H       0.113260     -2.300684      1.717468
  H      -0.214852     -3.757603      2.740565
  H      -0.434540     -3.837368      0.960131
  H       3.896051     -3.881917      0.349526
  C       4.058316     -3.765230     -4.573009
  C       4.316596     -2.540195     -4.056350
  H       4.006618     -4.670396     -3.940497
  H       3.921883     -3.925768     -5.657621
  Si      4.536351     -0.925289     -5.039979
  H       4.458970     -2.481927     -2.956863
  C       4.201918     -1.270565     -6.871978
  C       6.321679     -0.346501     -4.782022
  C       3.332095      0.390192     -4.403780
  H       4.911055     -2.012346     -7.292392
  H       4.311848     -0.335604     -7.460062
  H       3.170669     -1.645539     -7.037399
  H       7.046221     -1.094227     -5.164762
  H       6.538682     -0.181196     -3.706718
  H       6.504515      0.611260     -5.313078
  H       2.281500      0.086310     -4.586148
  H       3.507538      1.345847     -4.941766
  H       3.442881      0.585304     -3.317072
  H       2.106132     -2.857819     -4.269107
  H       2.902948     -1.190389      0.943057
71
Coordinates from ORCA-job my_molecule E -2465.735394941539
  Pt      2.793885     -3.053024     -0.363064
  O       0.248634     -0.103554      0.879637
  O       1.633426     -1.802138     -1.783349
  P       1.596107      0.544286      0.636755
  P       0.612854     -2.544463     -2.698603
  O       0.430114     -4.058731     -2.150766
  O       1.133379     -2.610764     -4.230245
  O       1.957830      0.733594     -0.954583
  O       2.871251     -0.257244      1.296358
  C       1.799456      2.242608      1.331163
  C      -1.048204     -1.774795     -2.821099
  C      -1.905068     -2.637854     -3.770437
  C      -0.875143     -0.343033     -3.371725
  C      -1.654959     -1.737375     -1.402208
  C       0.681773      3.112809      0.721777
  C       1.612907      2.127335      2.858090
  C       3.186968      2.808280      0.982328
  H       1.137908     -4.189449     -1.436040
  H       1.796594     -0.146491     -1.403284
  H      -1.484750     -2.666767     -4.794537
  H      -2.923798     -2.201966     -3.826800
  H      -2.001526     -3.677283     -3.399273
  H      -0.441578     -0.339957     -4.391019
  H      -0.238908      0.277707     -2.709254
  H      -1.873410      0.138102     -3.424052
  H      -1.776090     -2.757480     -0.987440
  H      -2.663528     -1.279282     -1.469967
  H      -1.048073     -1.137221     -0.692105
  H      -0.317255      2.679454      0.925613
  H       0.796979      3.209289     -0.376471
  H       0.715981      4.131405      1.161925
  H       0.633218      1.672054      3.104284
  H       1.654594      3.137842      3.316971
  H       2.405257      1.503455      3.317101
  H       3.328192      2.878500     -0.114296
  H       3.997479      2.175498      1.394288
  H       3.290504      3.829152      1.408213
  Si      1.993637     -3.989794      1.612132
  C       2.027494     -5.890684      1.531989
  C       2.989865     -3.407054      3.120164
  C       0.197276     -3.400879      1.778419
  H       3.063917     -6.277788      1.465374
  H       1.464366     -6.272340      0.656083
  H       1.556970     -6.312344      2.446090
  H       3.021248     -2.299983      3.170402
  H       4.033613     -3.779759      3.089833
  H       2.514230     -3.777813      4.052860
  H       0.123096     -2.294141      1.721036
  H      -0.202062     -3.739355      2.759212
  H      -0.441957     -3.834093      0.982270
  H       3.889168     -3.899982      0.340430
  C       4.055554     -3.754960     -4.574990
  C       4.307322     -2.530596     -4.053397
  H       3.995987     -4.660041     -3.942147
  H       3.924926     -3.913057     -5.660466
  Si      4.533190     -0.913867     -5.032501
  H       4.440030     -2.475647     -2.952634
  C       4.231451     -1.262357     -6.869105
  C       6.309918     -0.321766     -4.743118
  C       3.309738      0.393704     -4.415713
  H       4.948745     -2.006695     -7.271185
  H       4.351682     -0.330536     -7.459918
  H       3.203887     -1.638031     -7.053949
  H       7.046254     -1.064907     -5.111705
  H       6.506085     -0.154058     -3.664248
  H       6.495291      0.636406     -5.272229
  H       2.264397      0.078805     -4.610330
  H       3.482896      1.348354     -4.956158
  H       3.406476      0.593220     -3.328758
  H       2.101895     -2.850605     -4.273083
  H       2.904731     -1.196605      0.937542
71
Coordinates from ORCA-job my_molecule E -2465.735420465211
  Pt      2.791487     -3.052566     -0.365175
  O       0.246269     -0.104661      0.882354
  O       1.631747     -1.801681     -1.784356
  P       1.592917      0.544049      0.637270
  P       0.613520     -2.544877     -2.699984
  O       0.435428     -4.060760     -2.154353
  O       1.134352     -2.607024     -4.232084
  O       1.949917      0.734654     -0.955142
  O       2.870225     -0.256747      1.293812
  C       1.796871      2.242714      1.330766
  C      -1.048489     -1.777811     -2.820141
  C      -1.906799     -2.641789     -3.768208
  C      -0.879590     -0.346890     -3.372499
  C      -1.652904     -1.740579     -1.399821
  C       0.680804      3.113883      0.719357
  C       1.607603      2.128468      2.857345
  C       3.185495      2.807030      0.982925
  H       1.139384     -4.188449     -1.434783
  H       1.792668     -0.145619     -1.404469
  H      -1.486483     -2.673101     -4.792247
  H      -2.924825     -2.204404     -3.824072
  H      -2.003019     -3.680711     -3.395688
  H      -0.447783     -0.343154     -4.392552
  H      -0.244919      0.277735     -2.712382
  H      -1.878669      0.132423     -3.422953
  H      -1.774529     -2.760910     -0.985273
  H      -2.660956     -1.280920     -1.464556
  H      -1.042739     -1.140730     -0.691792
  H      -0.318734      2.680919      0.921716
  H       0.797471      3.209757     -0.378747
  H       0.715118      4.132153      1.160078
  H       0.628450      1.670765      3.102642
  H       1.647455      3.139003      3.315951
  H       2.400329      1.507113      3.318462
  H       3.325383      2.878453     -0.113829
  H       3.995509      2.172689      1.393299
  H       3.289629      3.827046      1.409872
  Si      1.995280     -3.988646      1.611835
  C       2.024049     -5.888880      1.533702
  C       2.992958     -3.406040      3.118854
  C       0.200105     -3.397201      1.780419
  H       3.058894     -6.280605      1.469748
  H       1.460225     -6.271660      0.658665
  H       1.551978     -6.306645      2.448841
  H       3.025393     -2.298821      3.167161
  H       4.035610     -3.781328      3.089832
  H       2.515292     -3.775276      4.051280
  H       0.126795     -2.290688      1.718440
  H      -0.194023     -3.729083      2.765780
  H      -0.445059     -3.833438      0.990580
  H       3.886928     -3.900802      0.337404
  C       4.054688     -3.756261     -4.584024
  C       4.306864     -2.532336     -4.060668
  H       3.991527     -4.660477     -3.950911
  H       3.921570     -3.912228     -5.669363
  Si      4.537840     -0.912878     -5.034280
  H       4.439136     -2.481635     -2.959666
  C       4.229510     -1.253099     -6.871057
  C       6.317377     -0.328317     -4.745014
  C       3.320758      0.394860     -4.405504
  H       4.940516     -2.003793     -7.273514
  H       4.356002     -0.322814     -7.462869
  H       3.198751     -1.621196     -7.054028
  H       7.050905     -1.072444     -5.117092
  H       6.514970     -0.165202     -3.665768
  H       6.504199      0.630709     -5.271912
  H       2.273708      0.079149     -4.589104
  H       3.486787      1.350607     -4.946078
  H       3.430494      0.592346     -3.319393
  H       2.104704     -2.841666     -4.276768
  H       2.901988     -1.196434      0.935820
71
Coordinates from ORCA-job my_molecule E -2465.735440865232
  Pt      2.786715     -3.059461     -0.368303
  O       0.249127     -0.107884      0.880454
  O       1.626757     -1.806218     -1.784955
  P       1.594762      0.541389      0.630782
  P       0.607980     -2.548882     -2.702172
  O       0.432219     -4.066612     -2.161096
  O       1.126711     -2.606467     -4.234922
  O       1.943910      0.733514     -0.963135
  O       2.874892     -0.259946      1.280610
  C       1.802411      2.239760      1.324012
  C      -1.053552     -1.781756     -2.817870
  C      -1.916071     -2.645194     -3.763630
  C      -0.886820     -0.351252     -3.372570
  C      -1.653400     -1.745370     -1.395562
  C       0.684626      3.111459      0.716514
  C       1.617535      2.125295      2.851014
  C       3.190454      2.803846      0.972092
  H       1.133239     -4.192940     -1.438805
  H       1.787177     -0.147730     -1.410931
  H      -1.497051     -2.679510     -4.788243
  H      -2.932681     -2.203975     -3.817929
  H      -2.013792     -3.683595     -3.389590
  H      -0.458003     -0.349850     -4.393894
  H      -0.250976      0.275689     -2.715924
  H      -1.886371      0.127725     -3.420362
  H      -1.772409     -2.766045     -0.981094
  H      -2.661706     -1.286052     -1.456774
  H      -1.042315     -1.144467     -0.688725
  H      -0.314008      2.676981      0.921961
  H       0.797939      3.207654     -0.382010
  H       0.721351      4.128957      1.158843
  H       0.640539      1.664226      3.099209
  H       1.655997      3.135617      3.309970
  H       2.413585      1.506693      3.309711
  H       3.325784      2.876562     -0.125066
  H       4.001377      2.167900      1.377875
  H       3.296965      3.822815      1.400231
  Si      1.994538     -3.990223      1.614011
  C       2.019624     -5.890219      1.542598
  C       2.996168     -3.403777      3.116721
  C       0.201268     -3.394565      1.786974
  H       3.053370     -6.285014      1.476567
  H       1.451410     -6.276454      0.671831
  H       1.550507     -6.303047      2.461730
  H       3.029931     -2.296590      3.161533
  H       4.037875     -3.781937      3.087219
  H       2.518630     -3.770246      4.050515
  H       0.130259     -2.288432      1.719161
  H      -0.187631     -3.719373      2.776990
  H      -0.450256     -3.834835      1.005089
  H       3.881814     -3.911204      0.330456
  C       4.048931     -3.749179     -4.588052
  C       4.300734     -2.525966     -4.062444
  H       3.981666     -4.653599     -3.955576
  H       3.918201     -3.903347     -5.673952
  Si      4.540457     -0.904783     -5.031736
  H       4.429561     -2.478644     -2.960659
  C       4.252038     -1.243387     -6.872037
  C       6.316706     -0.320660     -4.721103
  C       3.315280      0.399954     -4.412664
  H       4.966413     -1.996326     -7.265056
  H       4.386614     -0.314061     -7.463626
  H       3.223014     -1.611485     -7.065486
  H       7.055425     -1.063365     -5.085428
  H       6.501046     -0.158554     -3.639479
  H       6.507715      0.639073     -5.244950
  H       2.270479      0.081760     -4.605214
  H       3.482072      1.357679     -4.949357
  H       3.416023      0.596191     -3.325555
  H       2.098166     -2.834336     -4.281357
  H       2.903367     -1.200679      0.924705
71
Coordinates from ORCA-job my_molecule E -2465.735459615434
  Pt      2.784088     -3.059211     -0.369763
  O       0.251357     -0.110139      0.883254
  O       1.621892     -1.807244     -1.785047
  P       1.595794      0.539633      0.629075
  P       0.602962     -2.550019     -2.701511
  O       0.430590     -4.068994     -2.162036
  O       1.119656     -2.604015     -4.234778
  O       1.939685      0.732909     -0.966035
  O       2.878122     -0.262049      1.273859
  C       1.806225      2.238633      1.320631
  C      -1.059262     -1.784061     -2.814232
  C      -1.924224     -2.645883     -3.759588
  C      -0.892400     -0.353291     -3.368806
  C      -1.656125     -1.749681     -1.390888
  C       0.688304      3.111027      0.713374
  C       1.623298      2.126306      2.847985
  C       3.195010      2.800878      0.967117
  H       1.129202     -4.193196     -1.437438
  H       1.782217     -0.148079     -1.413282
  H      -1.506382     -2.680859     -4.784884
  H      -2.939972     -2.202047     -3.811859
  H      -2.023387     -3.684494     -3.385812
  H      -0.464738     -0.354410     -4.390642
  H      -0.254790      0.272842     -2.713650
  H      -1.892095      0.125726     -3.415372
  H      -1.774137     -2.770727     -0.977472
  H      -2.664661     -1.290307     -1.448646
  H      -1.043015     -1.149393     -0.685028
  H      -0.310163      2.677148      0.921202
  H       0.800820      3.205462     -0.385026
  H       0.728578      4.128513      1.155812
  H       0.646254      1.666153      3.097698
  H       1.661967      3.137157      3.305659
  H       2.419844      1.508145      3.305964
  H       3.329742      2.872435     -0.130085
  H       4.005508      2.163696      1.372587
  H       3.303431      3.819690      1.395338
  Si      1.995422     -3.990861      1.613476
  C       2.018854     -5.890520      1.540811
  C       2.999879     -3.405781      3.114754
  C       0.203156     -3.393748      1.790541
  H       3.051861     -6.287592      1.473096
  H       1.448377     -6.275671      0.670874
  H       1.550409     -6.302893      2.460784
  H       3.033051     -2.298629      3.161692
  H       4.041430     -3.784184      3.082548
  H       2.523809     -3.774939      4.048429
  H       0.133361     -2.287792      1.724564
  H      -0.183834     -3.720181      2.780852
  H      -0.451313     -3.831710      1.009744
  H       3.880390     -3.911063      0.326721
  C       4.044905     -3.744547     -4.586554
  C       4.292862     -2.520256     -4.062281
  H       3.973741     -4.647130     -3.952269
  H       3.922362     -3.901602     -5.672999
  Si      4.541460     -0.900553     -5.032315
  H       4.415196     -2.470934     -2.959663
  C       4.276217     -1.243295     -6.875715
  C       6.312820     -0.314603     -4.700674
  C       3.306370      0.401647     -4.429118
  H       4.995165     -1.997427     -7.258441
  H       4.418021     -0.315455     -7.467677
  H       3.249766     -1.613347     -7.079469
  H       7.058046     -1.055573     -5.054687
  H       6.482497     -0.150529     -3.616989
  H       6.507235      0.644896     -5.223271
  H       2.264242      0.080520     -4.631345
  H       3.474710      1.360045     -4.963697
  H       3.395739      0.599578     -3.341286
  H       2.092213     -2.827690     -4.283937
  H       2.906697     -1.203186      0.917920
71
Coordinates from ORCA-job my_molecule E -2465.735475791385
  Pt      2.781165     -3.059519     -0.370531
  O       0.252970     -0.111570      0.886427
  O       1.618924     -1.807439     -1.786343
  P       1.595918      0.538981      0.626212
  P       0.599732     -2.550930     -2.702943
  O       0.430372     -4.070711     -2.164566
  O       1.114660     -2.602391     -4.236821
  O       1.932398      0.734498     -0.970069
  O       2.881853     -0.262342      1.263953
  C       1.809437      2.237689      1.317479
  C      -1.063575     -1.787050     -2.812765
  C      -1.929379     -2.649345     -3.756650
  C      -0.897570     -0.355643     -3.367373
  C      -1.656395     -1.753135     -1.388186
  C       0.690581      3.110853      0.712486
  C       1.630464      2.126078      2.845413
  C       3.198240      2.798372      0.961625
  H       1.128970     -4.194280     -1.440130
  H       1.776836     -0.147201     -1.416723
  H      -1.513135     -2.684450     -4.782322
  H      -2.945091     -2.205570     -3.807721
  H      -2.028774     -3.687561     -3.381941
  H      -0.470128     -0.358782     -4.389472
  H      -0.258746      0.269600     -2.712682
  H      -1.897920      0.122317     -3.413738
  H      -1.773759     -2.774080     -0.974647
  H      -2.664752     -1.293018     -1.442580
  H      -1.041306     -1.153052     -0.684038
  H      -0.307592      2.677840      0.923592
  H       0.801266      3.204371     -0.386080
  H       0.734222      4.128207      1.155243
  H       0.653951      1.666438      3.097575
  H       1.669477      3.137299      3.302256
  H       2.428490      1.508110      3.301444
  H       3.331912      2.870501     -0.135624
  H       4.008154      2.159238      1.365163
  H       3.309906      3.816405      1.391252
  Si      1.993872     -3.990507      1.613486
  C       2.018923     -5.890227      1.542868
  C       2.997798     -3.403078      3.114184
  C       0.201390     -3.394724      1.790794
  H       3.051899     -6.287478      1.475656
  H       1.448048     -6.276441      0.673704
  H       1.550351     -6.301589      2.463251
  H       3.030097     -2.295956      3.161386
  H       4.039554     -3.780892      3.082544
  H       2.521452     -3.773054      4.047557
  H       0.130941     -2.288854      1.725908
  H      -0.186076     -3.723341      2.780302
  H      -0.451932     -3.832154      1.008732
  H       3.877176     -3.912208      0.324883
  C       4.043700     -3.741397     -4.586686
  C       4.290202     -2.516994     -4.062373
  H       3.970206     -4.644242     -3.953612
  H       3.926071     -3.898800     -5.674057
  Si      4.543322     -0.896962     -5.030920
  H       4.409323     -2.467318     -2.959229
  C       4.287268     -1.239859     -6.876043
  C       6.312966     -0.311898     -4.691196
  C       3.304795      0.402993     -4.431041
  H       5.006518     -1.995309     -7.255488
  H       4.433506     -0.312130     -7.467048
  H       3.261299     -1.609027     -7.083365
  H       7.060683     -1.052186     -5.041203
  H       6.476858     -0.146395     -3.606648
  H       6.509142      0.647948     -5.212500
  H       2.263442      0.080373     -4.635049
  H       3.471757      1.363415     -4.962383
  H       3.391529      0.599322     -3.342486
  H       2.087711     -2.822086     -4.288244
  H       2.908743     -1.204424      0.910230
71
Coordinates from ORCA-job my_molecule E -2465.735489337979
  Pt      2.778250     -3.061231     -0.372579
  O       0.256696     -0.112872      0.890979
  O       1.615790     -1.808755     -1.788805
  P       1.598173      0.538007      0.623961
  P       0.595812     -2.552063     -2.704614
  O       0.427705     -4.072295     -2.167096
  O       1.108307     -2.602141     -4.239256
  O       1.927659      0.733449     -0.973784
  O       2.887598     -0.262134      1.255937
  C       1.814205      2.237167      1.313621
  C      -1.068625     -1.789420     -2.810899
  C      -1.935205     -2.652232     -3.752869
  C      -0.903493     -0.357327     -3.365003
  C      -1.657750     -1.755782     -1.385003
  C       0.694944      3.110894      0.709830
  C       1.638859      2.127428      2.842171
  C       3.202899      2.795844      0.955201
  H       1.127331     -4.196380     -1.443640
  H       1.773170     -0.148960     -1.419647
  H      -1.520535     -2.687324     -4.779225
  H      -2.951358     -2.209229     -3.803428
  H      -2.034402     -3.690166     -3.376954
  H      -0.477270     -0.360897     -4.387594
  H      -0.262601      0.266022     -2.710693
  H      -1.903931      0.120651     -3.409851
  H      -1.774116     -2.776666     -0.971391
  H      -2.666172     -1.295326     -1.436743
  H      -1.040745     -1.156562     -0.682009
  H      -0.303274      2.679684      0.923554
  H       0.804300      3.202834     -0.388801
  H       0.740800      4.128584      1.151884
  H       0.662910      1.668438      3.097162
  H       1.678531      3.139613      3.297053
  H       2.438039      1.509968      3.297072
  H       3.335769      2.867765     -0.142112
  H       4.012220      2.155329      1.357767
  H       3.317574      3.813571      1.385444
  Si      1.993147     -3.991461      1.612229
  C       2.017258     -5.891632      1.542386
  C       2.999695     -3.404519      3.111606
  C       0.201021     -3.395327      1.792771
  H       3.049443     -6.290011      1.474110
  H       1.444617     -6.277206      0.674135
  H       1.549021     -6.302018      2.463080
  H       3.033041     -2.297376      3.159576
  H       4.041071     -3.782846      3.078444
  H       2.524521     -3.774791      4.045403
  H       0.131090     -2.289345      1.729514
  H      -0.185878     -3.726138      2.781794
  H      -0.452109     -3.830943      1.009348
  H       3.873855     -3.915471      0.321706
  C       4.040643     -3.736960     -4.583671
  C       4.283917     -2.511712     -4.060107
  H       3.962333     -4.639213     -3.950757
  H       3.931780     -3.896366     -5.671658
  Si      4.543094     -0.892707     -5.028462
  H       4.396363     -2.460108     -2.956110
  C       4.307074     -1.240113     -6.875742
  C       6.307853     -0.303368     -4.672902
  C       3.295293      0.403833     -4.441046
  H       5.029666     -1.996355     -7.246253
  H       4.459714     -0.313498     -7.466824
  H       3.283068     -1.609127     -7.092634
  H       7.061332     -1.042280     -5.013225
  H       6.459749     -0.134130     -3.587078
  H       6.507405      0.656360     -5.193347
  H       2.256516      0.076908     -4.651648
  H       3.462324      1.364896     -4.971038
  H       3.372943      0.601009     -3.351914
  H       2.082189     -2.817453     -4.293224
  H       2.913195     -1.204768      0.903990
71
Coordinates from ORCA-job my_molecule E -2465.735499607447
  Pt      2.777469     -3.062791     -0.374734
  O       0.259117     -0.113666      0.894563
  O       1.615064     -1.809522     -1.791157
  P       1.599455      0.537557      0.622833
  P       0.594173     -2.552295     -2.706370
  O       0.426715     -4.072714     -2.169655
  O       1.104433     -2.601471     -4.241685
  O       1.924045      0.732433     -0.975957
  O       2.891251     -0.261234      1.251869
  C       1.816569      2.236925      1.311121
  C      -1.071081     -1.790551     -2.809472
  C      -1.937964     -2.653467     -3.750247
  C      -0.907259     -0.357689     -3.362261
  C      -1.657358     -1.757297     -1.382470
  C       0.698172      3.111187      0.706865
  C       1.642130      2.128208      2.839808
  C       3.205617      2.793925      0.952162
  H       1.127609     -4.198089     -1.447462
  H       1.770867     -0.150749     -1.421122
  H      -1.524539     -2.688245     -4.776995
  H      -2.954400     -2.211367     -3.800722
  H      -2.036918     -3.691123     -3.373920
  H      -0.481939     -0.359466     -4.385349
  H      -0.265565      0.264600     -2.707480
  H      -1.907838      0.120021     -3.405584
  H      -1.773425     -2.778368     -0.969119
  H      -2.665457     -1.295957     -1.431881
  H      -1.038032     -1.159396     -0.680784
  H      -0.300749      2.681866      0.921041
  H       0.807802      3.202093     -0.391857
  H       0.744366      4.129318      1.147799
  H       0.666406      1.669751      3.096260
  H       1.682706      3.141009      3.293351
  H       2.441906      1.510956      3.294638
  H       3.339388      2.865978     -0.145111
  H       4.013657      2.152241      1.355170
  H       3.321971      3.811266      1.383339
  Si      1.992940     -3.991784      1.610516
  C       2.018018     -5.892468      1.543081
  C       2.999037     -3.403650      3.109805
  C       0.200072     -3.397397      1.791420
  H       3.050103     -6.290867      1.474866
  H       1.444994     -6.278815      0.675530
  H       1.549522     -6.301585      2.464151
  H       3.032387     -2.296457      3.157768
  H       4.040657     -3.781410      3.077455
  H       2.523762     -3.773616      4.043615
  H       0.129472     -2.291139      1.730558
  H      -0.187132     -3.731427      2.779084
  H      -0.451016     -3.831605      1.005389
  H       3.872241     -3.918000      0.319468
  C       4.039060     -3.734700     -4.581590
  C       4.280238     -2.508995     -4.058353
  H       3.956891     -4.636897     -3.948997
  H       3.935944     -3.895208     -5.670221
  Si      4.542802     -0.890874     -5.026790
  H       4.387834     -2.455982     -2.953906
  C       4.316143     -1.240682     -6.874914
  C       6.305183     -0.299050     -4.664283
  C       3.290942      0.403811     -4.444055
  H       5.038727     -1.998798     -7.241074
  H       4.473564     -0.314956     -7.466124
  H       3.292435     -1.606760     -7.097125
  H       7.061248     -1.037837     -4.999367
  H       6.451585     -0.127111     -3.577976
  H       6.507089      0.660208     -5.184750
  H       2.253316      0.074429     -4.656915
  H       3.457367      1.365677     -4.972661
  H       3.365477      0.600018     -3.354471
  H       2.079010     -2.812496     -4.297712
  H       2.916032     -1.204204      0.901246
71
Coordinates from ORCA-job my_molecule E -2465.735507693270
  Pt      2.777262     -3.065086     -0.377759
  O       0.261726     -0.114563      0.896415
  O       1.614159     -1.811207     -1.793306
  P       1.601226      0.537020      0.621357
  P       0.592175     -2.553465     -2.707429
  O       0.424161     -4.073775     -2.170803
  O       1.100384     -2.603402     -4.243493
  O       1.922721      0.730309     -0.978171
  O       2.894654     -0.260305      1.248939
  C       1.818546      2.236894      1.308488
  C      -1.073027     -1.791022     -2.807929
  C      -1.940709     -2.653448     -3.748104
  C      -0.909515     -0.357947     -3.359916
  C      -1.657813     -1.757989     -1.380095
  C       0.700698      3.111396      0.703973
  C       1.644664      2.128723      2.837391
  C       3.207716      2.793159      0.949298
  H       1.126168     -4.200204     -1.449673
  H       1.770184     -0.153344     -1.422747
  H      -1.527534     -2.688475     -4.775032
  H      -2.957109     -2.211155     -3.799149
  H      -2.039935     -3.690989     -3.371625
  H      -0.484601     -0.357732     -4.383090
  H      -0.267771      0.263970     -2.704766
  H      -1.909770      0.120268     -3.402378
  H      -1.774308     -2.779251     -0.967372
  H      -2.665456     -1.295654     -1.428271
  H      -1.036934     -1.161565     -0.678469
  H      -0.298681      2.683165      0.917830
  H       0.810229      3.201983     -0.394825
  H       0.746265      4.129923      1.143871
  H       0.669125      1.670335      3.094923
  H       1.686285      3.141819      3.290114
  H       2.445041      1.511907      3.291849
  H       3.342174      2.864880     -0.147944
  H       4.014915      2.151236      1.353208
  H       3.324296      3.810470      1.380729
  Si      1.993470     -3.992219      1.608475
  C       2.019462     -5.893264      1.543580
  C       2.999739     -3.402510      3.106975
  C       0.200005     -3.399515      1.790099
  H       3.051466     -6.291144      1.474178
  H       1.445507     -6.280752      0.677141
  H       1.551919     -6.301118      2.465426
  H       3.032763     -2.295187      3.154475
  H       4.041631     -3.779370      3.074748
  H       2.525200     -3.771874      4.041330
  H       0.128955     -2.293028      1.731805
  H      -0.187402     -3.736556      2.776650
  H      -0.449511     -3.832427      1.002066
  H       3.871730     -3.920990      0.316539
  C       4.036383     -3.733035     -4.579874
  C       4.275991     -2.507001     -4.056579
  H       3.950920     -4.635258     -3.947510
  H       3.938399     -3.894380     -5.668747
  Si      4.541990     -0.889485     -5.024571
  H       4.379174     -2.453338     -2.951769
  C       4.324484     -1.240590     -6.873467
  C       6.302242     -0.295662     -4.654486
  C       3.286589      0.403979     -4.446530
  H       5.047847     -1.999434     -7.235846
  H       4.485810     -0.315338     -7.464428
  H       3.301225     -1.604399     -7.101337
  H       7.060286     -1.034526     -4.984979
  H       6.443336     -0.122800     -3.567574
  H       6.507106      0.663333     -5.174513
  H       2.250201      0.073875     -4.664409
  H       3.454960      1.366709     -4.972746
  H       3.356215      0.597948     -3.356306
  H       2.075635     -2.811064     -4.300693
  H       2.918968     -1.203209      0.898929
71
Coordinates from ORCA-job my_molecule E -2465.735514978290
  Pt      2.778708     -3.065639     -0.380688
  O       0.261973     -0.115902      0.898477
  O       1.613987     -1.811290     -1.794302
  P       1.600574      0.536913      0.621959
  P       0.591010     -2.553034     -2.707499
  O       0.422482     -4.073143     -2.170756
  O       1.097895     -2.603236     -4.243915
  O       1.920710      0.729683     -0.977853
  O       2.894989     -0.259125      1.249234
  C       1.816682      2.236926      1.308773
  C      -1.073718     -1.789587     -2.806376
  C      -1.942136     -2.650491     -3.747350
  C      -0.910037     -0.356203     -3.356827
  C      -1.658168     -1.757767     -1.378224
  C       0.699746      3.111256      0.703164
  C       1.641420      2.128315      2.837510
  C       3.206245      2.793525      0.951160
  H       1.125207     -4.200221     -1.450348
  H       1.768537     -0.154241     -1.422119
  H      -1.528522     -2.685434     -4.774223
  H      -2.958017     -2.207139     -3.798948
  H      -2.042232     -3.688223     -3.371935
  H      -0.484456     -0.353340     -4.379680
  H      -0.269569      0.265843     -2.700354
  H      -1.910093      0.122237     -3.399584
  H      -1.776092     -2.779716     -0.967223
  H      -2.665015     -1.293819     -1.425317
  H      -1.035868     -1.163715     -0.675786
  H      -0.300187      2.683231      0.915255
  H       0.810154      3.202213     -0.395691
  H       0.743730      4.130135      1.142165
  H       0.665873      1.669627      3.094527
  H       1.683266      3.141337      3.290332
  H       2.442037      1.511769      3.292077
  H       3.342566      2.865159     -0.145889
  H       4.012529      2.151842      1.356879
  H       3.321448      3.810896      1.382845
  Si      1.995771     -3.991700      1.606349
  C       2.024703     -5.892870      1.543927
  C       3.000636     -3.399147      3.104428
  C       0.200924     -3.402697      1.787345
  H       3.057343     -6.289141      1.473826
  H       1.450778     -6.282241      0.678279
  H       1.558084     -6.300029      2.466590
  H       3.031898     -2.291699      3.151384
  H       4.043387     -3.773965      3.072979
  H       2.526725     -3.768238      4.039211
  H       0.128044     -2.296045      1.732672
  H      -0.187139     -3.744094      2.772057
  H      -0.446409     -3.834526      0.996950
  H       3.873329     -3.921308      0.313547
  C       4.033108     -3.733715     -4.578769
  C       4.273128     -2.507288     -4.056501
  H       3.944576     -4.635291     -3.945631
  H       3.938138     -3.896373     -5.667803
  Si      4.542853     -0.891206     -5.025596
  H       4.373185     -2.452550     -2.951460
  C       4.326885     -1.242815     -6.874399
  C       6.303606     -0.299289     -4.653776
  C       3.289075      0.403995     -4.447715
  H       5.048341     -2.004026     -7.235662
  H       4.492286     -0.318356     -7.465606
  H       3.302719     -1.602417     -7.104413
  H       7.060527     -1.040219     -4.982598
  H       6.443847     -0.126436     -3.566799
  H       6.511682      0.658556     -5.174600
  H       2.252351      0.075909     -4.667056
  H       3.459927      1.367010     -4.972365
  H       3.358634      0.595622     -3.357202
  H       2.073727     -2.808119     -4.301723
  H       2.919987     -1.201687      0.898749
71
Coordinates from ORCA-job my_molecule E -2465.735521899271
  Pt      2.779493     -3.067877     -0.384073
  O       0.263255     -0.116512      0.897576
  O       1.612907     -1.813201     -1.795441
  P       1.601467      0.536405      0.619545
  P       0.588546     -2.554977     -2.707124
  O       0.419465     -4.074620     -2.169203
  O       1.093982     -2.606527     -4.244120
  O       1.920673      0.727851     -0.980535
  O       2.896391     -0.259169      1.246315
  C       1.817484      2.236716      1.305739
  C      -1.075436     -1.790005     -2.804658
  C      -1.945224     -2.649889     -3.745747
  C      -0.911249     -0.357025     -3.355180
  C      -1.659485     -1.758309     -1.376202
  C       0.700983      3.111133      0.699873
  C       1.641687      2.127836      2.834574
  C       3.207431      2.793382      0.949000
  H       1.123244     -4.201843     -1.449829
  H       1.767548     -0.156133     -1.424263
  H      -1.531083     -2.685658     -4.772475
  H      -2.960392     -2.204850     -3.797575
  H      -2.046378     -3.687609     -3.370758
  H      -0.485106     -0.353141     -4.377697
  H      -0.272030      0.266060     -2.698474
  H      -1.911115      0.121660     -3.398805
  H      -1.779257     -2.780375     -0.966122
  H      -2.665510     -1.292695     -1.422442
  H      -1.035917     -1.165781     -0.673345
  H      -0.299195      2.683255      0.911237
  H       0.811063      3.202240     -0.399081
  H       0.744604      4.130383      1.137797
  H       0.665680      1.669807      3.091316
  H       1.684702      3.140508      3.287791
  H       2.442087      1.510751      3.288666
  H       3.344845      2.864392     -0.147926
  H       4.012978      2.151863      1.356173
  H       3.321479      3.811023      1.380201
  Si      1.997371     -3.991447      1.604570
  C       2.028158     -5.892494      1.545307
  C       3.001855     -3.395328      3.101159
  C       0.201765     -3.404816      1.785030
  H       3.061216     -6.287504      1.474137
  H       1.453617     -6.283878      0.680912
  H       1.563166     -6.298392      2.469287
  H       3.031717     -2.287751      3.146528
  H       4.045163     -3.768677      3.069972
  H       2.528903     -3.763352      4.036930
  H       0.127641     -2.298067      1.733553
  H      -0.187152     -3.749689      2.768299
  H      -0.444122     -3.835608      0.993051
  H       3.874423     -3.923637      0.309831
  C       4.029682     -3.733193     -4.579772
  C       4.269525     -2.507337     -4.055881
  H       3.939515     -4.635409     -3.947461
  H       3.938242     -3.895154     -5.669106
  Si      4.542760     -0.890587     -5.022846
  H       4.366098     -2.453351     -2.950643
  C       4.330157     -1.238702     -6.872520
  C       6.303471     -0.300893     -4.645935
  C       3.289522      0.405049     -4.444609
  H       5.051475     -1.999833     -7.234188
  H       4.498437     -0.313237     -7.461394
  H       3.305882     -1.595942     -7.105893
  H       7.059565     -1.043011     -4.974047
  H       6.441780     -0.130815     -3.558312
  H       6.514738      0.656999     -5.165454
  H       2.252975      0.080209     -4.669181
  H       3.464620      1.369454     -4.965133
  H       3.356161      0.592032     -3.353227
  H       2.070288     -2.809661     -4.301959
  H       2.921072     -1.201797      0.896357
71
Coordinates from ORCA-job my_molecule E -2465.735528988029
  Pt      2.780709     -3.067486     -0.387248
  O       0.261602     -0.118154      0.899365
  O       1.611500     -1.812191     -1.795530
  P       1.598839      0.536386      0.620505
  P       0.586231     -2.553894     -2.706316
  O       0.416710     -4.073204     -2.167448
  O       1.091510     -2.605436     -4.243298
  O       1.917187      0.728859     -0.979591
  O       2.894900     -0.258557      1.245694
  C       1.813488      2.236500      1.307477
  C      -1.076970     -1.787705     -2.803528
  C      -1.947443     -2.645708     -3.746307
  C      -0.911721     -0.354542     -3.352727
  C      -1.661901     -1.757619     -1.375411
  C       0.696611      3.110208      0.701649
  C       1.636815      2.126526      2.836238
  C       3.203339      2.794725      0.952175
  H       1.121707     -4.200293     -1.449207
  H       1.763709     -0.154963     -1.423456
  H      -1.531950     -2.681593     -4.772597
  H      -2.961692     -2.198662     -3.798508
  H      -2.050257     -3.683734     -3.372600
  H      -0.483492     -0.349494     -4.374268
  H      -0.274654      0.268854     -2.694224
  H      -1.911561      0.123919     -3.398620
  H      -1.784764     -2.780369     -0.967684
  H      -2.666740     -1.289488     -1.421261
  H      -1.037766     -1.167958     -0.670420
  H      -0.303253      2.681127      0.912130
  H       0.806481      3.202109     -0.397328
  H       0.739394      4.129571      1.139434
  H       0.660945      1.667683      3.091816
  H       1.678669      3.138877      3.290300
  H       2.437395      1.509721      3.290093
  H       3.341707      2.865417     -0.144642
  H       4.008952      2.154082      1.360494
  H       3.315311      3.812818      1.382742
  Si      2.001424     -3.990406      1.602907
  C       2.036149     -5.891191      1.545847
  C       3.005603     -3.389957      3.097696
  C       0.204510     -3.407875      1.783214
  H       3.070244     -6.283773      1.473989
  H       1.461502     -6.284903      0.682527
  H       1.573349     -6.296921      2.471122
  H       3.033113     -2.282312      3.141407
  H       4.049753     -3.761138      3.066166
  H       2.534287     -3.757431      4.034511
  H       0.127766     -2.301195      1.735368
  H      -0.184946     -3.756899      2.764872
  H      -0.440040     -3.837913      0.989783
  H       3.876649     -3.923110      0.304909
  C       4.024282     -3.735006     -4.579896
  C       4.266603     -2.509148     -4.057082
  H       3.930732     -4.636144     -3.946685
  H       3.935175     -3.897999     -5.669327
  Si      4.545560     -0.893743     -5.024882
  H       4.360206     -2.454149     -2.951564
  C       4.331745     -1.240460     -6.874499
  C       6.308550     -0.310578     -4.647339
  C       3.297476      0.406103     -4.445038
  H       5.050307     -2.004463     -7.236008
  H       4.505032     -0.315666     -7.463077
  H       3.306140     -1.593422     -7.108417
  H       7.061132     -1.056410     -4.975363
  H       6.447586     -0.142047     -3.559706
  H       6.524068      0.645786     -5.167741
  H       2.259431      0.086561     -4.669828
  H       3.476958      1.370175     -4.964574
  H       3.365957      0.591141     -3.353568
  H       2.068117     -2.807623     -4.300834
  H       2.920340     -1.200969      0.895307
71
Coordinates from ORCA-job my_molecule E -2465.735536469525
  Pt      2.780372     -3.069779     -0.390816
  O       0.262309     -0.118394      0.897491
  O       1.609051     -1.813823     -1.796768
  P       1.599330      0.535694      0.616801
  P       0.582347     -2.555888     -2.706006
  O       0.412852     -4.074610     -2.165260
  O       1.086636     -2.608293     -4.243409
  O       1.916230      0.727750     -0.983677
  O       2.896159     -0.259806      1.239788
  C       1.815081      2.235765      1.303342
  C      -1.080514     -1.788986     -2.802596
  C      -1.952089     -2.646624     -3.745080
  C      -0.914961     -0.356140     -3.352403
  C      -1.665083     -1.758571     -1.374532
  C       0.697805      3.109472      0.698180
  C       1.638816      2.125799      2.832218
  C       3.205063      2.793871      0.947751
  H       1.119817     -4.201454     -1.448852
  H       1.760886     -0.156060     -1.426984
  H      -1.536380     -2.683497     -4.771246
  H      -2.965702     -2.198135     -3.796717
  H      -2.055984     -3.684485     -3.371098
  H      -0.485728     -0.351997     -4.373526
  H      -0.278941      0.268095     -2.693727
  H      -1.915114      0.121653     -3.400015
  H      -1.790792     -2.781150     -0.967419
  H      -2.668859     -1.287965     -1.419717
  H      -1.039764     -1.170368     -0.669368
  H      -0.301816      2.680353      0.910041
  H       0.806282      3.200799     -0.400979
  H       0.742044      4.129078      1.135221
  H       0.662392      1.668177      3.087644
  H       1.681449      3.137845      3.286773
  H       2.438616      1.507747      3.285767
  H       3.343307      2.863590     -0.149059
  H       4.010575      2.153256      1.356438
  H       3.316921      3.812465      1.377014
  Si      2.003802     -3.990159      1.601705
  C       2.039856     -5.890672      1.548029
  C       3.009305     -3.385369      3.093735
  C       0.206623     -3.408869      1.782173
  H       3.074345     -6.282226      1.475702
  H       1.464211     -6.286411      0.686331
  H       1.579412     -6.295101      2.475085
  H       3.036027     -2.277698      3.134384
  H       4.053577     -3.756124      3.061611
  H       2.539269     -3.750929      4.032004
  H       0.128574     -2.302209      1.736537
  H      -0.183229     -3.760024      2.763042
  H      -0.437581     -3.838098      0.988097
  H       3.876923     -3.926386      0.299232
  C       4.019737     -3.733977     -4.582146
  C       4.262206     -2.509500     -4.056112
  H       3.924143     -4.636160     -3.950683
  H       3.934970     -3.894939     -5.672149
  Si      4.546166     -0.892375     -5.019875
  H       4.351085     -2.455601     -2.950213
  C       4.336354     -1.232939     -6.871031
  C       6.309399     -0.313747     -4.635633
  C       3.299310      0.408383     -4.439497
  H       5.055109     -1.996572     -7.233265
  H       4.513047     -0.306390     -7.455789
  H       3.311002     -1.584339     -7.108389
  H       7.060593     -1.061060     -4.963422
  H       6.446088     -0.148642     -3.547259
  H       6.528379      0.642934     -5.153986
  H       2.261014      0.093334     -4.668866
  H       3.483545      1.373611     -4.955335
  H       3.365122      0.589708     -3.347273
  H       2.063309     -2.810680     -4.300917
  H       2.920005     -1.202906      0.891047
71
Coordinates from ORCA-job my_molecule E -2465.735544267208
  Pt      2.779481     -3.070163     -0.394661
  O       0.261034     -0.119268      0.897916
  O       1.605822     -1.812877     -1.797858
  P       1.597417      0.535421      0.615658
  P       0.578370     -2.555046     -2.706356
  O       0.408900     -4.073541     -2.164712
  O       1.082543     -2.607105     -4.243828
  O       1.912188      0.728868     -0.985147
  O       2.895810     -0.260238      1.235286
  C       1.813489      2.235177      1.302912
  C      -1.084585     -1.788278     -2.802552
  C      -1.956207     -2.645327     -3.745585
  C      -0.918758     -0.354957     -3.351453
  C      -1.669475     -1.758686     -1.374786
  C       0.694878      3.108428      0.698930
  C       1.638121      2.124857      2.831900
  C       3.202823      2.793979      0.946414
  H       1.118197     -4.200489     -1.450396
  H       1.756104     -0.154806     -1.428511
  H      -1.540105     -2.682331     -4.771486
  H      -2.969525     -2.196158     -3.796907
  H      -2.061061     -3.683153     -3.371513
  H      -0.487571     -0.351268     -4.371748
  H      -0.283913      0.268767     -2.691229
  H      -1.919295      0.121728     -3.400959
  H      -1.798523     -2.781486     -0.969320
  H      -2.671965     -1.285146     -1.419826
  H      -1.043567     -1.172856     -0.668198
  H      -0.303883      2.678504      0.912690
  H       0.801788      3.199561     -0.400274
  H       0.740099      4.127914      1.136443
  H       0.661996      1.666748      3.087250
  H       1.679693      3.136864      3.286818
  H       2.437768      1.506774      3.285384
  H       3.339983      2.862862     -0.150631
  H       4.009220      2.154043      1.354665
  H       3.314624      3.813155      1.374350
  Si      2.007953     -3.989664      1.600254
  C       2.046286     -5.890071      1.549146
  C       3.015946     -3.381027      3.089206
  C       0.210453     -3.409905      1.782322
  H       3.081425     -6.279980      1.476465
  H       1.469710     -6.287886      0.689097
  H       1.588725     -6.294067      2.477891
  H       3.042115     -2.273381      3.126826
  H       4.060191     -3.751598      3.055620
  H       2.547677     -3.744972      4.028874
  H       0.130883     -2.303337      1.737999
  H      -0.178848     -3.762360      2.763003
  H      -0.433982     -3.838649      0.988096
  H       3.877180     -3.928085      0.291752
  C       4.013848     -3.734287     -4.582405
  C       4.257983     -2.510570     -4.055446
  H       3.913702     -4.636108     -3.951490
  H       3.933033     -3.894766     -5.672796
  Si      4.549008     -0.893682     -5.017608
  H       4.341856     -2.456003     -2.949093
  C       4.342018     -1.231449     -6.869585
  C       6.313494     -0.321549     -4.629261
  C       3.305553      0.410471     -4.437998
  H       5.059407     -1.997256     -7.230114
  H       4.523761     -0.305175     -7.453093
  H       3.316216     -1.580130     -7.109108
  H       7.062345     -1.071670     -4.955854
  H       6.448646     -0.157170     -3.540619
  H       6.536585      0.634187     -5.147480
  H       2.266060      0.100041     -4.667655
  H       3.493814      1.375158     -4.953575
  H       3.371470      0.591627     -3.345714
  H       2.059055     -2.810282     -4.301431
  H       2.918822     -1.203625      0.887184
71
Coordinates from ORCA-job my_molecule E -2465.735551256043
  Pt      2.777963     -3.071055     -0.398536
  O       0.260882     -0.119341      0.896300
  O       1.602309     -1.812704     -1.799700
  P       1.597129      0.535119      0.612865
  P       0.574374     -2.554856     -2.707698
  O       0.405548     -4.073353     -2.165781
  O       1.077798     -2.606444     -4.245496
  O       1.910031      0.729093     -0.988360
  O       2.896486     -0.261104      1.230108
  C       1.814483      2.234598      1.300282
  C      -1.089194     -1.789091     -2.802916
  C      -1.960581     -2.646350     -3.745531
  C      -0.924254     -0.355079     -3.351078
  C      -1.673493     -1.759877     -1.375058
  C       0.695197      3.107990      0.697334
  C       1.640186      2.124503      2.829208
  C       3.203462      2.792815      0.942022
  H       1.116675     -4.200656     -1.453195
  H       1.753066     -0.154571     -1.431598
  H      -1.545324     -2.683039     -4.771718
  H      -2.974219     -2.197812     -3.795997
  H      -2.065189     -3.684111     -3.370923
  H      -0.492274     -0.351600     -4.371142
  H      -0.289631      0.267902     -2.689903
  H      -1.925419      0.120255     -3.400815
  H      -1.804390     -2.782807     -0.970491
  H      -2.675223     -1.284304     -1.419659
  H      -1.046675     -1.175494     -0.668349
  H      -0.303259      2.678384      0.913442
  H       0.800880      3.198441     -0.402005
  H       0.741918      4.127255      1.135231
  H       0.664030      1.666831      3.085049
  H       1.682099      3.136561      3.284163
  H       2.439230      1.505688      3.283035
  H       3.339351      2.860718     -0.155212
  H       4.010407      2.153078      1.349702
  H       3.316561      3.812376      1.368781
  Si      2.011077     -3.989495      1.598643
  C       2.050277     -5.889996      1.550207
  C       3.021979     -3.378346      3.084986
  C       0.213790     -3.409626      1.782531
  H       3.085578     -6.279225      1.477161
  H       1.472600     -6.289475      0.691785
  H       1.595063     -6.293236      2.480431
  H       3.048574     -2.270727      3.119908
  H       4.065870     -3.749608      3.050161
  H       2.554832     -3.740542      4.025787
  H       0.133744     -2.303070      1.737671
  H      -0.174404     -3.761475      2.763842
  H      -0.431322     -3.838354      0.988737
  H       3.876649     -3.930413      0.284739
  C       4.009347     -3.733480     -4.582407
  C       4.253385     -2.510907     -4.052839
  H       3.905170     -4.635796     -3.952859
  H       3.933053     -3.892512     -5.673267
  Si      4.550447     -0.893421     -5.011963
  H       4.331783     -2.456219     -2.945996
  C       4.348547     -1.227902     -6.865184
  C       6.314921     -0.325201     -4.617960
  C       3.307860      0.412450     -4.434527
  H       5.066061     -1.994441     -7.223993
  H       4.533386     -0.301151     -7.446861
  H       3.323130     -1.575424     -7.107921
  H       7.063330     -1.076421     -4.942913
  H       6.447273     -0.160795     -3.529004
  H       6.540927      0.630459     -5.135159
  H       2.267917      0.104694     -4.665597
  H       3.499087      1.377060     -4.949433
  H       3.371797      0.593750     -3.342084
  H       2.053946     -2.810940     -4.303819
  H       2.917695     -1.204926      0.882926
71
Coordinates from ORCA-job my_molecule E -2465.735557065050
  Pt      2.776487     -3.070754     -0.402422
  O       0.259951     -0.119459      0.894746
  O       1.599038     -1.811318     -1.801467
  P       1.595992      0.535352      0.611143
  P       0.571288     -2.553384     -2.709593
  O       0.403353     -4.072326     -2.168703
  O       1.074113     -2.603889     -4.247670
  O       1.907507      0.730388     -0.990262
  O       2.896058     -0.261060      1.226896
  C       1.813821      2.234582      1.299355
  C      -1.093062     -1.789003     -2.803394
  C      -1.963789     -2.646135     -3.746188
  C      -0.929282     -0.353979     -3.349775
  C      -1.676828     -1.761254     -1.375244
  C       0.693945      3.108288      0.697294
  C       1.640359      2.124209      2.828237
  C       3.202261      2.792488      0.939543
  H       1.115580     -4.200143     -1.457105
  H       1.750653     -0.153167     -1.433718
  H      -1.549532     -2.681477     -4.772722
  H      -2.978094     -2.198906     -3.795853
  H      -2.067407     -3.684142     -3.371893
  H      -0.496580     -0.349298     -4.369582
  H      -0.295001      0.267906     -2.687200
  H      -1.930940      0.120140     -3.398881
  H      -1.808419     -2.784684     -0.972159
  H      -2.678087     -1.284575     -1.419311
  H      -1.049389     -1.178272     -0.668061
  H      -0.304216      2.678879      0.914754
  H       0.798926      3.198818     -0.402023
  H       0.741061      4.127162      1.136210
  H       0.664459      1.666095      3.084496
  H       1.682401      3.136243      3.283360
  H       2.439209      1.505322      3.282228
  H       3.337011      2.859615     -0.157979
  H       4.009914      2.153353      1.346849
  H       3.316158      3.812301      1.365569
  Si      2.014156     -3.989138      1.596604
  C       2.054721     -5.889847      1.550002
  C       3.027916     -3.376837      3.080921
  C       0.217071     -3.409223      1.782880
  H       3.090327     -6.278101      1.476254
  H       1.476384     -6.290867      0.692799
  H       1.601383     -6.292973      2.481211
  H       3.055113     -2.269230      3.114346
  H       4.071500     -3.748706      3.044810
  H       2.561789     -3.737959      4.022523
  H       0.137124     -2.302678      1.736552
  H      -0.169542     -3.759702      2.765217
  H      -0.429020     -3.838353      0.989988
  H       3.876358     -3.930907      0.278020
  C       4.005314     -3.733557     -4.580913
  C       4.249746     -2.511711     -4.049996
  H       3.896624     -4.635851     -3.952111
  H       3.932290     -3.892004     -5.672068
  Si      4.552540     -0.894696     -5.007629
  H       4.323664     -2.456389     -2.942818
  C       4.353588     -1.228188     -6.861412
  C       6.317518     -0.330271     -4.611128
  C       3.311887      0.413683     -4.432107
  H       5.070485     -1.996114     -7.218272
  H       4.540639     -0.301928     -7.442962
  H       3.328053     -1.574208     -7.106088
  H       7.065325     -1.082565     -4.934682
  H       6.448477     -0.164560     -3.522089
  H       6.545942      0.624906     -5.128192
  H       2.271253      0.107894     -4.662582
  H       3.505026      1.377665     -4.947558
  H       3.375309      0.596095     -3.339695
  H       2.049910     -2.809538     -4.306543
  H       2.916516     -1.204810      0.879341
71
Coordinates from ORCA-job my_molecule E -2465.735562567907
  Pt      2.775236     -3.069476     -0.406517
  O       0.258763     -0.119461      0.892604
  O       1.595515     -1.809476     -1.803106
  P       1.594637      0.535975      0.609488
  P       0.568484     -2.551397     -2.711867
  O       0.402445     -4.071268     -2.173008
  O       1.070490     -2.599867     -4.250313
  O       1.905330      0.732118     -0.991964
  O       2.895009     -0.260632      1.224617
  C       1.812834      2.234789      1.298825
  C      -1.096740     -1.788776     -2.803712
  C      -1.966807     -2.645602     -3.746952
  C      -0.934880     -0.352547     -3.347813
  C      -1.679489     -1.763411     -1.374934
  C       0.693037      3.109232      0.697773
  C       1.639936      2.123639      2.827477
  C       3.201083      2.792270      0.937936
  H       1.114672     -4.199219     -1.461440
  H       1.748784     -0.151256     -1.435876
  H      -1.554086     -2.678459     -4.774234
  H      -2.982084     -2.200287     -3.795190
  H      -2.068304     -3.684305     -3.374015
  H      -0.502035     -0.345422     -4.367615
  H      -0.301103      0.268524     -2.683908
  H      -1.937146      0.120334     -3.395437
  H      -1.810339     -2.787707     -0.973605
  H      -2.680869     -1.286714     -1.417784
  H      -1.051421     -1.181531     -0.667496
  H      -0.305403      2.680346      0.915453
  H       0.797944      3.200621     -0.401538
  H       0.740287      4.127508      1.137869
  H       0.663985      1.665549      3.083909
  H       1.682962      3.135413      3.283161
  H       2.438509      1.504136      3.281378
  H       3.335239      2.859054     -0.159647
  H       4.009092      2.153553      1.345110
  H       3.315621      3.812095      1.363725
  Si      2.017147     -3.988345      1.594059
  C       2.059863     -5.889177      1.549046
  C       3.033053     -3.375183      3.076855
  C       0.220037     -3.409156      1.782605
  H       3.095794     -6.276231      1.474117
  H       1.481204     -6.291911      0.692867
  H       1.608082     -6.292351      2.480967
  H       3.060289     -2.267529      3.109784
  H       4.076600     -3.746990      3.039693
  H       2.567995     -3.735802      4.019122
  H       0.139926     -2.302690      1.734110
  H      -0.164587     -3.757938      2.766243
  H      -0.426996     -3.839604      0.991165
  H       3.876684     -3.929585      0.271848
  C       4.001437     -3.734127     -4.578802
  C       4.245941     -2.512889     -4.046697
  H       3.888347     -4.636261     -3.950275
  H       3.931624     -3.892394     -5.670153
  Si      4.554637     -0.896756     -5.003462
  H       4.315648     -2.456898     -2.939181
  C       4.358235     -1.229987     -6.857629
  C       6.320237     -0.336025     -4.604962
  C       3.316044      0.414575     -4.430268
  H       5.074680     -1.998918     -7.213082
  H       4.546557     -0.304086     -7.439349
  H       3.332680     -1.574781     -7.104035
  H       7.067629     -1.089347     -4.927036
  H       6.449882     -0.168787     -3.515984
  H       6.551108      0.618704     -5.121975
  H       2.274919      0.110396     -4.660957
  H       3.511199      1.377962     -4.946107
  H       3.378317      0.597949     -3.337929
  H       2.045880     -2.806950     -4.309794
  H       2.915027     -1.203981      0.875935
71
Coordinates from ORCA-job my_molecule E -2465.735568278002
  Pt      2.774030     -3.067127     -0.410926
  O       0.256991     -0.119281      0.889841
  O       1.592067     -1.806784     -1.804924
  P       1.592575      0.537141      0.607609
  P       0.566081     -2.548797     -2.714542
  O       0.402785     -4.069991     -2.178657
  O       1.067233     -2.594442     -4.253415
  O       1.902648      0.735056     -0.993663
  O       2.893060     -0.259625      1.222338
  C       1.810714      2.235499      1.298579
  C      -1.100113     -1.788252     -2.803736
  C      -1.969622     -2.644311     -3.748012
  C      -0.940571     -0.350716     -3.344777
  C      -1.681513     -1.766667     -1.374118
  C       0.691031      3.110945      0.698727
  C       1.638373      2.122897      2.827147
  C       3.198779      2.792933      0.937147
  H       1.114417     -4.197776     -1.466446
  H       1.746878     -0.148020     -1.438205
  H      -1.558596     -2.673360     -4.776128
  H      -2.986058     -2.201279     -3.794067
  H      -2.068047     -3.684256     -3.377896
  H      -0.507902     -0.339989     -4.364620
  H      -0.307692      0.269833     -2.679505
  H      -1.943451      0.120936     -3.390459
  H      -1.810484     -2.792148     -0.975130
  H      -2.683373     -1.291007     -1.415006
  H      -1.053002     -1.185748     -0.666210
  H      -0.307664      2.682346      0.915628
  H       0.795993      3.204026     -0.400456
  H       0.737880      4.128632      1.140301
  H       0.662317      1.664772      3.083564
  H       1.682568      3.134131      3.283849
  H       2.436816      1.502700      3.280185
  H       3.332700      2.859492     -0.160538
  H       4.007163      2.154857      1.344483
  H       3.313113      3.812783      1.362825
  Si      2.020114     -3.987129      1.590996
  C       2.065916     -5.887978      1.546999
  C       3.037954     -3.373457      3.072310
  C       0.222805     -3.409323      1.782256
  H       3.102468     -6.273242      1.470476
  H       1.487315     -6.292539      0.691570
  H       1.615510     -6.291683      2.479387
  H       3.064868     -2.265759      3.105727
  H       4.081700     -3.744725      3.033936
  H       2.574261     -3.734187      4.015241
  H       0.142611     -2.303007      1.731303
  H      -0.159506     -3.756177      2.767398
  H      -0.425622     -3.841626      0.992972
  H       3.877327     -3.926403      0.265449
  C       3.997220     -3.735535     -4.576088
  C       4.242451     -2.514864     -4.043142
  H       3.879519     -4.637380     -3.947849
  H       3.930010     -3.893703     -5.667633
  Si      4.557383     -0.899840     -4.999384
  H       4.308515     -2.458513     -2.935361
  C       4.361206     -1.232864     -6.853639
  C       6.324399     -0.344291     -4.600844
  C       3.322542      0.415259     -4.427028
  H       5.076620     -2.002725     -7.208962
  H       4.550203     -0.307322     -7.435654
  H       3.335215     -1.576088     -7.100803
  H       7.070478     -1.099066     -4.922348
  H       6.454012     -0.176248     -3.511852
  H       6.557901      0.609872     -5.117731
  H       2.280718      0.113284     -4.657685
  H       3.519882      1.378035     -4.942990
  H       3.384563      0.598768     -3.334620
  H       2.042244     -2.803328     -4.312934
  H       2.913379     -1.202367      0.871829
71
Coordinates from ORCA-job my_molecule E -2465.735573827512
  Pt      2.773196     -3.063459     -0.414895
  O       0.254757     -0.118942      0.887769
  O       1.588749     -1.803392     -1.806279
  P       1.589883      0.538767      0.606221
  P       0.564127     -2.545542     -2.717156
  O       0.404692     -4.068466     -2.184858
  O       1.064558     -2.587174     -4.256417
  O       1.899359      0.738909     -0.994818
  O       2.890627     -0.258139      1.220230
  C       1.807909      2.236372      1.299282
  C      -1.103110     -1.787407     -2.803528
  C      -1.972160     -2.642530     -3.749271
  C      -0.946411     -0.348473     -3.341148
  C      -1.682861     -1.770475     -1.372957
  C       0.688508      3.112975      0.701260
  C       1.636336      2.121647      2.827764
  C       3.195988      2.794203      0.937983
  H       1.115114     -4.195545     -1.471488
  H       1.744578     -0.143792     -1.440291
  H      -1.563013     -2.666633     -4.778366
  H      -2.989909     -2.202160     -3.792136
  H      -2.066596     -3.684152     -3.383154
  H      -0.514575     -0.333651     -4.361269
  H      -0.314517      0.271863     -2.674757
  H      -1.950004      0.121945     -3.384664
  H      -1.808939     -2.797304     -0.976319
  H      -2.685791     -1.296853     -1.411260
  H      -1.054233     -1.190090     -0.664580
  H      -0.310638      2.684473      0.916662
  H       0.793570      3.208526     -0.397779
  H       0.735214      4.129881      1.144437
  H       0.659880      1.664145      3.083967
  H       1.682090      3.132107      3.285962
  H       2.434645      1.500064      3.279228
  H       3.329991      2.861205     -0.159567
  H       4.004586      2.156430      1.345215
  H       3.309772      3.813905      1.363924
  Si      2.023063     -3.985428      1.587802
  C       2.072898     -5.886064      1.544089
  C       3.041718     -3.370837      3.068019
  C       0.225070     -3.410366      1.781317
  H       3.110183     -6.269150      1.465968
  H       1.494715     -6.292333      0.689091
  H       1.623646     -6.290582      2.476675
  H       3.067219     -2.263049      3.102677
  H       4.086010     -3.740539      3.028457
  H       2.579806     -3.732493      4.011557
  H       0.143750     -2.304325      1.728032
  H      -0.154833     -3.755571      2.767980
  H      -0.424521     -3.845400      0.994589
  H       3.878710     -3.921251      0.259993
  C       3.992728     -3.737620     -4.573057
  C       4.239045     -2.517301     -4.039849
  H       3.870511     -4.638806     -3.944510
  H       3.928109     -3.896221     -5.664690
  Si      4.560475     -0.903819     -4.996661
  H       4.301959     -2.460546     -2.931808
  C       4.363801     -1.237314     -6.850795
  C       6.329245     -0.354166     -4.598280
  C       3.329761      0.415721     -4.425572
  H       5.078185     -2.007862     -7.206647
  H       4.553401     -0.311952     -7.433079
  H       3.337392     -1.579232     -7.098161
  H       7.073492     -1.111124     -4.919007
  H       6.458824     -0.185733     -3.509363
  H       6.565833      0.599217     -5.115291
  H       2.287395      0.116151     -4.657334
  H       3.529919      1.377693     -4.941820
  H       3.391031      0.599325     -3.333189
  H       2.038989     -2.798811     -4.315819
  H       2.911407     -1.200198      0.867830
71
Coordinates from ORCA-job my_molecule E -2465.735578731335
  Pt      2.772543     -3.059579     -0.418115
  O       0.252879     -0.118223      0.886094
  O       1.586367     -1.799968     -1.807850
  P       1.587419      0.540639      0.604524
  P       0.562857     -2.542542     -2.719665
  O       0.407471     -4.067077     -2.190694
  O       1.062626     -2.580239     -4.259284
  O       1.895891      0.743138     -0.996331
  O       2.888707     -0.256262      1.217189
  C       1.805165      2.237602      1.299350
  C      -1.105488     -1.786840     -2.803073
  C      -1.974384     -2.640941     -3.750221
  C      -0.951521     -0.346641     -3.337376
  C      -1.683421     -1.774699     -1.371647
  C       0.685639      3.115054      0.703088
  C       1.634649      2.120824      2.827993
  C       3.193157      2.796256      0.938438
  H       1.116996     -4.193345     -1.476341
  H       1.742239     -0.139290     -1.442528
  H      -1.566972     -2.659866     -4.780167
  H      -2.993349     -2.203110     -3.789279
  H      -2.064792     -3.684383     -3.388482
  H      -0.521149     -0.328199     -4.357989
  H      -0.320212      0.273615     -2.670455
  H      -1.955756      0.122771     -3.378740
  H      -1.806285     -2.802679     -0.977063
  H      -2.687544     -1.303620     -1.407107
  H      -1.054979     -1.194443     -0.662841
  H      -0.313568      2.686156      0.917145
  H       0.790482      3.212820     -0.395792
  H       0.732167      4.131480      1.147603
  H       0.657860      1.664103      3.084224
  H       1.681663      3.130525      3.287595
  H       2.433001      1.497904      3.277339
  H       3.327320      2.863556     -0.159072
  H       4.002060      2.158789      1.345568
  H       3.305910      3.816015      1.364362
  Si      2.025568     -3.983827      1.584856
  C       2.078645     -5.884215      1.540329
  C       3.044893     -3.368825      3.064081
  C       0.226964     -3.411303      1.780769
  H       3.116622     -6.265441      1.461020
  H       1.500773     -6.291321      0.685442
  H       1.630228     -6.289742      2.472895
  H       3.068994     -2.261032      3.100439
  H       4.089744     -3.737015      3.023029
  H       2.584909     -3.731998      4.008132
  H       0.144535     -2.305520      1.725684
  H      -0.150655     -3.754902      2.768874
  H      -0.424162     -3.848900      0.996797
  H       3.879936     -3.915952      0.255167
  C       3.988526     -3.739910     -4.570548
  C       4.236156     -2.519993     -4.036929
  H       3.862305     -4.640658     -3.942269
  H       3.926126     -3.898474     -5.662378
  Si      4.563277     -0.907460     -4.993879
  H       4.296566     -2.463631     -2.928658
  C       4.365148     -1.240520     -6.847922
  C       6.333869     -0.364088     -4.595707
  C       3.336723      0.415855     -4.422730
  H       5.078516     -2.011357     -7.205266
  H       4.555421     -0.314942     -7.429719
  H       3.338269     -1.581236     -7.095097
  H       7.075678     -1.123446     -4.916358
  H       6.463736     -0.196827     -3.506576
  H       6.573514      0.588716     -5.112194
  H       2.293905      0.118785     -4.655861
  H       3.539534      1.377261     -4.938799
  H       3.397728      0.598667     -3.330177
  H       2.036526     -2.794857     -4.318271
  H       2.910145     -1.197941      0.863513
71
Coordinates from ORCA-job my_molecule E -2465.735582497515
  Pt      2.772526     -3.056069     -0.419887
  O       0.251587     -0.117336      0.886183
  O       1.585079     -1.797062     -1.808694
  P       1.585536      0.542385      0.603873
  P       0.562376     -2.539953     -2.721331
  O       0.410291     -4.065735     -2.194805
  O       1.061772     -2.574385     -4.261157
  O       1.892832      0.746658     -0.997019
  O       2.887776     -0.254239      1.214786
  C       1.803027      2.238756      1.300016
  C      -1.106926     -1.786334     -2.802672
  C      -1.975677     -2.639772     -3.750880
  C      -0.955162     -0.345073     -3.334443
  C      -1.683496     -1.777701     -1.370697
  C       0.683147      3.116556      0.705362
  C       1.633665      2.120350      2.828819
  C       3.190860      2.798463      0.939541
  H       1.119406     -4.191350     -1.480022
  H       1.740138     -0.135651     -1.443795
  H      -1.569674     -2.654636     -4.781413
  H      -2.995611     -2.204117     -3.786511
  H      -2.062897     -3.684558     -3.392457
  H      -0.526548     -0.324376     -4.355729
  H      -0.323706      0.274912     -2.667493
  H      -1.959874      0.123689     -3.374017
  H      -1.803703     -2.806415     -0.977194
  H      -2.688759     -1.308838     -1.404075
  H      -1.055535     -1.197128     -0.661665
  H      -0.315924      2.686981      0.918745
  H       0.787594      3.215902     -0.393404
  H       0.729829      4.132506      1.150897
  H       0.656591      1.664580      3.085316
  H       1.681639      3.129532      3.289488
  H       2.432135      1.496192      3.276284
  H       3.325038      2.866297     -0.157857
  H       4.000028      2.160994      1.346148
  H       3.302901      3.818200      1.365579
  Si      2.027507     -3.982649      1.582659
  C       2.082714     -5.882819      1.536587
  C       3.046581     -3.367248      3.061622
  C       0.228215     -3.412450      1.779961
  H       3.121111     -6.262837      1.457006
  H       1.505113     -6.289826      0.681476
  H       1.634695     -6.289256      2.468931
  H       3.069018     -2.259444      3.099422
  H       4.091948     -3.733815      3.019293
  H       2.588276     -3.732290      4.005841
  H       0.144229     -2.306874      1.724150
  H      -0.147862     -3.755246      2.768975
  H      -0.423726     -3.851914      0.997781
  H       3.881371     -3.911532      0.252250
  C       3.985382     -3.741871     -4.568643
  C       4.234136     -2.522137     -4.034965
  H       3.855957     -4.642143     -3.940370
  H       3.924905     -3.900645     -5.660561
  Si      4.565340     -0.910487     -4.992686
  H       4.292764     -2.466143     -2.926526
  C       4.366492     -1.243741     -6.846603
  C       6.337115     -0.371512     -4.593953
  C       3.341131      0.415491     -4.422529
  H       5.079240     -2.014819     -7.204764
  H       4.557761     -0.317963     -7.427941
  H       3.339357     -1.583775     -7.093515
  H       7.076900     -1.133182     -4.913987
  H       6.466678     -0.205286     -3.504698
  H       6.579373      0.580660     -5.110290
  H       2.298203      0.119998     -4.657336
  H       3.546157      1.376229     -4.939007
  H       3.401367      0.598346     -3.330006
  H       2.035009     -2.792002     -4.320072
  H       2.909571     -1.195793      0.860765
71
Coordinates from ORCA-job my_molecule E -2465.735585629367
  Pt      2.772911     -3.053382     -0.420994
  O       0.251299     -0.116269      0.886677
  O       1.584756     -1.794830     -1.809698
  P       1.584644      0.544070      0.603143
  P       0.562452     -2.538186     -2.722534
  O       0.412649     -4.064623     -2.197257
  O       1.061407     -2.570806     -4.262538
  O       1.890575      0.749344     -0.997948
  O       2.888069     -0.251881      1.212366
  C       1.801597      2.240251      1.299688
  C      -1.107701     -1.786238     -2.802326
  C      -1.976396     -2.639233     -3.751040
  C      -0.957373     -0.344163     -3.332360
  C      -1.683321     -1.779876     -1.370075
  C       0.680924      3.117673      0.705872
  C       1.633302      2.121050      2.828699
  C       3.189043      2.801098      0.939257
  H       1.122142     -4.189883     -1.482715
  H       1.738726     -0.133066     -1.444843
  H      -1.571465     -2.651259     -4.782001
  H      -2.997076     -2.205264     -3.783891
  H      -2.061414     -3.684977     -3.394742
  H      -0.530569     -0.322445     -4.354362
  H      -0.325044      0.275313     -2.665859
  H      -1.962334      0.124373     -3.370356
  H      -1.801648     -2.808935     -0.977107
  H      -2.689332     -1.312601     -1.402112
  H      -1.055868     -1.198978     -0.660877
  H      -0.317633      2.687057      0.919373
  H       0.784918      3.217550     -0.392858
  H       0.727353      4.133475      1.151982
  H       0.656250      1.665830      3.085862
  H       1.681716      3.130010      3.289829
  H       2.432129      1.496347      3.274778
  H       3.323134      2.868837     -0.158169
  H       3.998632      2.163919      1.345649
  H       3.300345      3.821078      1.364958
  Si      2.029119     -3.982079      1.580795
  C       2.084586     -5.882219      1.532400
  C       3.048163     -3.367273      3.059858
  C       0.229549     -3.412914      1.779485
  H       3.123090     -6.261951      1.453137
  H       1.506925     -6.288066      0.676849
  H       1.636608     -6.289513      2.464368
  H       3.069469     -2.259545      3.099030
  H       4.093860     -3.732781      3.016140
  H       2.591147     -3.734413      4.003949
  H       0.144638     -2.307374      1.723648
  H      -0.145429     -3.755153      2.769086
  H      -0.423255     -3.853130      0.998414
  H       3.882628     -3.908563      0.249879
  C       3.983230     -3.743712     -4.567801
  C       4.232662     -2.524338     -4.033432
  H       3.851320     -4.644032     -3.940318
  H       3.924241     -3.901973     -5.659925
  Si      4.566410     -0.912644     -4.990709
  H       4.289936     -2.469530     -2.924813
  C       4.366614     -1.244756     -6.844703
  C       6.339010     -0.376975     -4.591240
  C       3.343623      0.414531     -4.420220
  H       5.078854     -2.015893     -7.203892
  H       4.558756     -0.318503     -7.424990
  H       3.339244     -1.584108     -7.091308
  H       7.076886     -1.140398     -4.911547
  H       6.468588     -0.212705     -3.501683
  H       6.583316      0.575039     -5.106740
  H       2.300591      0.120147     -4.655935
  H       3.549988      1.375045     -4.936628
  H       3.403793      0.596999     -3.327616
  H       2.034151     -2.790728     -4.321683
  H       2.910194     -1.193621      0.858766
71
Coordinates from ORCA-job my_molecule E -2465.735588192092
  Pt      2.773851     -3.050932     -0.422041
  O       0.251417     -0.115418      0.888100
  O       1.584509     -1.792611     -1.810115
  P       1.584071      0.545735      0.603282
  P       0.562578     -2.536277     -2.723235
  O       0.414441     -4.063257     -2.199025
  O       1.061021     -2.567447     -4.263410
  O       1.888484      0.751667     -0.998125
  O       2.888962     -0.249179      1.210788
  C       1.800165      2.241802      1.300177
  C      -1.108356     -1.785867     -2.801823
  C      -1.976778     -2.638553     -3.750958
  C      -0.959249     -0.342944     -3.330328
  C      -1.683402     -1.781152     -1.369421
  C       0.678351      3.118395      0.707130
  C       1.632998      2.121973      2.829291
  C       3.186931      2.804059      0.939379
  H       1.124603     -4.188410     -1.485056
  H       1.737347     -0.130931     -1.445064
  H      -1.572900     -2.648539     -4.782239
  H      -2.998116     -2.206166     -3.781675
  H      -2.060148     -3.684873     -3.395947
  H      -0.534067     -0.320567     -4.353043
  H      -0.325806      0.275784     -2.664195
  H      -1.964403      0.125416     -3.366669
  H      -1.800293     -2.810504     -0.976840
  H      -2.689969     -1.314987     -1.400763
  H      -1.056484     -1.199946     -0.660094
  H      -0.319499      2.686429      0.921211
  H       0.781826      3.218590     -0.391575
  H       0.724171      4.133906      1.153917
  H       0.656201      1.666821      3.087298
  H       1.681709      3.130838      3.290745
  H       2.432383      1.497147      3.274321
  H       3.320673      2.871772     -0.158091
  H       3.997124      2.167420      1.345409
  H       3.297606      3.824179      1.364939
  Si      2.030824     -3.981733      1.578821
  C       2.086376     -5.881920      1.528095
  C       3.049354     -3.367433      3.058469
  C       0.230946     -3.413525      1.778361
  H       3.124908     -6.261484      1.449416
  H       1.508766     -6.286468      0.671994
  H       1.638362     -6.290084      2.459641
  H       3.069102     -2.259737      3.098712
  H       4.095461     -3.731481      3.013550
  H       2.593436     -3.736843      4.002160
  H       0.145098     -2.307970      1.723263
  H      -0.143441     -3.756122      2.768043
  H      -0.422047     -3.853608      0.997364
  H       3.884367     -3.906111      0.247714
  C       3.981164     -3.745494     -4.567093
  C       4.231404     -2.526446     -4.032267
  H       3.846539     -4.645718     -3.940010
  H       3.923583     -3.903602     -5.659321
  Si      4.567601     -0.915116     -4.989519
  H       4.287345     -2.472549     -2.923513
  C       4.367771     -1.246899     -6.843534
  C       6.340653     -0.381667     -4.588890
  C       3.345381      0.413165     -4.420234
  H       5.079571     -2.018474     -7.202691
  H       4.560905     -0.320539     -7.423341
  H       3.340165     -1.585524     -7.089978
  H       7.076995     -1.146739     -4.908925
  H       6.469959     -0.218421     -3.499202
  H       6.587054      0.569912     -5.104161
  H       2.302339      0.119587     -4.656905
  H       3.553214      1.373249     -4.937037
  H       3.404795      0.596214     -3.327698
  H       2.033160     -2.789474     -4.323234
  H       2.911242     -1.191071      0.857784
71
Coordinates from ORCA-job my_molecule E -2465.735590594461
  Pt      2.775220     -3.049027     -0.423119
  O       0.251968     -0.114629      0.889145
  O       1.584493     -1.790755     -1.810458
  P       1.583984      0.547392      0.603446
  P       0.562855     -2.534940     -2.723452
  O       0.415643     -4.061994     -2.199374
  O       1.060665     -2.565869     -4.263791
  O       1.887352      0.753430     -0.998223
  O       2.890086     -0.246303      1.210088
  C       1.798841      2.243676      1.300137
  C      -1.108664     -1.785638     -2.801405
  C      -1.976720     -2.638211     -3.750698
  C      -0.960171     -0.342179     -3.329104
  C      -1.683681     -1.781766     -1.369005
  C       0.675735      3.118928      0.707249
  C       1.632445      2.123808      2.829255
  C       3.184804      2.807290      0.938640
  H       1.126612     -4.187115     -1.486126
  H       1.736749     -0.129365     -1.444998
  H      -1.573480     -2.647151     -4.782233
  H      -2.998573     -2.206943     -3.780389
  H      -2.059188     -3.684833     -3.396090
  H      -0.535944     -0.319604     -4.352241
  H      -0.325776      0.275922     -2.663301
  H      -1.965382      0.126156     -3.364236
  H      -1.799797     -2.811302     -0.976785
  H      -2.690490     -1.316123     -1.400337
  H      -1.057171     -1.200477     -0.659446
  H      -0.321344      2.685429      0.921951
  H       0.778987      3.219035     -0.391466
  H       0.720257      4.134307      1.154463
  H       0.656139      1.668084      3.088079
  H       1.681054      3.132737      3.290685
  H       2.432555      1.499548      3.273921
  H       3.318311      2.874454     -0.158905
  H       3.995696      2.171659      1.344929
  H       3.294661      3.827720      1.363767
  Si      2.032433     -3.981631      1.576779
  C       2.087358     -5.881963      1.523553
  C       3.050737     -3.368519      3.057194
  C       0.232621     -3.413513      1.777264
  H       3.125806     -6.261701      1.445346
  H       1.509795     -6.284969      0.666780
  H       1.639128     -6.291089      2.454559
  H       3.069117     -2.260883      3.098566
  H       4.097254     -3.731248      3.011162
  H       2.595537     -3.740145      4.000334
  H       0.146593     -2.307827      1.723357
  H      -0.141523     -3.756908      2.766690
  H      -0.420527     -3.852590      0.995761
  H       3.886222     -3.904391      0.245673
  C       3.979536     -3.747588     -4.567348
  C       4.230561     -2.529111     -4.031558
  H       3.842959     -4.648077     -3.941104
  H       3.922562     -3.904997     -5.659730
  Si      4.568355     -0.917436     -4.987500
  H       4.285771     -2.476740     -2.922649
  C       4.367284     -1.247417     -6.841680
  C       6.342069     -0.386043     -4.586752
  C       3.347052      0.411448     -4.417477
  H       5.078302     -2.019392     -7.201556
  H       4.560757     -0.320690     -7.420672
  H       3.339241     -1.584956     -7.087587
  H       7.076804     -1.152152     -4.908043
  H       6.472283     -0.224445     -3.496929
  H       6.590017      0.565560     -5.101288
  H       2.303707      0.118882     -4.653993
  H       3.555815      1.371565     -4.933918
  H       3.406714      0.594312     -3.324908
  H       2.032426     -2.789098     -4.324513
  H       2.912810     -1.188348      0.857705
71
Coordinates from ORCA-job my_molecule E -2465.735592801681
  Pt      2.777044     -3.047019     -0.424607
  O       0.252671     -0.114280      0.890350
  O       1.584171     -1.788589     -1.810284
  P       1.583887      0.549049      0.604010
  P       0.562926     -2.533257     -2.723308
  O       0.416732     -4.060542     -2.199695
  O       1.059847     -2.563633     -4.263906
  O       1.886102      0.755410     -0.997855
  O       2.891266     -0.243289      1.209739
  C       1.797190      2.245524      1.300836
  C      -1.109089     -1.784999     -2.800561
  C      -1.976686     -2.637518     -3.750103
  C      -0.961377     -0.341053     -3.327531
  C      -1.684155     -1.781989     -1.368153
  C       0.672416      3.119214      0.708418
  C       1.631728      2.125408      2.829913
  C       3.182100      2.810836      0.938336
  H       1.128415     -4.185467     -1.487024
  H       1.735933     -0.127526     -1.444572
  H      -1.574209     -2.645564     -4.781899
  H      -2.999023     -2.207339     -3.779104
  H      -2.058257     -3.684345     -3.395847
  H      -0.537819     -0.317980     -4.350997
  H      -0.326435      0.276682     -2.661844
  H      -1.966732      0.127015     -3.361391
  H      -1.799581     -2.811823     -0.976523
  H      -2.691106     -1.316748     -1.399660
  H      -1.058003     -1.200647     -0.658392
  H      -0.323761      2.683837      0.923611
  H       0.775335      3.219667     -0.390290
  H       0.715137      4.134346      1.156295
  H       0.656093      1.668572      3.089461
  H       1.680078      3.134324      3.291478
  H       2.432731      1.501994      3.274226
  H       3.315156      2.877744     -0.159301
  H       3.993919      2.176544      1.344731
  H       3.290914      3.831434      1.363353
  Si      2.034125     -3.981415      1.574352
  C       2.089207     -5.881826      1.518976
  C       3.051822     -3.369083      3.055672
  C       0.234266     -3.413715      1.775429
  H       3.127701     -6.261371      1.440961
  H       1.512027     -6.283773      0.661481
  H       1.640801     -6.292047      2.449417
  H       3.068108     -2.261442      3.098092
  H       4.099010     -3.729715      3.008791
  H       2.597314     -3.742902      3.998217
  H       0.148134     -2.307901      1.723346
  H      -0.140015     -3.758923      2.764168
  H      -0.418616     -3.851197      0.992797
  H       3.888516     -3.902491      0.243437
  C       3.977269     -3.749940     -4.567798
  C       4.229744     -2.532153     -4.031176
  H       3.838488     -4.650486     -3.941960
  H       3.920679     -3.906886     -5.660259
  Si      4.569753     -0.920503     -4.985940
  H       4.284351     -2.481137     -2.922155
  C       4.367915     -1.249161     -6.840229
  C       6.344054     -0.391090     -4.585012
  C       3.349427      0.409506     -4.416318
  H       5.078071     -2.021707     -7.200498
  H       4.561537     -0.322308     -7.418876
  H       3.339354     -1.585516     -7.085616
  H       7.077348     -1.158124     -4.907421
  H       6.475241     -0.230500     -3.495173
  H       6.593619      0.560312     -5.099256
  H       2.305819      0.118238     -4.653236
  H       3.559707      1.369510     -4.932434
  H       3.408471      0.592522     -3.323717
  H       2.031159     -2.788117     -4.325745
  H       2.914349     -1.185400      0.857861
71
Coordinates from ORCA-job my_molecule E -2465.735594869360
  Pt      2.778878     -3.045155     -0.426331
  O       0.253137     -0.114058      0.891071
  O       1.583547     -1.786554     -1.810096
  P       1.583668      0.550524      0.604380
  P       0.562736     -2.531820     -2.722996
  O       0.417640     -4.059238     -2.199577
  O       1.058715     -2.561854     -4.263877
  O       1.885171      0.757209     -0.997544
  O       2.891972     -0.240699      1.209682
  C       1.795546      2.247250      1.301214
  C      -1.109681     -1.784464     -2.799796
  C      -1.976835     -2.637194     -3.749454
  C      -0.962729     -0.340335     -3.326566
  C      -1.684884     -1.782148     -1.367350
  C       0.669276      3.119421      0.709310
  C       1.630843      2.127059      2.830232
  C       3.179527      2.814045      0.937707
  H       1.129684     -4.183709     -1.487194
  H       1.735207     -0.125749     -1.444235
  H      -1.574825     -2.644583     -4.781495
  H      -2.999592     -2.207836     -3.778292
  H      -2.057604     -3.684210     -3.395457
  H      -0.539129     -0.316664     -4.350017
  H      -0.328014      0.277564     -2.660780
  H      -1.968326      0.127202     -3.359831
  H      -1.799876     -2.812275     -0.976388
  H      -2.691970     -1.317203     -1.399029
  H      -1.058941     -1.200808     -0.657369
  H      -0.326163      2.682262      0.924504
  H       0.772044      3.220500     -0.389346
  H       0.710144      4.134327      1.157722
  H       0.655878      1.668898      3.090201
  H       1.678579      3.135988      3.291833
  H       2.432683      1.504644      3.274520
  H       3.312186      2.880722     -0.159968
  H       3.992244      2.181077      1.344341
  H       3.287265      3.834831      1.362579
  Si      2.035708     -3.980997      1.571940
  C       2.091107     -5.881412      1.514744
  C       3.053326     -3.369552      3.053777
  C       0.236033     -3.413429      1.773868
  H       3.129679     -6.260675      1.436395
  H       1.514371     -6.282650      0.656598
  H       1.642554     -6.292789      2.444617
  H       3.067718     -2.261916      3.097289
  H       4.101170     -3.728218      3.006112
  H       2.599460     -3.745053      3.995948
  H       0.150140     -2.307496      1.723658
  H      -0.138341     -3.760558      2.761888
  H      -0.416749     -3.849312      0.990242
  H       3.890648     -3.900736      0.241100
  C       3.974755     -3.752527     -4.568852
  C       4.228952     -2.535581     -4.031203
  H       3.834357     -4.653219     -3.943547
  H       3.918140     -3.908688     -5.661447
  Si      4.571221     -0.923446     -4.983888
  H       4.283310     -2.486251     -2.922028
  C       4.368138     -1.249831     -6.838429
  C       6.346365     -0.396568     -4.583231
  C       3.352462      0.407745     -4.413488
  H       5.077104     -2.022931     -7.199782
  H       4.561806     -0.322645     -7.416411
  H       3.338980     -1.584730     -7.083340
  H       7.078222     -1.164119     -4.907643
  H       6.479083     -0.237445     -3.493382
  H       6.597121      0.554987     -5.096771
  H       2.308442      0.118061     -4.650504
  H       3.564069      1.367877     -4.928768
  H       3.411328      0.590192     -3.320792
  H       2.029790     -2.787058     -4.326743
  H       2.915838     -1.182746      0.857856
71
Coordinates from ORCA-job my_molecule E -2465.735596868120
  Pt      2.780676     -3.042966     -0.428346
  O       0.253666     -0.114379      0.891987
  O       1.582609     -1.784048     -1.809609
  P       1.583260      0.551866      0.604866
  P       0.562268     -2.529866     -2.722557
  O       0.418845     -4.057685     -2.199894
  O       1.057165     -2.558791     -4.263780
  O       1.883607      0.759512     -0.997081
  O       2.892642     -0.238267      1.209147
  C       1.793663      2.248655      1.302134
  C      -1.110532     -1.783418     -2.798593
  C      -1.977326     -2.636407     -3.748424
  C      -0.964750     -0.339154     -3.325102
  C      -1.685625     -1.782033     -1.366049
  C       0.665500      3.119295      0.711457
  C       1.630212      2.127959      2.831201
  C       3.176521      2.817314      0.937495
  H       1.131248     -4.181494     -1.487687
  H       1.733813     -0.123405     -1.443924
  H      -1.575924     -2.642789     -4.780720
  H      -3.000454     -2.207872     -3.776829
  H      -2.056957     -3.683714     -3.395153
  H      -0.541047     -0.314475     -4.348485
  H      -0.330789      0.279293     -2.659028
  H      -1.970763      0.127456     -3.357892
  H      -1.800162     -2.812517     -0.975810
  H      -2.692873     -1.317516     -1.397629
  H      -1.059846     -1.200662     -0.655958
  H      -0.329041      2.680058      0.926488
  H       0.767698      3.221618     -0.387163
  H       0.704392      4.133970      1.160580
  H       0.656064      1.668149      3.091534
  H       1.676900      3.136793      3.293052
  H       2.433034      1.506603      3.275064
  H       3.308395      2.884327     -0.160252
  H       3.990390      2.185679      1.343760
  H       3.283021      3.838132      1.362567
  Si      2.037307     -3.980356      1.569295
  C       2.094106     -5.880626      1.510791
  C       3.054651     -3.369045      3.051401
  C       0.237536     -3.413645      1.771836
  H       3.132959     -6.259064      1.431735
  H       1.517983     -6.281858      0.652155
  H       1.645631     -6.293210      2.440160
  H       3.066631     -2.261354      3.095924
  H       4.103350     -3.725195      3.003165
  H       2.601627     -3.745993      3.993380
  H       0.151626     -2.307668      1.723853
  H      -0.137037     -3.763340      2.758967
  H      -0.414892     -3.847983      0.987115
  H       3.892657     -3.898604      0.238532
  C       3.971283     -3.755244     -4.569983
  C       4.228009     -2.539253     -4.031414
  H       3.828974     -4.655848     -3.944912
  H       3.914666     -3.910745     -5.662665
  Si      4.573383     -0.926983     -4.982332
  H       4.282128     -2.491304     -2.922128
  C       4.370233     -1.251902     -6.837120
  C       6.349154     -0.402785     -4.581229
  C       3.356101      0.405927     -4.412702
  H       5.078126     -2.025608     -7.199205
  H       4.564270     -0.324605     -7.414780
  H       3.340571     -1.585490     -7.081939
  H       7.079891     -1.170800     -4.907010
  H       6.482874     -0.244599     -3.491368
  H       6.600966      0.548778     -5.094318
  H       2.311892      0.117956     -4.651007
  H       3.569711      1.365907     -4.927374
  H       3.413610      0.588120     -3.319865
  H       2.027842     -2.785281     -4.327733
  H       2.916990     -1.180273      0.857499
71
Coordinates from ORCA-job my_molecule E -2465.735598432876
  Pt      2.781986     -3.040819     -0.430251
  O       0.253709     -0.114616      0.892654
  O       1.581729     -1.781684     -1.809560
  P       1.582535      0.553014      0.605038
  P       0.561735     -2.528057     -2.722378
  O       0.420090     -4.056234     -2.200247
  O       1.055745     -2.556093     -4.263925
  O       1.881984      0.761728     -0.996845
  O       2.892842     -0.236284      1.208429
  C       1.791817      2.249796      1.302729
  C      -1.111509     -1.782572     -2.797796
  C      -1.978015     -2.636022     -3.747650
  C      -0.966949     -0.338254     -3.324214
  C      -1.686378     -1.782006     -1.365116
  C       0.662099      3.119246      0.713487
  C       1.629596      2.128531      2.831905
  C       3.173794      2.820043      0.937183
  H       1.132712     -4.179240     -1.488121
  H       1.732430     -0.121009     -1.444007
  H      -1.576895     -2.641464     -4.780100
  H      -3.001481     -2.208162     -3.775664
  H      -2.056562     -3.683618     -3.395099
  H      -0.542758     -0.312575     -4.347351
  H      -0.334198      0.280929     -2.657668
  H      -1.973470      0.127217     -3.357256
  H      -1.800672     -2.812709     -0.975371
  H      -2.693888     -1.317942     -1.396337
  H      -1.060712     -1.200575     -0.654902
  H      -0.331727      2.678197      0.928124
  H       0.763708      3.223017     -0.385035
  H       0.699552      4.133651      1.163250
  H       0.656219      1.667180      3.092439
  H       1.674825      3.137293      3.293932
  H       2.433349      1.508120      3.275361
  H       3.304780      2.887567     -0.160605
  H       3.988693      2.189267      1.342748
  H       3.279370      3.840885      1.362431
  Si      2.038785     -3.979469      1.567042
  C       2.096893     -5.879566      1.507617
  C       3.056480     -3.368286      3.048888
  C       0.238996     -3.413542      1.770439
  H       3.136022     -6.257185      1.427728
  H       1.521167     -6.281026      0.648749
  H       1.648635     -6.293195      2.436642
  H       3.066818     -2.260600      3.094397
  H       4.105743     -3.722686      3.000033
  H       2.604331     -3.746145      3.990942
  H       0.152945     -2.307546      1.724279
  H      -0.135463     -3.765146      2.756960
  H      -0.413300     -3.846948      0.985104
  H       3.894058     -3.896733      0.235944
  C       3.967811     -3.757927     -4.571368
  C       4.227110     -2.542917     -4.031825
  H       3.824032     -4.658588     -3.946861
  H       3.911048     -3.912415     -5.664206
  Si      4.575423     -0.930067     -4.980648
  H       4.281165     -2.496460     -2.922385
  C       4.371919     -1.252983     -6.835779
  C       6.352018     -0.409055     -4.579326
  C       3.359961      0.404377     -4.410563
  H       5.078405     -2.027416     -7.198989
  H       4.566991     -0.325455     -7.412705
  H       3.341746     -1.584979     -7.080748
  H       7.081637     -1.177375     -4.906800
  H       6.486791     -0.252286     -3.489428
  H       6.604395      0.542880     -5.091484
  H       2.315472      0.118053     -4.649685
  H       3.575117      1.364344     -4.924550
  H       3.416935      0.585773     -3.317591
  H       2.026172     -2.783718     -4.328669
  H       2.917958     -1.178211      0.856722
71
Coordinates from ORCA-job my_molecule E -2465.735599914059
  Pt      2.782738     -3.039376     -0.431566
  O       0.253899     -0.115119      0.893117
  O       1.581048     -1.780051     -1.809601
  P       1.582115      0.553453      0.605064
  P       0.561076     -2.526627     -2.722334
  O       0.420589     -4.055053     -2.200686
  O       1.054514     -2.553994     -4.264063
  O       1.880677      0.763221     -0.996827
  O       2.893122     -0.235351      1.207397
  C       1.790820      2.250070      1.303247
  C      -1.112351     -1.781516     -2.797247
  C      -1.978951     -2.635289     -3.746880
  C      -0.968629     -0.337245     -3.323732
  C      -1.686827     -1.781163     -1.364442
  C       0.659946      3.118884      0.715355
  C       1.629701      2.128156      2.832590
  C       3.172171      2.821467      0.937114
  H       1.133428     -4.177662     -1.488657
  H       1.731083     -0.119454     -1.444192
  H      -1.578112     -2.640205     -4.779421
  H      -3.002496     -2.207684     -3.774341
  H      -2.056793     -3.683060     -3.394794
  H      -0.544204     -0.311029     -4.346713
  H      -0.336782      0.282511     -2.656851
  H      -1.975523      0.127358     -3.357202
  H      -1.801163     -2.811889     -0.974633
  H      -2.694469     -1.317332     -1.395239
  H      -1.061137     -1.199625     -0.654383
  H      -0.333309      2.676563      0.929799
  H       0.760826      3.223859     -0.383160
  H       0.696582      4.133146      1.165640
  H       0.656940      1.665645      3.093313
  H       1.673519      3.136862      3.294787
  H       2.434174      1.508411      3.275465
  H       3.302172      2.889874     -0.160754
  H       3.987826      2.190885      1.341473
  H       3.277345      3.842152      1.362849
  Si      2.039980     -3.978823      1.565567
  C       2.099336     -5.878756      1.505980
  C       3.057927     -3.367209      3.046987
  C       0.239923     -3.413868      1.769429
  H       3.138705     -6.255584      1.425340
  H       1.523693     -6.280774      0.647267
  H       1.651573     -6.292968      2.434939
  H       3.067284     -2.259484      3.092959
  H       4.107526     -3.720604      2.997811
  H       2.606499     -3.745394      3.989268
  H       0.153468     -2.307891      1.724569
  H      -0.134361     -3.766891      2.755598
  H      -0.412151     -3.846884      0.983749
  H       3.894818     -3.895491      0.234091
  C       3.964995     -3.759593     -4.572271
  C       4.226324     -2.545338     -4.031921
  H       3.820047     -4.660294     -3.948146
  H       3.908324     -3.913301     -5.665214
  Si      4.576781     -0.932200     -4.979615
  H       4.280211     -2.499738     -2.922409
  C       4.375148     -1.254671     -6.835057
  C       6.353226     -0.412298     -4.576702
  C       3.361332      0.402898     -4.411035
  H       5.081135     -2.029600     -7.198193
  H       4.571665     -0.327213     -7.411707
  H       3.344941     -1.585900     -7.081049
  H       7.083011     -1.180355     -4.904311
  H       6.487561     -0.255973     -3.486694
  H       6.605323      0.540016     -5.088205
  H       2.317131      0.116920     -4.651904
  H       3.577598      1.362617     -4.925003
  H       3.416718      0.584332     -3.317989
  H       2.024606     -2.782941     -4.329365
  H       2.918447     -1.177292      0.855835
