69
Coordinates from ORCA-job my_molecule E -2464.542591531042
  Pt          0.40983788956708     -0.88511138306314      0.24744873360462
  O           1.37867063989927      0.04508968496800      1.75187945918345
  O          -2.66898163499909     -0.52368442491929     -1.96884096325949
  P           2.64609797301493      1.00485346000331      1.87959978025006
  P          -2.31319882053118     -1.76551309620593     -1.18965349644431
  O          -3.02342214124741     -1.66272455493610      0.31966458091804
  O          -0.76076792908113     -2.08717816121049     -0.90456145832557
  O           2.17615912015912      2.42000703995520      1.11228345284756
  O           3.98759956428106      0.55069071295606      1.33782268113445
  C           2.67478393547264      1.43704058436692      3.68806014081408
  C          -2.96259124284694     -3.33130399096751     -1.96074906471104
  C          -2.61427313036599     -4.56014535245452     -1.10354804773834
  C          -2.33063499111391     -3.44845298846460     -3.36177113859750
  C          -4.49032821885205     -3.15768552533461     -2.07756275321710
  C           1.30727163219714      1.98290969578054      4.13279037958824
  C           3.03799690551382      0.15630389717324      4.46484472856339
  C           3.77459784149540      2.50189246470019      3.87209206330365
  H          -2.69648867756659     -2.37982937541138      0.89745729142283
  H           2.96532006710435      2.76203123720184      0.64718100520818
  H          -1.51892550403842     -4.67708033984091     -0.98647498894922
  H          -3.01137418918373     -5.47979153873439     -1.58379809330441
  H          -3.07013970452026     -4.50248521812643     -0.09259347638332
  H          -1.23426095355228     -3.59653663954421     -3.30209395731631
  H          -2.52471563336527     -2.53469886346016     -3.95764256148188
  H          -2.76770927974978     -4.31629055950974     -3.89988134585194
  H          -4.96309043943010     -3.05606180929446     -1.08021780344724
  H          -4.93141943522962     -4.04187523320245     -2.58445856114249
  H          -4.74100219546890     -2.25267632054318     -2.66502835507491
  H           0.51041098055872      1.22369135777927      4.00949585617577
  H           1.02285398773857      2.88177335405601      3.54965814627794
  H           1.34943862331500      2.27055116611877      5.20506841075050
  H           2.25851654026334     -0.62222370513047      4.34665726360718
  H           3.13365657449949      0.38850461578056      5.54679918648191
  H           4.00208855922981     -0.26257366226880      4.11362238713146
  H           3.52869174404423      3.43431176783048      3.32456307708463
  H           4.75316814884075      2.13179210316889      3.50704087729766
  H           3.87489913103037      2.75623033178134      4.94832217910968
  Si          2.27316194349679     -1.59338617579617     -1.07648582112466
  C           3.12589481636966     -0.07725927029073     -1.80523534616231
  C           3.38446220389829     -2.50252418745699      0.15003923070053
  C           1.69587766993223     -2.74310273774284     -2.45795911190077
  H           3.59499164476918      0.50884078426275     -0.99046160187964
  H           2.43269055178374      0.55608742938738     -2.39334675772451
  H           3.92610115638786     -0.43320531967633     -2.48996903096385
  H           2.85015594795867     -3.29704455861776      0.70847719166886
  H           3.82305251171993     -1.76927960473142      0.85646890698417
  H           4.20637389502786     -2.98476167069168     -0.42340530630063
  H           1.17485123845455     -3.63450957927467     -2.06016789862685
  H           2.59597887418249     -3.07619595061886     -3.01942736608507
  H           1.01288142704810     -2.22880457868282     -3.16118994852474
  H          -2.13174615892965      0.81495535572356      0.22894797698870
  C          -0.15672938233615      0.89930525614965     -0.66195602524744
  C          -1.24357319320719      1.47797594711278      0.17961888382122
  H          -0.49910846445594      0.58631414952825     -1.66668800836911
  H           0.77432537897503      1.49701394609477     -0.67439084357762
  Si         -1.92502624465533      3.12610966701501     -0.59716519615339
  H          -0.90033799677140      1.73867224341930      1.20258382583994
  C          -0.64354157751334      4.50626556912803     -0.30628083752682
  C          -3.53548488046994      3.50185625135468      0.32659907545037
  C          -2.26393625041247      2.84291912199044     -2.43363023725434
  H          -1.04594019582018      5.29040574730732      0.36730087119483
  H          -0.35222842909571      4.99873364480064     -1.25654006983188
  H           0.27539087812481      4.09971759839752      0.16468551854999
  H          -3.36296047090510      3.60921702540378      1.41734513749420
  H          -4.27953093547668      2.69395840513535      0.17217329413414
  H          -3.97923075990092      4.45086582228374     -0.04092157120852
  H          -1.32185399593355      2.81633142059470     -3.01928228091855
  H          -2.89739603161361      3.65270921946768     -2.85137497069461
  H          -2.77630090771452      1.86806829802497     -2.57183729826189
