69
Coordinates from ORCA-job my_molecule_initial_path E   0.000000000000
  Pt      0.737466     -0.690426     -0.120457
  O       1.282026      0.275325      1.555292
  O      -2.253241     -0.114667     -2.148301
  P       2.681542      1.054113      1.488289
  P      -1.565894     -1.554075     -1.857166
  O      -2.066527     -2.080291     -0.403062
  O      -0.012563     -1.502271     -1.930672
  O       2.461579      2.230113      0.310696
  O       3.950009      0.273036      1.208089
  C       2.726926      2.027050      3.072874
  C      -2.342434     -2.662611     -3.098116
  C      -1.841034     -4.099437     -2.855479
  C      -1.914385     -2.163292     -4.494039
  C      -3.874856     -2.582861     -2.929034
  C       1.480731      2.921883      3.191395
  C       2.790536      1.021683      4.238960
  C       4.008720      2.882095      3.031979
  H      -1.331751     -1.793717      0.228706
  H       3.207197      2.124443     -0.313605
  H      -0.744086     -4.177179     -2.986877
  H      -2.321866     -4.777227     -3.590765
  H      -2.095668     -4.455968     -1.838480
  H      -0.812623     -2.181571     -4.610876
  H      -2.269284     -1.131317     -4.682524
  H      -2.354256     -2.827025     -5.266691
  H      -4.192115     -2.916097     -1.921289
  H      -4.352575     -3.247873     -3.678117
  H      -4.249838     -1.553889     -3.091438
  H       0.552697      2.318495      3.235934
  H       1.404837      3.615450      2.330075
  H       1.540853      3.530654      4.119069
  H       1.885133      0.383934      4.272092
  H       2.866361      1.568968      5.202887
  H       3.675250      0.359794      4.149888
  H       3.974340      3.615170      2.200965
  H       4.904742      2.245432      2.893211
  H       4.117912      3.444830      3.983351
  Si      1.993409     -2.611691      0.323655
  C       3.542639     -2.472237     -0.751652
  C       2.465482     -2.694985      2.151174
  C       0.993390     -4.159119     -0.145689
  H       4.106247     -1.572084     -0.433106
  H       3.294495     -2.393892     -1.828769
  H       4.182743     -3.369026     -0.601537
  H       1.585541     -2.610921      2.818559
  H       3.172791     -1.873198      2.377085
  H       2.967001     -3.667069      2.348982
  H       0.033150     -4.226790      0.404133
  H       1.594615     -5.058935      0.108081
  H       0.779286     -4.180679     -1.231509
  H      -1.667595      0.672185     -1.950968
  C      -0.861960      2.597950     -2.395576
  C      -0.813452      2.493108     -1.044958
  H      -1.792250      2.860599     -2.932130
  H       0.030673      2.442753     -3.028309
  Si     -2.251660      2.819807      0.160036
  H       0.177302      2.262864     -0.597316
  C      -1.860509      4.419072      1.099305
  C      -2.359738      1.368510      1.370336
  C      -3.862649      3.003148     -0.820736
  H      -0.903660      4.330799      1.652904
  H      -2.660147      4.642268      1.836078
  H      -1.778590      5.282888      0.408757
  H      -1.372369      1.182438      1.842501
  H      -2.667261      0.436075      0.854364
  H      -3.099341      1.573793      2.171779
  H      -3.825135      3.863376     -1.520678
  H      -4.717139      3.170949     -0.132913
  H      -4.079169      2.087366     -1.408644
69
Coordinates from ORCA-job my_molecule_initial_path E   0.000000000000
  Pt      0.650759     -0.716162     -0.041949
  O       1.273709      0.237748      1.627631
  O      -2.406155     -0.328453     -1.860437
  P       2.647397      1.063733      1.607692
  P      -1.694542     -1.731476     -1.653983
  O      -2.135025     -2.396044     -0.242632
  O      -0.153228     -1.570468     -1.827501
  O       2.404680      2.307291      0.513891
  O       3.955343      0.372725      1.273446
  C       2.692724      1.919369      3.255846
  C      -2.494064     -2.767108     -2.943335
  C      -1.902529     -4.183293     -2.834124
  C      -2.171798     -2.149889     -4.319056
  C      -4.013669     -2.791299     -2.680292
  C       1.425383      2.762349      3.459386
  C       2.796665      0.842509      4.351383
  C       3.933844      2.833133      3.265428
  H      -1.527492     -2.034941      0.464593
  H       3.167569      2.298856     -0.097951
  H      -0.814433     -4.181513     -3.038317
  H      -2.389362     -4.834674     -3.589153
  H      -2.074869     -4.623859     -1.833373
  H      -1.080229     -2.097792     -4.501192
  H      -2.593097     -1.130838     -4.418027
  H      -2.630589     -2.773290     -5.113999
  H      -4.256295     -3.216517     -1.686608
  H      -4.503130     -3.421158     -3.451802
  H      -4.451232     -1.776782     -2.743653
  H       0.525658      2.121324      3.468782
  H       1.336806      3.503182      2.642906
  H       1.460955      3.305654      4.427466
  H       1.916367      0.170006      4.345305
  H       2.860922      1.323026      5.350980
  H       3.708229      0.228584      4.209879
  H       3.866969      3.619357      2.486383
  H       4.853207      2.244611      3.078516
  H       4.027331      3.332517      4.253076
  Si      2.117088     -2.502350      0.132114
  C       3.593846     -2.095524     -0.972064
  C       2.653676     -2.724759      1.925161
  C       1.271758     -4.093403     -0.461066
  H       4.102564     -1.196327     -0.571025
  H       3.296697     -1.917363     -2.024409
  H       4.311881     -2.944158     -0.947233
  H       1.792458     -2.783994      2.618679
  H       3.304963     -1.876704      2.211169
  H       3.245039     -3.662386      2.008192
  H       0.356337     -4.328863      0.116723
  H       1.975609     -4.944278     -0.330963
  H       1.022797     -4.037163     -1.537631
  H      -1.676019      0.622302     -1.683631
  C      -0.607752      2.308571     -2.345538
  C      -0.778476      2.266159     -0.990040
  H      -1.433731      2.540760     -3.039141
  H       0.393319      2.238036     -2.796349
  Si     -2.243676      2.962166     -0.040047
  H       0.136793      2.115003     -0.389892
  C      -1.654915      4.601565      0.686270
  C      -2.661165      1.749437      1.337245
  C      -3.722136      3.122801     -1.207607
  H      -0.766224      4.488412      1.338497
  H      -2.468289      5.034068      1.303647
  H      -1.397005      5.320001     -0.117363
  H      -1.761360      1.514437      1.937144
  H      -3.045488      0.779902      0.963112
  H      -3.434291      2.170893      2.011630
  H      -3.506608      3.849667     -2.016979
  H      -4.600690      3.494171     -0.641222
  H      -4.029778      2.168502     -1.682591
69
Coordinates from ORCA-job my_molecule_initial_path E   0.000000000000
  Pt      0.581150     -0.774516      0.038886
  O       1.273613      0.180083      1.694194
  O      -2.587282     -0.554032     -1.467979
  P       2.610919      1.065457      1.711044
  P      -1.801644     -1.896178     -1.449416
  O      -2.115820     -2.715209     -0.088638
  O      -0.285831     -1.635000     -1.723079
  O       2.320333      2.364443      0.700159
  O       3.949034      0.460955      1.328173
  C       2.642512      1.814379      3.409299
  C      -2.620450     -2.857339     -2.786153
  C      -1.949903     -4.240242     -2.817408
  C      -2.409797     -2.129508     -4.127199
  C      -4.118110     -2.984421     -2.443344
  C       1.340639      2.578703      3.684076
  C       2.801453      0.674738      4.432444
  C       3.840642      2.781251      3.469035
  H      -1.714922     -2.275780      0.705158
  H       3.097684      2.455498      0.113863
  H      -0.877558     -4.159642     -3.079649
  H      -2.444836     -4.861704     -3.592280
  H      -2.041137     -4.761316     -1.845174
  H      -1.336019     -2.006340     -4.368587
  H      -2.889112     -1.132286     -4.121051
  H      -2.888119     -2.710017     -4.943210
  H      -4.281086     -3.496688     -1.474699
  H      -4.622060     -3.575056     -3.236234
  H      -4.611035     -1.994561     -2.399727
  H       0.476510      1.891412      3.650735
  H       1.214203      3.371248      2.924435
  H       1.360665      3.057448      4.686035
  H       1.950823     -0.033844      4.391075
  H       2.857146      1.092245      5.460449
  H       3.737923      0.113715      4.243615
  H       3.733058      3.613348      2.744184
  H       4.783786      2.248443      3.238737
  H       3.921177      3.220242      4.485955
  Si      2.227251     -2.387127     -0.062013
  C       3.614490     -1.733738     -1.158633
  C       2.833633     -2.733070      1.686842
  C       1.512969     -3.979402     -0.796980
  H       4.072409     -0.848081     -0.675539
  H       3.264698     -1.472103     -2.176545
  H       4.397124     -2.518123     -1.252063
  H       2.004092     -2.932915      2.392580
  H       3.428279     -1.868070      2.037468
  H       3.502078     -3.620931      1.659962
  H       0.655051     -4.358905     -0.208564
  H       2.298949     -4.765861     -0.781296
  H       1.217377     -3.844853     -1.854600
  H      -1.742013      0.581821     -1.347783
  C      -0.390439      1.957454     -2.192096
  C      -0.796693      2.043419     -0.872491
  H      -1.093823      2.145677     -3.020401
  H       0.663132      2.110409     -2.462059
  Si     -2.211256      3.092293     -0.239776
  H       0.004207      1.964100     -0.121045
  C      -1.411195      4.717545      0.290993
  C      -2.922653      2.184718      1.248322
  C      -3.531704      3.186219     -1.588711
  H      -0.598055      4.604733      1.036060
  H      -2.198197      5.345967      0.753814
  H      -0.996051      5.253389     -0.585903
  H      -2.139233      1.966267      1.997507
  H      -3.393882      1.207855      1.020647
  H      -3.695721      2.814506      1.734011
  H      -3.140559      3.729362     -2.472630
  H      -4.399393      3.753707     -1.195033
  H      -3.933418      2.213807     -1.941767
69
Coordinates from ORCA-job my_molecule_initial_path E   0.000000000000
  Pt      0.534922     -0.831746      0.097637
  O       1.282650      0.112069      1.746161
  O      -2.752974     -0.770340     -1.008172
  P       2.572004      1.062613      1.802026
  P      -1.901815     -2.027873     -1.249222
  O      -2.017828     -3.010783      0.040312
  O      -0.414431     -1.695360     -1.607216
  O       2.213196      2.401065      0.871617
  O       3.931784      0.541947      1.374341
  C       2.578304      1.710706      3.541193
  C      -2.726604     -2.930687     -2.621523
  C      -1.990852     -4.268400     -2.799579
  C      -2.632981     -2.102297     -3.914733
  C      -4.194430     -3.161146     -2.212392
  C       1.239358      2.386355      3.866925
  C       2.800029      0.517812      4.489460
  C       3.734860      2.722513      3.652529
  H      -1.889353     -2.546812      0.901794
  H       3.000079      2.590681      0.322482
  H      -0.939718     -4.109911     -3.108086
  H      -2.495400     -4.858423     -3.592988
  H      -2.001519     -4.866181     -1.868003
  H      -1.583787     -1.909518     -4.209959
  H      -3.157815     -1.136767     -3.793370
  H      -3.133513     -2.638217     -4.748232
  H      -4.273028     -3.755215     -1.280469
  H      -4.716274     -3.711082     -3.022857
  H      -4.730518     -2.205046     -2.057939
  H       0.404035      1.666291      3.786101
  H       1.071011      3.225545      3.167070
  H       1.249672      2.800421      4.897704
  H       1.980433     -0.223729      4.413196
  H       2.848754      0.874623      5.540385
  H       3.758146      0.011378      4.259284
  H       3.584000      3.593529      2.983422
  H       4.699907      2.249572      3.384427
  H       3.804578      3.102225      4.693711
  Si      2.315442     -2.253199     -0.257874
  C       3.605899     -1.378484     -1.313348
  C       2.999509     -2.713718      1.435556
  C       1.705432     -3.808880     -1.142769
  H       4.017246     -0.517576     -0.750551
  H       3.205009     -1.048297     -2.291481
  H       4.439566     -2.086294     -1.515447
  H       2.212437     -3.050034      2.138335
  H       3.539006     -1.843365      1.855860
  H       3.732384     -3.538973      1.302492
  H       0.915203     -4.321625     -0.561091
  H       2.555742     -4.518810     -1.239797
  H       1.348266     -3.591285     -2.167094
  H      -1.828112      0.570507     -0.969380
  C      -0.224527      1.623967     -1.916258
  C      -0.859169      1.847277     -0.685348
  H      -0.799736      1.701689     -2.855197
  H       0.806794      1.979307     -2.057385
  Si     -2.143369      3.188542     -0.444010
  H      -0.214980      1.834684      0.206667
  C      -1.144200      4.751075     -0.080846
  C      -3.117942      2.650650      1.082027
  C      -3.289918      3.169470     -1.945180
  H      -0.414054      4.661156      0.749367
  H      -1.865121      5.545327      0.197843
  H      -0.596289      5.079535     -0.986557
  H      -2.467515      2.510286      1.966454
  H      -3.686225      1.705709      0.968881
  H      -3.850446      3.446787      1.326430
  H      -2.740782      3.487565     -2.854141
  H      -4.101332      3.904207     -1.768273
  H      -3.789101      2.202987     -2.164924
69
Coordinates from ORCA-job my_molecule_initial_path E   0.000000000000
  Pt      0.493915     -0.859502      0.137009
  O       1.279389      0.061114      1.778252
  O      -2.863318     -0.960190     -0.572197
  P       2.523479      1.060443      1.887507
  P      -1.994408     -2.130826     -1.041754
  O      -1.891790     -3.248463      0.152538
  O      -0.530093     -1.754894     -1.475291
  O       2.092880      2.432639      1.043750
  O       3.897741      0.620955      1.417296
  C       2.505882      1.603107      3.662955
  C      -2.817933     -2.992283     -2.444363
  C      -2.031100     -4.271931     -2.770079
  C      -2.846899     -2.070499     -3.675710
  C      -4.248112     -3.327576     -1.978833
  C       1.136177      2.193055      4.029705
  C       2.793786      0.363589      4.530412
  C       3.621567      2.653004      3.829455
  H      -2.040878     -2.852971      1.040395
  H       2.880013      2.710656      0.533367
  H      -1.007009     -4.035503     -3.117483
  H      -2.547755     -4.829479     -3.579549
  H      -1.960019     -4.937571     -1.888301
  H      -1.828976     -1.805622     -4.019023
  H      -3.404506     -1.145999     -3.437777
  H      -3.374072     -2.562701     -4.519996
  H      -4.239172     -3.996985     -1.095810
  H      -4.792071     -3.837796     -2.800835
  H      -4.814994     -2.414218     -1.712773
  H       0.327261      1.447727      3.907656
  H       0.919299      3.068450      3.388601
  H       1.139092      2.541328      5.084705
  H       2.005977     -0.406788      4.415239
  H       2.837560      0.657160      5.600869
  H       3.770008     -0.086649      4.261879
  H       3.425500      3.557768      3.219464
  H       4.604969      2.242152      3.527010
  H       3.683610      2.970394      4.891702
  Si      2.372231     -2.086912     -0.453844
  C       3.561868     -1.012854     -1.441291
  C       3.146625     -2.657799      1.167236
  C       1.841703     -3.575876     -1.487673
  H       3.931892     -0.189451     -0.799030
  H       3.111739     -0.618806     -2.373373
  H       4.434342     -1.632893     -1.743927
  H       2.412661     -3.126717      1.851593
  H       3.631834     -1.794468      1.662466
  H       3.933509     -3.406555      0.930260
  H       1.127101     -4.213187     -0.932191
  H       2.740343     -4.195454     -1.699732
  H       1.407150     -3.276930     -2.460300
  H      -1.921984      0.604588     -0.600072
  C      -0.130076      1.333410     -1.557113
  C      -0.960770      1.690265     -0.456336
  H      -0.568672      1.261732     -2.568594
  H       0.864836      1.801306     -1.618029
  Si     -2.034869      3.223320     -0.645881
  H      -0.471197      1.759498      0.528950
  C      -0.866571      4.692625     -0.432486
  C      -3.229202      3.100137      0.817734
  C      -3.003544      3.078744     -2.259848
  H      -0.223841      4.643252      0.470324
  H      -1.483726      5.610125     -0.353470
  H      -0.214753      4.803047     -1.322255
  H      -2.701174      3.079921      1.791644
  H      -3.891139      2.211409      0.785345
  H      -3.874526      4.001707      0.803229
  H      -2.325689      3.148683     -3.134214
  H      -3.708576      3.932479     -2.321519
  H      -3.612525      2.156561     -2.357598
69
Coordinates from ORCA-job my_molecule_initial_path E   0.000000000000
  Pt      0.444415     -0.868010      0.175289
  O       1.250466      0.032131      1.802956
  O      -2.901377     -1.126109     -0.196020
  P       2.459903      1.061487      1.971673
  P      -2.056071     -2.227798     -0.830058
  O      -1.780928     -3.438147      0.265039
  O      -0.614834     -1.815645     -1.343904
  O       1.956249      2.465733      1.222053
  O       3.842026      0.700542      1.460048
  C       2.427622      1.486711      3.779756
  C      -2.898846     -3.046915     -2.255030
  C      -2.074275     -4.256178     -2.725121
  C      -3.051206     -2.030005     -3.400825
  C      -4.283229     -3.488212     -1.741289
  C       1.034359      1.994394      4.184559
  C       2.782773      0.206869      4.559978
  C       3.499900      2.570377      4.007119
  H      -2.150819     -3.168725      1.132277
  H       2.733777      2.820446      0.745620
  H      -1.082439     -3.942831     -3.104461
  H      -2.607858     -4.777674     -3.547969
  H      -1.921203     -4.980905     -1.901828
  H      -2.068879     -1.692919     -3.783229
  H      -3.623963     -1.150794     -3.048768
  H      -3.610729     -2.479225     -4.248411
  H      -4.188215     -4.226561     -0.920200
  H      -4.853732     -3.958715     -2.569256
  H      -4.868671     -2.626604     -1.364099
  H       0.256590      1.223459      4.021337
  H       0.763895      2.897626      3.603619
  H       1.031421      2.271444      5.260442
  H       2.028029     -0.588290      4.400427
  H       2.824213      0.432046      5.646916
  H       3.773825     -0.183964      4.254425
  H       3.256853      3.503306      3.459386
  H       4.497864      2.223704      3.673130
  H       3.557308      2.820536      5.087410
  Si      2.397048     -1.889948     -0.645875
  C       3.464086     -0.622434     -1.544492
  C       3.275050     -2.561567      0.883027
  C       1.922200     -3.291421     -1.817939
  H       3.803099      0.146035     -0.821306
  H       2.948780     -0.157190     -2.407988
  H       4.362075     -1.139687     -1.948331
  H       2.606481     -3.159725      1.533230
  H       3.705412     -1.717086      1.456223
  H       4.106728     -3.217285      0.544601
  H       1.286762     -4.040947     -1.308201
  H       2.853747     -3.803945     -2.143332
  H       1.399941     -2.922489     -2.721020
  H      -2.012247      0.692802     -0.295770
  C      -0.079269      1.078488     -1.178885
  C      -1.082615      1.581513     -0.255701
  H      -0.394746      0.864516     -2.217235
  H       0.883733      1.614978     -1.172921
  Si     -1.899101      3.197450     -0.834930
  H      -0.708693      1.756364      0.770131
  C      -0.584152      4.552771     -0.767216
  C      -3.240007      3.501544      0.464560
  C      -2.691423      2.930350     -2.528554
  H      -0.030576      4.563828      0.194000
  H      -1.068282      5.542791     -0.891345
  H       0.144605      4.436053     -1.594920
  H      -2.809145      3.611590      1.480186
  H      -3.992587      2.687880      0.496427
  H      -3.764863      4.445567      0.213088
  H      -1.923808      2.753868     -3.309000
  H      -3.251446      3.842469     -2.819972
  H      -3.411000      2.086284     -2.543532
69
Coordinates from ORCA-job my_molecule_initial_path E   0.000000000000
  Pt      0.400339     -0.860114      0.201483
  O       1.209087      0.008125      1.829276
  O      -2.876805     -1.281727      0.149125
  P       2.380734      1.068148      2.056179
  P      -2.079611     -2.323040     -0.618259
  O      -1.700134     -3.604950      0.383901
  O      -0.666117     -1.869585     -1.225492
  O       1.792970      2.490687      1.393481
  O       3.764220      0.781280      1.504754
  C       2.340494      1.357678      3.892291
  C      -2.973466     -3.093915     -2.050257
  C      -2.124642     -4.222855     -2.660278
  C      -3.242270     -1.983154     -3.084677
  C      -4.303269     -3.643858     -1.497248
  C       0.928286      1.779344      4.334222
  C       2.764766      0.046115      4.581547
  C       3.363096      2.472406      4.189315
  H      -2.212770     -3.474400      1.206566
  H       2.551903      2.921870      0.952776
  H      -1.167733     -3.836852     -3.063097
  H      -2.681692     -4.704373     -3.492363
  H      -1.891719     -5.000784     -1.906291
  H      -2.296502     -1.580997     -3.498767
  H      -3.806813     -1.143274     -2.631406
  H      -3.843135     -2.389971     -3.925606
  H      -4.127649     -4.445583     -0.751734
  H      -4.905967     -4.073465     -2.325101
  H      -4.894803     -2.842583     -1.011364
  H       0.185462      0.986296      4.120118
  H       0.605679      2.704464      3.816076
  H       0.920986      1.977064      5.427451
  H       2.045600     -0.770332      4.372595
  H       2.806418      0.197060      5.681262
  H       3.767938     -0.279896      4.240722
  H       3.071129      3.426202      3.704648
  H       4.372791      2.194084      3.827579
  H       3.417971      2.650413      5.283983
  Si      2.394957     -1.670257     -0.831946
  C       3.297570     -0.209738     -1.612440
  C       3.388920     -2.425531      0.584337
  C       1.957935     -2.971621     -2.127525
  H       3.617886      0.486667     -0.811324
  H       2.680029      0.318046     -2.366157
  H       4.204905     -0.597058     -2.124874
  H       2.799372     -3.149101      1.182082
  H       3.763274     -1.611529      1.236533
  H       4.255386     -2.969222      0.148411
  H       1.400100     -3.818345     -1.683083
  H       2.907123     -3.358210     -2.558566
  H       1.342678     -2.546812     -2.943542
  H      -2.054287      0.835549     -0.101993
  C      -0.014598      0.874094     -0.843826
  C      -1.171840      1.513601     -0.145688
  H      -0.233168      0.514447     -1.868975
  H       0.922781      1.459423     -0.795071
  Si     -1.754372      3.138985     -1.011180
  H      -0.896794      1.820008      0.885600
  C      -0.299788      4.352396     -1.076854
  C      -3.156195      3.842726      0.047813
  C      -2.378074      2.746694     -2.756818
  H       0.173052      4.437623     -0.076711
  H      -0.629852      5.363186     -1.394163
  H       0.478354      4.013270     -1.791620
  H      -2.805548      4.074933      1.074330
  H      -3.995438      3.122091      0.129979
  H      -3.552355      4.779902     -0.395916
  H      -1.568196      2.346855     -3.401229
  H      -2.776671      3.658614     -3.248191
  H      -3.191916      1.992786     -2.728800
