69
Coordinates from ORCA-job my_molecule_NEB-HEI_converged E -2464.515305697761
  Pt          0.62447392894647     -0.56396647890648     -0.22713497864517
  O           1.34553610555339      0.17523756033644      1.51145809992669
  O          -2.63712565755099     -0.43401722533739     -1.02800652962256
  P           2.66010935166459      1.06328060101443      1.69219513069210
  P          -1.86221439454099     -1.72036999744674     -1.32372273501115
  O          -1.80391208376094     -2.74499081591953     -0.01672764296756
  O          -0.34387381046009     -1.50644071206186     -1.80084688777664
  O           2.33075408939966      2.43056549412428      0.77956134703906
  O           4.01289594387524      0.49700805471096      1.31047979997771
  C           2.55851782393536      1.65702123769464      3.45368132997566
  C          -2.74140198054731     -2.74945193330752     -2.57758607219393
  C          -2.06284557969661     -4.11870497045293     -2.74465622631619
  C          -2.72265267762413     -1.96216205770959     -3.90342303495324
  C          -4.18703719949499     -2.90786876668197     -2.06021002125961
  C           1.18987806071882      2.30701626117979      3.72413694192550
  C           2.77937285206044      0.44711469843428      4.38240249307271
  C           3.69543278515173      2.68249644233315      3.63348617303879
  H          -1.11392577671411     -2.40207976787847      0.59368472300756
  H           3.15232585323680      2.63263493650507      0.29037387165021
  H          -1.01546759642687     -4.01421701668890     -3.09038013128010
  H          -2.61637659560383     -4.71615683868614     -3.49972182725477
  H          -2.05583611951174     -4.68292660812379     -1.79193188873754
  H          -1.68783132641229     -1.82330257580062     -4.27556587199462
  H          -3.18435192821272     -0.96165637169667     -3.78320428155437
  H          -3.29638470877842     -2.51865251320465     -4.67391554442409
  H          -4.20965785918330     -3.45248781490786     -1.09514336296887
  H          -4.78735313896252     -3.48058376283383     -2.79745864117586
  H          -4.66156957724981     -1.91939787459521     -1.90388447663171
  H           0.36508873697360      1.57830096877195      3.59840399380160
  H           1.00885400463822      3.16077828976438      3.04037532278142
  H           1.15731993630842      2.69155891152485      4.76615370342895
  H           1.97420929569286     -0.30586623208078      4.26924833642542
  H           2.78565834436198      0.78594086270651      5.44065229840156
  H           3.74921521681310     -0.04826933991850      4.17630661495029
  H           3.54527823796931      3.56380162910588      2.97776585078280
  H           4.67748597246294      2.23129240218947      3.38903941195123
  H           3.72257653162025      3.03796449769592      4.68508626575127
  Si          2.34971799408912     -2.29014549036103     -0.33562179078925
  C           3.74678505543561     -1.55524134366398     -1.35714941732052
  C           2.97848334697002     -2.71890654888024      1.40730640530849
  C           1.66252085021999     -3.87631170806272     -1.11468582452080
  H           4.15890701722546     -0.68728074352261     -0.80420493124771
  H           3.39686452145201     -1.24333139978285     -2.36010469622855
  H           4.54816870742212     -2.31521337890871     -1.48217362573023
  H           2.19158869492053     -3.05639648405668      2.11060169519134
  H           3.52465716013429     -1.85858915514772      1.83993657730823
  H           3.69709366053985     -3.56187410691775      1.28345514681252
  H           0.82027587509052     -4.30649333582544     -0.53652388639325
  H           2.48361761197534     -4.62767818377431     -1.12918925439782
  H           1.31855878407519     -3.70424161282519     -2.15140803259640
  H          -1.60734373306711      0.86922533989897     -0.41614218600814
  C           0.16331673182365      1.29902496847883     -1.40915175268078
  C          -0.81190620052462      1.70897782073811     -0.41776028329307
  H          -0.22880972274410      1.00020275894563     -2.39979028938347
  H           1.18158913742134      1.71602383172501     -1.41157225208763
  Si         -2.24744470563142      3.06944763034677     -0.45984297574187
  H          -0.32797054646064      1.96396158490583      0.54740198829989
  C          -1.54450836105048      4.80723636308616     -0.17482758571474
  C          -3.28535072113098      2.55937061721927      1.03794971745093
  C          -3.27191257278485      3.00573406685300     -2.04043055512480
  H          -0.86635108053609      4.83663173751706      0.70193838109489
  H          -2.38511179364757      5.50673242219314      0.02940619750320
  H          -0.99271411265291      5.19387621294154     -1.05475179409815
  H          -2.67091577932290      2.52796257721817      1.96164348699780
  H          -3.72061426873055      1.55120916362331      0.88155986532092
  H          -4.11453202973071      3.27682138401478      1.21100514038214
  H          -2.69478064080973      3.32381157027903     -2.93168051312423
  H          -4.13731241442975      3.69556429873763     -1.93721328195387
  H          -3.65973152619214      1.98144596915443     -2.20895122704761
