69
Coordinates from ORCA-job my_molecule_im8 E -2464.548126137792
  Pt          0.39709256269698     -0.86241796442322      0.19803091493630
  O           1.24848503011816      0.00824718659837      1.80261594862613
  O          -2.88397130701875     -1.25529319471628      0.21913504999208
  P           2.43398075955579      1.05917712735829      1.99764585694892
  P          -2.11271746011036     -2.30815092184912     -0.55893183960108
  O          -1.72280391553458     -3.58741508657591      0.44260267346213
  O          -0.70881681887633     -1.87083550255697     -1.19935056608115
  O           1.84442434885284      2.48291684615105      1.33913194969854
  O           3.80263082460903      0.75680743846372      1.41819327586005
  C           2.43608392532830      1.35991892184901      3.83239415478424
  C          -3.04409954582763     -3.07954480402205     -1.96652567858447
  C          -2.21858361960974     -4.21955030826611     -2.58785003114829
  C          -3.32556248677413     -1.97259126430195     -3.00166014522451
  C          -4.36634932424333     -3.61440495327995     -1.38153743400857
  C           1.03752118522319      1.79668479509753      4.30217786774423
  C           2.86373734202521      0.04875429645526      4.52031692729566
  C           3.47457314314761      2.46728611210624      4.10041590595365
  H          -2.21632685779215     -3.44746123029512      1.27534881827069
  H           2.59735817852654      2.90474441869844      0.87949014079036
  H          -1.26730005149277     -3.84442946017544     -3.01362085572173
  H          -2.79772173503083     -4.70103436563692     -3.40473593972970
  H          -1.97616663962066     -4.99503400265732     -1.83433690573684
  H          -2.38552090359913     -1.58128475033833     -3.43855633402011
  H          -3.87279628351471     -1.12507485685198     -2.54142781606141
  H          -3.94804446475528     -2.37904274495857     -3.82689632086222
  H          -4.18161127164515     -4.41322528039529     -0.63511013769011
  H          -4.99057948508549     -4.04355126638962     -2.19352174368076
  H          -4.94019647090581     -2.80505978388112     -0.88787988015822
  H           0.28333863810552      1.00899319422312      4.10903858740435
  H           0.71184238460942      2.72154138777194      3.78548600351932
  H           1.05564876602478      2.00093164397314      5.39407991808451
  H           2.13311334886065     -0.76251430299002      4.33196027343302
  H           2.93053580095782      0.20583270915646      5.61793010605731
  H           3.85640167615530     -0.28814129776620      4.15987542523376
  H           3.18050131264139      3.42074327514687      3.61635685722460
  H           4.47372085896661      2.17789506329986      3.71863584893087
  H           3.55471732285501      2.65127800907604      5.19253332685095
  Si          2.36169260647255     -1.69629856280237     -0.87332240429770
  C           3.25988261326428     -0.24847816711415     -1.68206544115960
  C           3.37949695735492     -2.45194743697453      0.52572303515465
  C           1.88534648321787     -3.00139018535349     -2.15116994709636
  H           3.60355569623819      0.44979433057902     -0.89233446435841
  H           2.63077628161203      0.28028247266159     -2.42546166021542
  H           4.15248109529964     -0.64684640265907     -2.21162484304828
  H           2.79675430727007     -3.16671602844914      1.14048873163675
  H           3.77499099001889     -1.63744493880713      1.16468431021194
  H           4.23153158890111     -3.00586212214421      0.07449130771628
  H           1.32991033134358     -3.84049417269625     -1.68960078914875
  H           2.82155689924099     -3.39891568952563     -2.60026652865776
  H           1.25627396072978     -2.57598794860150     -2.95627127017916
  H          -2.04864626340058      0.85309122900954     -0.06264735985923
  C          -0.02526020210243      0.86917776513826     -0.84863889994572
  C          -1.16147060117941      1.52303094547409     -0.12955853353063
  H          -0.26913333497961      0.50541664390304     -1.86660437660710
  H           0.91802723755092      1.44646033873030     -0.82374602320475
  Si         -1.74842266259728      3.14835758611427     -0.99216827620168
  H          -0.86146827188140      1.83309119201017      0.89364814250993
  C          -0.28507172347985      4.34842836258425     -1.09669858335121
  C          -3.12076477167584      3.87074372405502      0.09257309530493
  C          -2.41322222581980      2.75127646244442     -2.72147907160083
  H           0.21006473388690      4.43538453615504     -0.10755474353001
  H          -0.61310452880295      5.36020491163463     -1.41296675171593
  H           0.47440281001261      3.99819785882788     -1.82603943786881
  H          -2.74593287992901      4.10591011690249      1.10982805190567
  H          -3.96428526041835      3.15806882526073      0.19727201716138
  H          -3.51825814129194      4.80874761291203     -0.34820356512498
  H          -1.62102470429048      2.34047194106382     -3.38079852992369
  H          -2.81440512166498      3.66376504055178     -3.20968060588066
  H          -3.23281266672374      2.00478467601729     -2.67126078788741
