69

Pt        -0.17073       -0.85446        1.54286
O          0.21263       -0.11734        3.34621
O         -2.96731       -1.06501        0.53896
P          1.33990        1.19001        3.11849
P         -2.18585       -2.22168       -0.14094
O         -2.15292       -3.49496        1.03952
O         -0.56452       -1.62235       -0.24560
O          0.59205        2.36706        2.08997
O          2.47833        0.57754        2.26672
C          2.03425        1.89014        4.70797
C         -2.95540       -2.68860       -1.78862
C         -2.12468       -3.80886       -2.43435
C         -2.97545       -1.45970       -2.71167
C         -4.38958       -3.18242       -1.54683
C          0.87453        2.47145        5.52656
C          2.72390        0.76417        5.49245
C          3.05194        2.99655        4.38334
H         -3.08148       -3.55594        1.37710
H          1.35265        2.87317        1.70811
H         -1.08211       -3.47061       -2.61253
H         -2.56449       -4.10973       -3.41021
H         -2.09288       -4.70214       -1.77448
H         -1.94470       -1.09107       -2.89688
H         -3.56464       -0.63640       -2.25399
H         -3.43468       -1.71529       -3.69147
H         -4.38706       -4.06965       -0.87760
H         -4.87240       -3.47026       -2.50569
H         -5.00090       -2.38653       -1.07036
H          0.12636        1.68122        5.75189
H          0.36658        3.27969        4.95684
H          1.24333        2.89349        6.48544
H          2.00370       -0.05109        5.71804
H          3.13304        1.14914        6.45111
H          3.56232        0.33524        4.90173
H          2.57140        3.81554        3.80641
H          3.89307        2.59198        3.78001
H          3.46985        3.42820        5.31867
Si         2.42720       -0.25317       -1.83306
C          4.11851        0.17435       -2.48415
C          2.73604       -1.22333       -0.26355
C          1.53939       -1.34683       -3.05663
H          4.63260        0.81499       -1.73668
H          4.02156        0.72638       -3.43989
H          4.70433       -0.75443       -2.63636
H          1.79866       -1.48315        0.25651
H          3.39278       -0.63935        0.40479
H          3.26601       -2.16234       -0.52691
H          0.53605       -1.60863       -2.67028
H          2.12799       -2.27369       -3.21452
H          1.43450       -0.80639       -4.01926
H         -0.51838        0.51832       -1.59702
C          1.49629        1.38294       -1.68624
C          0.09446        1.28452       -1.08185
H          1.42920        1.77608       -2.72153
H          2.10165        2.08408       -1.07349
Si        -0.83183        2.91988       -1.27729
H          0.18819        1.01684       -0.01207
C          0.25618        4.39310       -0.89917
C         -2.33425        2.98040       -0.16744
C         -1.40558        3.06042       -3.04914
H          0.59408        4.36805        0.15267
H         -0.31999        5.32506       -1.07197
H          1.13661        4.38309       -1.57407
H         -2.01427        2.91912        0.89299
H         -3.01466        2.13705       -0.40160
H         -2.86697        3.94108       -0.32983
H         -0.53320        3.02967       -3.73213
H         -1.95131        4.01659       -3.18607
H         -2.08608        2.21419       -3.27896
