69
Coordinates from ORCA-job my_molecule E -2464.527628888388
  Pt          0.73744267320538     -0.69495257107150     -0.11464935853665
  O           1.28522303835590      0.27602802064158      1.55785997185230
  O          -2.24923062099247     -0.11541861713005     -2.14764044325379
  P           2.68433525197477      1.05521335494240      1.48748240204028
  P          -1.56886927146259     -1.55528393056924     -1.84723021093378
  O          -2.07137306607997     -2.06963836351434     -0.38932822868815
  O          -0.01493528529318     -1.51124009189226     -1.92159166333550
  O           2.46106929175753      2.23080360568520      0.31039126504112
  O           3.95233201063725      0.27405628803932      1.20554225172998
  C           2.73375880321598      2.02932012269446      3.07125668626652
  C          -2.35142130438013     -2.66859428935209     -3.07998451502324
  C          -1.86457731968113     -4.10760114927063     -2.82229511694447
  C          -1.91303481625084     -2.18497539083501     -4.47841945291926
  C          -3.88345932677989     -2.57183819557338     -2.91759868970538
  C           1.49009876958876      2.92747862215006      3.19110247788877
  C           2.79673004569768      1.02478200476051      4.23811835570601
  C           4.01761707606850      2.88119205442813      3.02793045517747
  H          -1.33541505804047     -1.78023706689326      0.24018959934131
  H           3.20461686708969      2.12594074679294     -0.31645200074495
  H          -0.76755197026786     -4.19571709122663     -2.94525093271948
  H          -2.34689955399857     -4.78803030069876     -3.55404150307734
  H          -2.12778264889501     -4.45281352126180     -1.80354330856606
  H          -0.81114940985435     -2.21613617936392     -4.59099188305829
  H          -2.25592508395805     -1.15043717577232     -4.67500056529121
  H          -2.35780187031794     -2.84932363462801     -5.24773644342583
  H          -4.20828626111248     -2.89701973832236     -1.90955760235714
  H          -4.36554141282131     -3.23516315189334     -3.66541309505145
  H          -4.24667698442647     -1.53952606313742     -3.08573719921817
  H           0.56067355002791      2.32646588076341      3.23931466722681
  H           1.41363007891690      3.61985708793871      2.32884800314619
  H           1.55427727399559      3.53758052651463      4.11759252428653
  H           1.89008043311661      0.38893213371575      4.27283612950124
  H           2.87486344389257      1.57276266550119      5.20146999466626
  H           3.68005067375896      0.36112798984492      4.14843471029171
  H           3.98360657003620      3.61420452255498      2.19684604402141
  H           4.91160099501876      2.24206014270683      2.88746845783155
  H           4.12999193927783      3.44383991617756      3.97895715333397
  Si          1.99395885679721     -2.61619583996189      0.32830773774079
  C           3.54686876995259     -2.47302281052786     -0.74096807318524
  C           2.45711633805458     -2.70015845292397      2.15823439301085
  C           1.00137106376149     -4.16677803449155     -0.14704931889136
  H           4.10833427559083     -1.57262822880570     -0.41931710119898
  H           3.30103733772255     -2.39247748375630     -1.81849497899976
  H           4.18749309421679     -3.36954591497940     -0.59175855210394
  H           1.57411122064498     -2.61706767972160      2.82167835461889
  H           3.16263338245479     -1.87793112703170      2.38816591037576
  H           2.95842479491395     -3.67209264275726      2.35742170641155
  H           0.03154002770568     -4.23165077874240      0.38591646078129
  H           1.59920846731521     -5.06350934327837      0.12521496948551
  H           0.80795071211563     -4.19901282424236     -1.23662461948426
  H          -1.65691778727900      0.66931767825990     -1.96339426636015
  C          -0.83621335818827      2.59434854675280     -2.41589565789606
  C          -0.81958534638372      2.48296458731840     -1.06567161562028
  H          -1.74966574753047      2.87205696941858     -2.97383283996948
  H           0.06845245254727      2.42982998154367     -3.02865539489927
  Si         -2.26086045506849      2.82446063209734      0.13382824081142
  H           0.16091990077564      2.23793782588368     -0.60279429387845
  C          -1.83982677651785      4.42179258537289      1.06424374301889
  C          -2.36456764141239      1.38008294600789      1.35272295979432
  C          -3.89367677063569      3.02102688220729     -0.82621515385273
  H          -0.88309391188920      4.32123136980622      1.61582620188483
  H          -2.63443408508362      4.66093689094610      1.80161779525042
  H          -1.74755574592778      5.27991925575558      0.36773222545965
  H          -1.37649832889602      1.18891432072509      1.82114013313912
  H          -2.68321876481783      0.44826839825560      0.84212855222008
  H          -3.09910260638511      1.59494570964487      2.15662473471310
  H          -4.35675397602640      4.01075299400586     -0.63769416447875
  H          -4.62178425052549      2.24315085783096     -0.51905268726980
  H          -3.75773266302175      2.92243356594070     -1.92256433712709
