26
.geom to .xyz and scaled by factor of 0.529177
O -1.1522142578 -0.5763009689 2.0646865326
Si -0.2231623854 0.6072826824 2.8538682286
Si -3.0103066340 -0.5174184814 1.9616477650
C 0.7600360140 1.6254958687 1.4682316690
C 1.6260194050 0.8139165445 0.5319540662
H 1.3589492642 2.2423367185 2.1651108215
H 2.1376884503 1.5016783752 -0.1693349178
H 2.4065857252 0.2600123308 1.0808343281
Si 0.7255798755 -0.4019877382 -0.6381163152
O -0.3781445196 0.4868355279 -1.5051275131
O 1.8374105147 -1.1190598155 -1.6536828172
Si 3.2162330420 -0.7916285528 -2.5499198384
Si -1.9482747684 0.4017051227 -2.1111229756
H 0.0355092321 2.2609943190 0.9458314240
H -3.6298122979 0.6365202366 2.6574399632
H -0.8456414411 1.6029192379 3.7785555053
H -3.0413423837 -1.8216840640 2.7371268437
H 0.8672795146 -0.1810825707 3.5099844252
H -1.8376058469 0.7100440987 -3.5687515317
H -2.5423319199 -0.9534820573 -1.9147402624
H -2.7787610098 1.4325529263 -1.4268076511
H 3.2526830647 0.6587530261 -2.9202758961
H 4.4125153366 -1.1267267623 -1.7244523179
H 3.2161591620 -1.6460435291 -3.7757811111
H 0.0833311774 -1.5128775702 0.1097675495
H -3.2347921284 -0.6741463204 0.4970287130
