66
Coordinates from ORCA-job my_molecule E -2537.187529428651
  O          -1.74173402017320     -0.48192363725557      0.01531683453092
  Si         -0.73025595319685      0.15113936564521      1.20268151133465
  Si         -2.50834872875191     -0.38758095344891     -1.47320131510895
  C          -1.79496226814015      0.49692445811228      2.72079192064533
  C          -1.86531265123858      1.67721182155857      3.37143518390532
  C          -4.05023489667110      0.68986129662678     -1.29054428899450
  C          -4.42255311949906      1.32660829965584     -0.15481813333982
  C           0.54612245314059     -1.17490405440569      1.61090691452119
  C           0.09833235573568      1.73658928010553      0.59814450046726
  C          -1.36397255431383      0.36623640897845     -2.77344034453546
  C          -3.02325241992785     -2.13093664485609     -1.97354140121182
  H          -2.40480035918087     -0.34072572803896      3.11397391362789
  H          -1.29275738692486      2.56235206576829      3.04150559962299
  H          -2.49761734040354      1.82463423450367      4.26540577577909
  H          -4.71602980039273      0.81738553979990     -2.16819864895922
  H          -3.83132809723029      1.25444856171250      0.77607894920089
  H          -5.33917100117102      1.94226777279106     -0.11311728006448
  H           0.04976891011940     -2.10790810941138      1.94732353501237
  H           1.22846071244972     -0.83964242319622      2.41891169857199
  H           1.16051584480244     -1.42034616920180      0.72005042011831
  H          -0.65181065684728      2.51153787492197      0.33889367005022
  H           0.70940862379600      1.53683415283339     -0.30583850808796
  H           0.77320310531409      2.15863396187493      1.37131630843085
  H          -1.05066964688705      1.39157899571060     -2.49050089242031
  H          -1.87515303473077      0.42883455407798     -3.75661294189316
  H          -0.45197832020162     -0.25238097325120     -2.90382748798749
  H          -3.71684053994752     -2.57006531274203     -1.22827431021009
  H          -2.13823557554685     -2.79431698908427     -2.05767104725174
  H          -3.54030856365208     -2.12274713259570     -2.95562163010241
  Pt         -7.77017248622090      0.71937233850072      2.09002044892386
  O          -8.42780047518466     -0.11160975228741      0.52759196610494
  O          -7.07829879359057      1.49176540398428      3.67121918773324
  P          -7.66597757534417     -0.56014238153752     -0.88144241798850
  P          -7.79905834793442      2.13975395511132      5.01273278398281
  O          -8.78773155448283      0.94463940167013      5.56658204427393
  O          -8.49667543967126      3.43901926052193      4.71014315763788
  O          -6.28700117792873     -1.29122090752586     -0.39663369609327
  O          -7.48287549205876      0.62288192468187     -1.79985751205782
  C          -8.70925387668555     -1.94904751904089     -1.50417809815992
  C          -6.43789280092489      2.16697008967580      6.25737212919501
  C          -7.04307492793040      2.72280255397173      7.56308349163185
  C          -5.35611395433125      3.12113658994874      5.71115795240213
  C          -5.87013426786858      0.75118065975851      6.46762884391795
  C          -8.81996124657412     -3.05849498085852     -0.44230980951303
  C         -10.09346686012256     -1.35447614229871     -1.83348942012740
  C          -8.02774270835353     -2.47499455136136     -2.78496405705633
  H          -9.68762264748309      1.09169756248744      5.20915267312879
  H          -5.54788406808079     -0.62354239479855     -0.39742520634292
  H          -7.49211142541893      3.72322824541199      7.40350383913983
  H          -6.24469583355400      2.81854582902355      8.32840199273085
  H          -7.82721578007536      2.05057974559547      7.96442219310741
  H          -5.77079109474369      4.12820596042184      5.50592768623978
  H          -4.91084266731517      2.73306703462998      4.77326158739476
  H          -4.54563398879406      3.22617504446016      6.46257609555474
  H          -6.64921376532192      0.04893097324705      6.82307895190750
  H          -5.06566954483535      0.78954064110200      7.23199240287073
  H          -5.43642736814993      0.34397640355086      5.53281906927627
  H          -9.30245754612894     -2.68822317988846      0.48373455552663
  H          -7.82572278137345     -3.46757769296458     -0.17608226586627
  H          -9.43985751203017     -3.88807170535788     -0.84319391175681
  H         -10.59474945231216     -0.96472717451184     -0.92557904875113
  H         -10.73805432103814     -2.14499252936234     -2.27152180367372
  H         -10.01047131084940     -0.52631528722285     -2.56469366130922
  H          -7.02948322135902     -2.90327842038122     -2.56615457935703
  H          -7.90400755240371     -1.66819694115183     -3.53472011715437
  H          -8.65576120385159     -3.27255857439485     -3.23414595312582
