69
Coordinates from ORCA-job my_molecule E -2464.525766868759
  Pt          0.75850330203841     -0.86823495294682     -0.00311652772052
  O           1.31675591162502     -0.01409090573772      1.72115307811904
  O          -2.42353506134983     -0.46859803610332     -1.24617341755167
  P           2.62109589411281      0.91480286552889      1.72896389607426
  P          -1.58912200617229     -1.84135714238280     -1.49707089685413
  O          -1.81156652977613     -2.74418533588189     -0.16920248377434
  O          -0.09149471920514     -1.56923715940772     -1.81860886661219
  O           2.30124333078467      2.13256239647975      0.61834992319623
  O           3.97314594669411      0.29341947790832      1.43930674761378
  C           2.52056213411809      1.78308336404041      3.36986342785128
  C          -2.45454808251966     -2.74844525088404     -2.83997322707923
  C          -1.72642763408251     -4.08549627231627     -3.07944137566653
  C          -2.39511239262178     -1.86165399692359     -4.10145000666154
  C          -3.91537623020569     -2.98379140459733     -2.40366917743677
  C           1.16171856160114      2.48901488370347      3.52117388121502
  C           2.70667275048695      0.71634380906694      4.46728606965621
  C           3.67611431482906      2.80142758318337      3.41174404062576
  H          -1.12459640801045     -2.40831612404584      0.48023411488338
  H           3.05575938708728      2.12540142086380     -0.00418901810186
  H          -0.67881686819828     -3.92602299234096     -3.40162391984360
  H          -2.25143629405401     -4.64522371829865     -3.88110987873762
  H          -1.71663742127240     -4.71608144370357     -2.16898729333331
  H          -1.34968605536315     -1.65722340375089     -4.40728358649126
  H          -2.91137937337407     -0.89403834651183     -3.94309067689251
  H          -2.90122928901238     -2.38557843939858     -4.93830187380408
  H          -3.97240798925336     -3.61528015846216     -1.49570241379722
  H          -4.45674383493595     -3.50311265223163     -3.22147680264716
  H          -4.43740373899439     -2.02879185472850     -2.19680350844960
  H           0.32801348929233      1.76021727128257      3.48913151789475
  H           1.00283767080540      3.23524532669398      2.71659902935488
  H           1.12091419045516      3.02200154257463      4.49550403885106
  H           1.89110148399019     -0.03301476217852      4.44164914223150
  H           2.70451170438781      1.20080083397938      5.46708932183727
  H           3.67012816264402      0.18249340400487      4.34392831004241
  H           3.55650324256110      3.57627730729997      2.62790744707838
  H           4.65124113967388      2.29952314778179      3.25364292434767
  H           3.69726766460751      3.30959752305141      4.39919396715679
  Si          2.28299495130591     -2.63529802916549      0.08443699336004
  C           3.77449978115575     -2.09915480517249     -0.94791003295627
  C           2.80631596454619     -2.95500122786861      1.87203004186358
  C           1.49345911260901     -4.20200024692929     -0.65068819295816
  H           4.22175627138336     -1.20339313008994     -0.47092488290589
  H           3.49575236231212     -1.86631792284261     -1.99481816685045
  H           4.53061307845310     -2.91447841574372     -0.95849983440386
  H           1.93897603664234     -3.10854239705023      2.54385648480871
  H           3.39413375398345     -2.08734857828784      2.23123709518210
  H           3.44527331841861     -3.86380756199867      1.90873199063897
  H           0.56288672340398     -4.49265433573313     -0.12321275022253
  H           2.21559857039883     -5.04181489635987     -0.55769399325705
  H           1.25729140349972     -4.06267562259602     -1.72371966748721
  H          -1.88617490667909      0.35151136666153     -1.44598791058198
  C          -0.76701897783313      1.89713515660036     -2.32254884915122
  C          -0.83113907266570      2.28986561676457     -1.02676242945162
  H          -1.56756936067753      2.13495873923688     -3.04771959176280
  H           0.09826753815678      1.33767506727191     -2.72182537326755
  Si         -2.22783750840343      3.30935481364424     -0.23382164098368
  H           0.04123010331095      2.03799414737347     -0.38536851386598
  C          -1.60069999141312      5.09537399794168     -0.00045010103401
  C          -2.64672346905743      2.54947213823856      1.44811776597936
  C          -3.74001197262812      3.27306735510453     -1.37685388046675
  H          -0.57380237525764      5.22107143446801     -0.39829902345779
  H          -1.58122252783451      5.37517373909955      1.07243385492937
  H          -2.25538216799477      5.81934930159848     -0.52729818607215
  H          -3.45382047391101      3.12605334026251      1.94633967667601
  H          -1.75820747678555      2.56486065980540      2.11301911539009
  H          -2.98325353758600      1.49706208097758      1.35551097169238
  H          -4.09875357941677      2.23535204113794     -1.53815080692840
  H          -3.51870334980559      3.72092648923169     -2.36783100833075
  H          -4.57529857502406      3.85178887980808     -0.93077408069900
