26
Coordinates from ORCA-job my_molecule E -1757.342779912656
  O      -1.152763     -0.576160      2.064358
  Si     -0.222489      0.606468      2.853602
  Si     -3.009924     -0.517641      1.960924
  C       0.759715      1.624839      1.468618
  C       1.626069      0.814030      0.531739
  H       1.359134      2.241618      2.165388
  H       2.137831      1.502196     -0.169202
  H       2.406705      0.260044      1.080800
  Si      0.725510     -0.401718     -0.638246
  O      -0.378607      0.486710     -1.505051
  O       1.837383     -1.119087     -1.653742
  Si      3.215715     -0.791741     -2.550775
  Si     -1.948915      0.401233     -2.110895
  H       0.035195      2.260633      0.946321
  H      -3.633062      0.633520      2.657167
  H      -0.845685      1.601695      3.777463
  H      -3.040390     -1.821249      2.737816
  H       0.867313     -0.182233      3.510459
  H      -1.837727      0.709734     -3.568535
  H      -2.543727     -0.953541     -1.914808
  H      -2.779512      1.431986     -1.426762
  H       3.252164      0.658752     -2.921624
  H       4.411458     -1.126792     -1.724904
  H       3.215372     -1.645891     -3.776850
  H       0.083305     -1.512381      0.109950
  H      -3.235499     -0.674516      0.496839
26
Coordinates from ORCA-job my_molecule E -1757.360253678092
  O      -1.276593     -0.571510      2.228963
  Si     -0.226466      0.590171      2.879900
  Si     -3.084833     -0.451676      2.276062
  C       0.721571      1.546876      1.460699
  C       1.591952      0.726103      0.505690
  H       1.351622      2.196816      2.112724
  H       2.126402      1.429981     -0.175092
  H       2.374710      0.161021      1.054343
  Si      0.742401     -0.458004     -0.724564
  O      -0.346256      0.448879     -1.602376
  O       1.902016     -1.096967     -1.743498
  Si      3.294833     -0.693598     -2.585026
  Si     -1.869516      0.355535     -2.311348
  H      -0.005590      2.192228      0.928497
  H      -3.583142      0.781183      2.949415
  H      -0.802499      1.628176      3.798293
  H      -3.281697     -1.705250      3.094552
  H       0.845865     -0.208480      3.565128
  H      -1.709376      0.781842     -3.738704
  H      -2.420193     -1.036808     -2.252777
  H      -2.791605      1.294346     -1.598293
  H       3.311668      0.776121     -2.894175
  H       4.488735     -1.039996     -1.749488
  H       3.343228     -1.486454     -3.854919
  H       0.092451     -1.627990     -0.072494
  H      -3.485116     -0.622035      0.848536
26
Coordinates from ORCA-job my_molecule E -1757.373856179851
  O      -1.303556     -0.559869      2.204570
  Si     -0.208472      0.561273      2.841166
  Si     -3.033989     -0.434705      2.228610
  C       0.734536      1.536967      1.486665
  C       1.611200      0.727534      0.512778
  H       1.373111      2.198108      2.126772
  H       2.146177      1.437137     -0.168330
  H       2.403856      0.161386      1.053834
  Si      0.763704     -0.464749     -0.691453
  O      -0.352945      0.425849     -1.563447
  O       1.919054     -1.082974     -1.733263
  Si      3.292259     -0.661353     -2.596531
  Si     -1.878425      0.309336     -2.255471
  H       0.013636      2.195161      0.948045
  H      -3.489869      0.844941      2.864490
  H      -0.827540      1.575915      3.769632
  H      -3.468348     -1.630618      3.026607
  H       0.828702     -0.252124      3.573471
  H      -1.773058      0.727576     -3.694731
  H      -2.409556     -1.096593     -2.174899
  H      -2.817085      1.234843     -1.531955
  H       3.295406      0.811299     -2.914726
  H       4.518263     -0.993138     -1.789705
  H       3.322659     -1.451094     -3.873306
  H       0.122265     -1.654036     -0.052062
  H      -3.477416     -0.555564      0.803289
26
Coordinates from ORCA-job my_molecule E -1757.377804242941
  O      -1.327855     -0.529112      2.205473
  Si     -0.188991      0.551904      2.829261
  Si     -2.995199     -0.428749      2.193017
  C       0.744619      1.518924      1.506837
  C       1.627262      0.714203      0.528050
  H       1.381447      2.205543      2.115228
  H       2.175936      1.419817     -0.140318
  H       2.413365      0.142861      1.070791
  Si      0.782200     -0.474301     -0.666957
  O      -0.356892      0.409892     -1.525352
  O       1.932226     -1.069938     -1.731177
  Si      3.284501     -0.631225     -2.616641
  Si     -1.879635      0.279039     -2.213412
  H       0.031519      2.169087      0.953331
  H      -3.438199      0.886806      2.779505
  H      -0.851795      1.552390      3.748394
  H      -3.589555     -1.557085      2.980708
  H       0.808093     -0.269297      3.609924
  H      -1.806934      0.694302     -3.657544
  H      -2.395508     -1.135673     -2.124618
  H      -2.833504      1.192525     -1.487713
  H       3.273464      0.842796     -2.939360
  H       4.536923     -0.948040     -1.838810
  H       3.296299     -1.416361     -3.898500
  H       0.143982     -1.680090     -0.048845
  H      -3.463200     -0.529708      0.768777
26
Coordinates from ORCA-job my_molecule E -1757.378535760085
  O      -1.318264     -0.513513      2.222224
  Si     -0.180250      0.570690      2.844630
  Si     -2.994896     -0.452873      2.183643
  C       0.751526      1.519029      1.507005
  C       1.635550      0.703640      0.540274
  H       1.382396      2.226205      2.095610
  H       2.205089      1.398952     -0.119336
  H       2.404935      0.121590      1.094570
  Si      0.784040     -0.473834     -0.661074
  O      -0.353462      0.420268     -1.510532
  O       1.928133     -1.069708     -1.730966
  Si      3.271895     -0.633858     -2.630004
  Si     -1.872608      0.298106     -2.207941
  H       0.035546      2.152559      0.940384
  H      -3.477761      0.862053      2.740934
  H      -0.861997      1.576474      3.741857
  H      -3.579839     -1.578392      2.986158
  H       0.806699     -0.237262      3.648345
  H      -1.785460      0.698200     -3.654881
  H      -2.402328     -1.109863     -2.109588
  H      -2.821662      1.228580     -1.500384
  H       3.258380      0.838572     -2.956786
  H       4.530394     -0.946778     -1.862607
  H       3.271853     -1.422289     -3.909108
  H       0.137819     -1.678091     -0.049971
  H      -3.451159     -0.587948      0.757592
26
Coordinates from ORCA-job my_molecule E -1757.379396309027
  O      -1.310703     -0.451476      2.233543
  Si     -0.169240      0.620765      2.872107
  Si     -2.992934     -0.484680      2.134152
  C       0.778583      1.522526      1.512923
  C       1.664168      0.675521      0.576958
  H       1.400406      2.268115      2.061607
  H       2.283406      1.343872     -0.064203
  H       2.393199      0.068077      1.158880
  Si      0.794192     -0.479663     -0.633589
  O      -0.352701      0.430846     -1.450562
  O       1.919225     -1.068022     -1.725979
  Si      3.232962     -0.632435     -2.667061
  Si     -1.860507      0.315975     -2.173060
  H       0.059570      2.124569      0.916080
  H      -3.568292      0.807331      2.658727
  H      -0.884884      1.638794      3.724426
  H      -3.550878     -1.627569      2.937669
  H       0.780220     -0.174941      3.725039
  H      -1.746938      0.710572     -3.618603
  H      -2.397745     -1.087519     -2.080167
  H      -2.813502      1.255538     -1.488367
  H       3.206448      0.837679     -2.997693
  H       4.512993     -0.936062     -1.936646
  H       3.195581     -1.424418     -3.941952
  H       0.142813     -1.685152     -0.033770
  H      -3.410872     -0.657735      0.699590
26
Coordinates from ORCA-job my_molecule E -1757.379706724314
  O      -1.299999     -0.412879      2.251476
  Si     -0.166903      0.667712      2.888466
  Si     -2.975866     -0.540969      2.150876
  C       0.783311      1.537977      1.509791
  C       1.665724      0.666350      0.593939
  H       1.402717      2.305416      2.029925
  H       2.316646      1.315159     -0.035412
  H       2.366710      0.041208      1.191730
  Si      0.780843     -0.470738     -0.624101
  O      -0.354122      0.459267     -1.434585
  O       1.896991     -1.071796     -1.717600
  Si      3.206411     -0.657239     -2.673562
  Si     -1.839766      0.360703     -2.204059
  H       0.056144      2.116960      0.899589
  H      -3.625960      0.710437      2.686175
  H      -0.899287      1.694162      3.715027
  H      -3.462394     -1.720037      2.949957
  H       0.772357     -0.110281      3.766729
  H      -1.677024      0.756535     -3.644427
  H      -2.392316     -1.037280     -2.131231
  H      -2.802231      1.309900     -1.548471
  H       3.198073      0.812412     -3.005386
  H       4.488554     -0.977685     -1.955636
  H       3.143359     -1.450058     -3.946513
  H       0.109966     -1.667512     -0.029179
  H      -3.387370     -0.727213      0.716530
26
Coordinates from ORCA-job my_molecule E -1757.380018187215
  O      -1.311110     -0.332360      2.230588
  Si     -0.177386      0.728257      2.892824
  Si     -2.971343     -0.556522      2.115346
  C       0.811856      1.554243      1.513322
  C       1.686422      0.642517      0.628180
  H       1.436589      2.329731      2.014524
  H       2.375518      1.261699      0.009447
  H       2.351297     -0.001239      1.247693
  Si      0.782789     -0.480879     -0.590932
  O      -0.365691      0.458108     -1.369758
  O       1.881561     -1.073046     -1.705440
  Si      3.164291     -0.659038     -2.696887
  Si     -1.825935      0.359319     -2.186842
  H       0.090982      2.122301      0.884283
  H      -3.701951      0.623468      2.704574
  H      -0.909645      1.773664      3.695272
  H      -3.372777     -1.800776      2.860758
  H       0.726456     -0.059883      3.798946
  H      -1.623648      0.783610     -3.614372
  H      -2.365023     -1.045221     -2.156771
  H      -2.814722      1.288081     -1.541995
  H       3.154789      0.813388     -3.015769
  H       4.464121     -0.992811     -2.018387
  H       3.058512     -1.441298     -3.973583
  H       0.120877     -1.682647      0.003664
  H      -3.362260     -0.702159      0.671365
26
Coordinates from ORCA-job my_molecule E -1757.380190090715
  O      -1.309912     -0.283384      2.225300
  Si     -0.188359      0.782223      2.892611
  Si     -2.948061     -0.607386      2.122494
  C       0.822342      1.578364      1.511893
  C       1.684556      0.636756      0.645582
  H       1.456587      2.352416      2.002471
  H       2.396013      1.233988      0.030570
  H       2.325963     -0.019086      1.277021
  Si      0.764609     -0.475574     -0.572739
  O      -0.378092      0.477046     -1.342919
  O       1.853418     -1.077896     -1.691292
  Si      3.132255     -0.684097     -2.695990
  Si     -1.808711      0.391593     -2.212610
  H       0.106426      2.143409      0.874439
  H      -3.745871      0.497329      2.766491
  H      -0.921268      1.841818      3.676762
  H      -3.248622     -1.904667      2.821291
  H       0.702832      0.000233      3.819168
  H      -1.553761      0.818927     -3.631498
  H      -2.359300     -1.009426     -2.206700
  H      -2.811073      1.326434     -1.597005
  H       3.152372      0.791751     -3.000206
  H       4.432603     -1.055854     -2.037204
  H       2.991827     -1.451246     -3.979115
  H       0.096390     -1.673039      0.024714
  H      -3.340595     -0.720120      0.676522
26
Coordinates from ORCA-job my_molecule E -1757.380276693891
  O      -1.315392     -0.247170      2.209354
  Si     -0.198958      0.814815      2.885227
  Si     -2.939688     -0.627266      2.113367
  C       0.836242      1.592719      1.513355
  C       1.687450      0.631698      0.657419
  H       1.481349      2.354789      2.008024
  H       2.408224      1.215107      0.039927
  H       2.317900     -0.028509      1.295215
  Si      0.757992     -0.478137     -0.556403
  O      -0.389740      0.477519     -1.315271
  O       1.839304     -1.078851     -1.683453
  Si      3.112430     -0.690014     -2.697353
  Si     -1.803204      0.395115     -2.213006
  H       0.134435      2.167831      0.869427
  H      -3.771456      0.428020      2.795539
  H      -0.926462      1.887334      3.657599
  H      -3.183270     -1.955471      2.773550
  H       0.677727      0.030399      3.826166
  H      -1.521978      0.820150     -3.628122
  H      -2.358941     -1.004565     -2.216434
  H      -2.813477      1.333187     -1.614282
  H       3.152888      0.790347     -2.978717
  H       4.414243     -1.094609     -2.059919
  H       2.945005     -1.434379     -3.991155
  H       0.097521     -1.678932      0.043861
  H      -3.335574     -0.710618      0.666133
26
Coordinates from ORCA-job my_molecule E -1757.380350030094
  O      -1.321631     -0.216879      2.194247
  Si     -0.209768      0.843113      2.875589
  Si     -2.933113     -0.649986      2.112227
  C       0.848553      1.606390      1.514480
  C       1.687668      0.629980      0.664302
  H       1.506210      2.350671      2.019452
  H       2.412194      1.202290      0.040737
  H       2.312619     -0.031756      1.305763
  Si      0.750457     -0.479228     -0.544088
  O      -0.401820      0.478135     -1.294201
  O       1.825725     -1.078145     -1.678763
  Si      3.098211     -0.694871     -2.695449
  Si     -1.798801      0.398626     -2.217554
  H       0.166432      2.197957      0.864865
  H      -3.790387      0.361171      2.828614
  H      -0.932021      1.928901      3.634773
  H      -3.125748     -2.001398      2.740362
  H       0.653884      0.059674      3.831680
  H      -1.491929      0.808660     -3.632114
  H      -2.366999     -0.996673     -2.219302
  H      -2.811486      1.348868     -1.641726
  H       3.171584      0.790866     -2.941428
  H       4.395762     -1.147250     -2.080957
  H       2.902282     -1.402759     -4.006064
  H       0.098420     -1.684166      0.057731
  H      -3.341730     -0.711682      0.666873
26
Coordinates from ORCA-job my_molecule E -1757.380394882494
  O      -1.328295     -0.193447      2.182827
  Si     -0.218184      0.864154      2.867734
  Si     -2.929347     -0.669449      2.115810
  C       0.857024      1.616352      1.514392
  C       1.687137      0.630196      0.666801
  H       1.524306      2.345153      2.029398
  H       2.412419      1.194868      0.037031
  H       2.310381     -0.031077      1.310319
  Si      0.744841     -0.479328     -0.537091
  O      -0.411608      0.478284     -1.280607
  O       1.815624     -1.075886     -1.678133
  Si      3.090936     -0.697606     -2.692738
  Si     -1.795900      0.400579     -2.222754
  H       0.193260      2.222618      0.859902
  H      -3.803321      0.308884      2.857235
  H      -0.937933      1.960377      3.614055
  H      -3.083185     -2.034796      2.724551
  H       0.634546      0.084336      3.837253
  H      -1.468630      0.789008     -3.638875
  H      -2.379076     -0.988665     -2.215240
  H      -2.806062      1.367085     -1.670416
  H       3.204515      0.792299     -2.894906
  H       4.379182     -1.204894     -2.102219
  H       2.867646     -1.359273     -4.023109
  H       0.099460     -1.688035      0.064307
  H      -3.355166     -0.721223      0.674523
26
Coordinates from ORCA-job my_molecule E -1757.380419201092
  O      -1.333710     -0.181828      2.176723
  Si     -0.222183      0.872748      2.863794
  Si     -2.929737     -0.679062      2.121511
  C       0.859725      1.620378      1.513078
  C       1.686910      0.631883      0.665274
  H       1.530769      2.341826      2.033914
  H       2.410873      1.194233      0.031827
  H       2.311579     -0.027775      1.309054
  Si      0.743030     -0.478455     -0.536443
  O      -0.416240      0.478069     -1.276774
  O       1.811775     -1.072832     -1.680992
  Si      3.091555     -0.697620     -2.690613
  Si     -1.795175      0.399789     -2.226408
  H       0.205537      2.234129      0.856243
  H      -3.809676      0.287463      2.871410
  H      -0.942059      1.973131      3.603314
  H      -3.065081     -2.046911      2.730162
  H       0.624960      0.095811      3.839761
  H      -1.458274      0.768971     -3.645262
  H      -2.389117     -0.984517     -2.206751
  H      -2.800597      1.379678     -1.690377
  H       3.240757      0.793984     -2.852383
  H       4.368913     -1.251678     -2.119800
  H       2.848282     -1.316142     -4.038013
  H       0.100573     -1.689227      0.063511
  H      -3.368818     -0.735537      0.684291
26
Coordinates from ORCA-job my_molecule E -1757.380439555864
  O      -1.339901     -0.171691      2.170208
  Si     -0.225399      0.878494      2.860153
  Si     -2.931283     -0.686638      2.128852
  C       0.859864      1.623553      1.510136
  C       1.686848      0.635225      0.661831
  H       1.531961      2.341458      2.034974
  H       2.408840      1.197148      0.025708
  H       2.314011     -0.022141      1.305512
  Si      0.742305     -0.476428     -0.538086
  O      -0.419689      0.478126     -1.276185
  O       1.809493     -1.068855     -1.685307
  Si      3.095650     -0.697540     -2.687687
  Si     -1.795357      0.397717     -2.230093
  H       0.211019      2.241223      0.851869
  H      -3.815150      0.273942      2.881761
  H      -0.946182      1.980313      3.596000
  H      -3.049304     -2.052561      2.746736
  H       0.617941      0.103194      3.839399
  H      -1.451370      0.745581     -3.652460
  H      -2.399422     -0.981485     -2.195046
  H      -2.794666      1.391749     -1.710351
  H       3.291248      0.793404     -2.796293
  H       4.356703     -1.310854     -2.143207
  H       2.828634     -1.258253     -4.055562
  H       0.101243     -1.688301      0.060675
  H      -3.383468     -0.755868      0.696516
26
Coordinates from ORCA-job my_molecule E -1757.380459088134
  O      -1.346824     -0.162371      2.161721
  Si     -0.228496      0.882147      2.855603
  Si     -2.933671     -0.692155      2.136799
  C       0.858000      1.626721      1.505782
  C       1.686990      0.640324      0.657213
  H       1.528777      2.344278      2.033104
  H       2.406546      1.203471      0.019411
  H       2.317186     -0.014323      1.300670
  Si      0.742630     -0.473394     -0.540992
  O      -0.422042      0.478269     -1.277949
  O       1.808860     -1.064284     -1.689876
  Si      3.102392     -0.697628     -2.683956
  Si     -1.796474      0.393917     -2.233110
  H       0.210364      2.245081      0.847080
  H      -3.820090      0.267378      2.887970
  H      -0.949784      1.983069      3.591814
  H      -3.034540     -2.052438      2.771055
  H       0.612706      0.105797      3.834703
  H      -1.448351      0.720196     -3.659507
  H      -2.408887     -0.980683     -2.180621
  H      -2.789424      1.401383     -1.728395
  H       3.354776      0.788090     -2.726957
  H       4.341078     -1.381673     -2.174870
  H       2.808170     -1.185025     -4.074072
  H       0.102160     -1.685491      0.057713
  H      -3.397482     -0.780149      0.709719
26
Coordinates from ORCA-job my_molecule E -1757.380485324773
  O      -1.355911     -0.152236      2.148643
  Si     -0.232631      0.884191      2.848581
  Si     -2.937837     -0.695835      2.146402
  C       0.854200      1.630533      1.499690
  C       1.687560      0.647847      0.651312
  H       1.521230      2.350494      2.028664
  H       2.404094      1.213994      0.012863
  H       2.321264     -0.003464      1.294636
  Si      0.744716     -0.469088     -0.545221
  O      -0.422913      0.478202     -1.282402
  O       1.810960     -1.058539     -1.694619
  Si      3.112689     -0.697401     -2.679579
  Si     -1.798466      0.386988     -2.235231
  H       0.204176      2.246822      0.841394
  H      -3.825926      0.268655      2.889132
  H      -0.953277      1.982072      3.589698
  H      -3.019920     -2.044914      2.807496
  H       0.607254      0.102730      3.824081
  H      -1.449781      0.689213     -3.666834
  H      -2.417681     -0.983315     -2.160772
  H      -2.784570      1.408106     -1.745307
  H       3.440672      0.773556     -2.634474
  H       4.317857     -1.472462     -2.224555
  H       2.784648     -1.082413     -4.094109
  H       0.104681     -1.680759      0.054905
  H      -3.412517     -0.812469      0.725653
26
Coordinates from ORCA-job my_molecule E -1757.380535724918
  O      -1.373350     -0.130209      2.120982
  Si     -0.242717      0.891109      2.833467
  Si     -2.943982     -0.702066      2.159891
  C       0.848587      1.639173      1.489267
  C       1.689248      0.660718      0.643684
  H       1.509131      2.363247      2.020743
  H       2.402552      1.230741      0.005352
  H       2.326299      0.014366      1.288528
  Si      0.749791     -0.462087     -0.550183
  O      -0.423273      0.477105     -1.288207
  O       1.816693     -1.048821     -1.699993
  Si      3.129119     -0.696789     -2.673526
  Si     -1.801926      0.372460     -2.235161
  H       0.195035      2.251485      0.830655
  H      -3.839926      0.270428      2.882465
  H      -0.960248      1.985095      3.583327
  H      -2.990107     -2.028265      2.869562
  H       0.592311      0.097602      3.803614
  H      -1.455441      0.635598     -3.675228
  H      -2.429990     -0.991211     -2.123263
  H      -2.777886      1.413910     -1.768127
  H       3.597951      0.721623     -2.466527
  H       4.259824     -1.629096     -2.340157
  H       2.746223     -0.878935     -4.115060
  H       0.112262     -1.673405      0.053902
  H      -3.431608     -0.873264      0.750044
26
Coordinates from ORCA-job my_molecule E -1757.380601649089
  O      -1.395449     -0.098819      2.084129
  Si     -0.259574      0.906339      2.812678
  Si     -2.945356     -0.717450      2.176537
  C       0.841040      1.654478      1.476814
  C       1.689911      0.678010      0.637666
  H       1.494186      2.383439      2.010459
  H       2.402925      1.250231      0.001435
  H       2.326684      0.035982      1.286888
  Si      0.755208     -0.451022     -0.554101
  O      -0.421147      0.479865     -1.296817
  O       1.823928     -1.038322     -1.701544
  Si      3.146070     -0.701407     -2.666901
  Si     -1.804039      0.359247     -2.235800
  H       0.184774      2.261774      0.816037
  H      -3.861518      0.257455      2.870011
  H      -0.973403      1.997571      3.570392
  H      -2.937478     -2.011039      2.945541
  H       0.566939      0.098288      3.779649
  H      -1.462058      0.577202     -3.684808
  H      -2.441553     -0.995949     -2.079876
  H      -2.768788      1.422788     -1.794825
  H       3.797075      0.599431     -2.266582
  H       4.153111     -1.806916     -2.520500
  H       2.715878     -0.608075     -4.104269
  H       0.118923     -1.660307      0.056375
  H      -3.441720     -0.962287      0.781463
26
Coordinates from ORCA-job my_molecule E -1757.380663037482
  O      -1.411110     -0.078883      2.057458
  Si     -0.276248      0.919130      2.797083
  Si     -2.944224     -0.731405      2.192238
  C       0.834232      1.666347      1.469955
  C       1.689034      0.687843      0.639413
  H       1.482267      2.399811      2.002959
  H       2.408563      1.258903      0.009926
  H       2.318226      0.045174      1.295224
  Si      0.760872     -0.442775     -0.555786
  O      -0.410301      0.486205     -1.309383
  O       1.835102     -1.035804     -1.694801
  Si      3.154573     -0.708578     -2.667340
  Si     -1.798811      0.357272     -2.239242
  H       0.177162      2.268825      0.805285
  H      -3.875675      0.241574      2.867942
  H      -0.986963      2.010617      3.558004
  H      -2.896814     -2.002147      2.996483
  H       0.541890      0.100168      3.764586
  H      -1.465618      0.558378     -3.692948
  H      -2.437043     -0.995618     -2.062509
  H      -2.759881      1.427518     -1.804199
  H       3.909024      0.501383     -2.173463
  H       4.077263     -1.894360     -2.644596
  H       2.703260     -0.455979     -4.079591
  H       0.121034     -1.648391      0.059230
  H      -3.445243     -1.024697      0.808123
26
Coordinates from ORCA-job my_molecule E -1757.380746554818
  O      -1.422461     -0.067636      2.032631
  Si     -0.294884      0.927768      2.784732
  Si     -2.949206     -0.732674      2.195509
  C       0.833689      1.670593      1.471908
  C       1.692554      0.683904      0.654686
  H       1.479510      2.405970      2.004004
  H       2.428649      1.248546      0.038850
  H       2.303463      0.034654      1.321336
  Si      0.775345     -0.443631     -0.551422
  O      -0.385194      0.488334     -1.319220
  O       1.860027     -1.041571     -1.677595
  Si      3.153246     -0.709444     -2.683873
  Si     -1.785625      0.357611     -2.231237
  H       0.183387      2.271095      0.798421
  H      -3.883670      0.240733      2.866613
  H      -1.002869      2.025165      3.540493
  H      -2.888124     -1.996036      3.009270
  H       0.506814      0.098623      3.760623
  H      -1.473882      0.573028     -3.687633
  H      -2.413037     -1.001305     -2.055545
  H      -2.749935      1.417147     -1.774726
  H       3.922475      0.494997     -2.199888
  H       4.070101     -1.900501     -2.694760
  H       2.667224     -0.443701     -4.082861
  H       0.132377     -1.647816      0.063775
  H      -3.455405     -1.043346      0.815960
26
Coordinates from ORCA-job my_molecule E -1757.380837672272
  O      -1.447527     -0.020115      1.984856
  Si     -0.324229      0.958666      2.763832
  Si     -2.947564     -0.741847      2.174483
  C       0.842160      1.682290      1.474327
  C       1.702090      0.678922      0.677530
  H       1.489581      2.410616      2.013872
  H       2.459042      1.228929      0.073811
  H       2.289931      0.024511      1.359961
  Si      0.793964     -0.447100     -0.536526
  O      -0.362950      0.484260     -1.311403
  O       1.886047     -1.043595     -1.656055
  Si      3.145166     -0.708266     -2.703379
  Si     -1.776923      0.347683     -2.201394
  H       0.216245      2.289648      0.783936
  H      -3.910009      0.201992      2.848269
  H      -1.028876      2.070837      3.500747
  H      -2.838936     -1.998291      2.994439
  H       0.439933      0.118505      3.761357
  H      -1.487660      0.547084     -3.664428
  H      -2.405286     -1.007674     -2.001895
  H      -2.733136      1.413152     -1.741640
  H       3.986690      0.433152     -2.188883
  H       4.002866     -1.936525     -2.821005
  H       2.614433     -0.341447     -4.063194
  H       0.154994     -1.654264      0.076818
  H      -3.455476     -1.080614      0.801614
26
Coordinates from ORCA-job my_molecule E -1757.380938655067
  O      -1.469735      0.001370      1.941145
  Si     -0.353120      0.968664      2.746138
  Si     -2.960677     -0.737965      2.162063
  C       0.847531      1.681477      1.481664
  C       1.712820      0.668925      0.700868
  H       1.494145      2.400430      2.034826
  H       2.490391      1.208648      0.114185
  H       2.277858      0.007670      1.396203
  Si      0.822556     -0.452096     -0.530618
  O      -0.319961      0.481753     -1.324619
  O       1.932021     -1.048545     -1.632341
  Si      3.142152     -0.705198     -2.733045
  Si     -1.759908      0.346560     -2.171949
  H       0.249561      2.299180      0.775891
  H      -3.923450      0.203276      2.838673
  H      -1.059811      2.092593      3.462092
  H      -2.834337     -1.985316      2.994455
  H       0.374640      0.122648      3.764339
  H      -1.514205      0.559497     -3.640344
  H      -2.376483     -1.012847     -1.966553
  H      -2.709373      1.401690     -1.677299
  H       3.976185      0.461625     -2.267973
  H       4.017895     -1.918492     -2.864096
  H       2.555392     -0.370943     -4.078054
  H       0.179301     -1.661946      0.072067
  H      -3.486817     -1.102151      0.802332
26
Coordinates from ORCA-job my_molecule E -1757.381027851902
  O      -1.491953      0.033794      1.893263
  Si     -0.383489      0.989588      2.727002
  Si     -2.956860     -0.752509      2.137098
  C       0.851723      1.688056      1.487153
  C       1.721805      0.665997      0.723557
  H       1.495760      2.397184      2.056345
  H       2.516737      1.194596      0.150175
  H       2.267053      0.000337      1.430634
  Si      0.843766     -0.450822     -0.520616
  O      -0.282485      0.486235     -1.333623
  O       1.967206     -1.052543     -1.604317
  Si      3.132272     -0.716677     -2.754090
  Si     -1.746524      0.358450     -2.139483
  H       0.280787      2.315182      0.767586
  H      -3.938430      0.162398      2.822103
  H      -1.097064      2.122775      3.420090
  H      -2.782232     -1.989117      2.978315
  H       0.308416      0.142676      3.766673
  H      -1.537789      0.570723     -3.613219
  H      -2.362764     -0.998091     -1.919733
  H      -2.679164      1.416325     -1.621400
  H       3.983769      0.451504     -2.327130
  H       3.999851     -1.931665     -2.911537
  H       2.496273     -0.388509     -4.077814
  H       0.189548     -1.659037      0.073064
  H      -3.491642     -1.146342      0.789955
26
Coordinates from ORCA-job my_molecule E -1757.381133304288
  O      -1.514741      0.049442      1.845707
  Si     -0.419262      1.003209      2.705234
  Si     -2.950485     -0.779454      2.125044
  C       0.846146      1.692966      1.490275
  C       1.726514      0.666893      0.744551
  H       1.481772      2.394555      2.078469
  H       2.536355      1.189135      0.186583
  H       2.254034     -0.002517      1.461511
  Si      0.865938     -0.443874     -0.517411
  O      -0.228909      0.500636     -1.363336
  O       2.011163     -1.058906     -1.569078
  Si      3.124604     -0.745467     -2.774387
  Si     -1.723832      0.398325     -2.114096
  H       0.297979      2.326954      0.759427
  H      -3.944152      0.113969      2.820058
  H      -1.148075      2.139593      3.375828
  H      -2.716505     -1.995553      2.982877
  H       0.244238      0.161705      3.764760
  H      -1.561272      0.632552     -3.589993
  H      -2.341948     -0.956914     -1.896569
  H      -2.630980      1.454272     -1.550256
  H       3.955945      0.463638     -2.430663
  H       4.021238     -1.941523     -2.906960
  H       2.434972     -0.496699     -4.088183
  H       0.185196     -1.644208      0.062549
  H      -3.501364     -1.212221      0.798108
26
Coordinates from ORCA-job my_molecule E -1757.381231987930
  O      -1.551019      0.100383      1.773023
  Si     -0.471523      1.044806      2.668565
  Si     -2.912070     -0.836242      2.084171
  C       0.839282      1.713530      1.491037
  C       1.728619      0.675039      0.775333
  H       1.463785      2.405862      2.101888
  H       2.556681      1.185106      0.233419
  H       2.232321      0.004159      1.507649
  Si      0.884485     -0.431414     -0.501828
  O      -0.175567      0.519705     -1.383052
  O       2.051351     -1.062150     -1.518380
  Si      3.103102     -0.796012     -2.788152
  Si     -1.704260      0.456109     -2.067436
  H       0.321146      2.353909      0.744370
  H      -3.958071     -0.016295      2.792198
  H      -1.213573      2.187574      3.312667
  H      -2.559652     -2.016576      2.952112
  H       0.150198      0.203885      3.752830
  H      -1.592547      0.697637     -3.546905
  H      -2.340119     -0.888216     -1.835685
  H      -2.567041      1.526915     -1.463174
  H       3.977864      0.400308     -2.513526
  H       3.966453     -2.013670     -2.940990
  H       2.351244     -0.558292     -4.069663
  H       0.173803     -1.620714      0.066222
  H      -3.450322     -1.324837      0.773358
26
Coordinates from ORCA-job my_molecule E -1757.381275106809
  O      -1.566426      0.100289      1.750631
  Si     -0.496452      1.055102      2.648638
  Si     -2.898566     -0.867382      2.090909
  C       0.828548      1.715781      1.483667
  C       1.724202      0.673314      0.783372
  H       1.445309      2.409683      2.100417
  H       2.558044      1.181783      0.248990
  H       2.218847      0.002944      1.521998
  Si      0.891412     -0.428791     -0.504885
  O      -0.144132      0.529435     -1.407411
  O       2.073073     -1.066546     -1.499257
  Si      3.102425     -0.821380     -2.791667
  Si     -1.689705      0.501509     -2.056241
  H       0.317146      2.353782      0.730376
  H      -3.961451     -0.063173      2.792052
  H      -1.248870      2.198468      3.279786
  H      -2.500399     -2.017725      2.978337
  H       0.117141      0.221289      3.744667
  H      -1.603315      0.767691     -3.533378
  H      -2.339716     -0.838085     -1.834290
  H      -2.524666      1.574690     -1.416363
  H       3.964712      0.394475     -2.565884
  H       3.983104     -2.030076     -2.921783
  H       2.327637     -0.633256     -4.068029
  H       0.158868     -1.610487      0.052705
  H      -3.432199     -1.392824      0.792692
26
Coordinates from ORCA-job my_molecule E -1757.381309369682
  O      -1.567511      0.101505      1.742293
  Si     -0.501987      1.062637      2.637355
  Si     -2.897999     -0.870195      2.075688
  C       0.833532      1.711808      1.479530
  C       1.728448      0.661690      0.790530
  H       1.448312      2.407902      2.095587
  H       2.564874      1.166469      0.256557
  H       2.218181     -0.006388      1.534237
  Si      0.897368     -0.438777     -0.500362
  O      -0.134825      0.522227     -1.404395
  O       2.083653     -1.071338     -1.492780
  Si      3.099501     -0.820948     -2.795343
  Si     -1.690238      0.511497     -2.030982
  H       0.326457      2.346898      0.720595
  H      -3.971236     -0.068947      2.765053
  H      -1.257894      2.209500      3.258405
  H      -2.499462     -2.016081      2.967550
  H       0.104909      0.232515      3.742556
  H      -1.620693      0.786287     -3.507684
  H      -2.347873     -0.824805     -1.807682
  H      -2.508159      1.588204     -1.373514
  H       3.921077      0.429061     -2.605240
  H       4.023681     -2.000334     -2.901102
  H       2.311338     -0.692765     -4.071194
  H       0.160147     -1.620377      0.052375
  H      -3.419031     -1.396736      0.772017
26
Coordinates from ORCA-job my_molecule E -1757.381336370090
  O      -1.581149      0.109846      1.713534
  Si     -0.522323      1.073567      2.613105
  Si     -2.892720     -0.884788      2.060918
  C       0.831126      1.710985      1.470659
  C       1.730844      0.653779      0.798728
  H       1.439974      2.409931      2.089205
  H       2.573212      1.154548      0.270255
  H       2.210964     -0.010062      1.552167
  Si      0.912360     -0.448006     -0.499193
  O      -0.112048      0.511675     -1.414639
  O       2.110794     -1.074019     -1.481160
  Si      3.102012     -0.827801     -2.803761
  Si     -1.687546      0.533971     -1.989687
  H       0.335894      2.343661      0.701644
  H      -3.996162     -0.090675      2.710367
  H      -1.281745      2.226810      3.217942
  H      -2.481129     -1.995791      2.989668
  H       0.067402      0.245204      3.731146
  H      -1.658776      0.817768     -3.465941
  H      -2.361291     -0.792331     -1.753028
  H      -2.466238      1.620726     -1.300674
  H       3.921777      0.427010     -2.639397
  H       4.030971     -2.003397     -2.915151
  H       2.290698     -0.714696     -4.066760
  H       0.170360     -1.630264      0.046364
  H      -3.382692     -1.457139      0.763743
26
Coordinates from ORCA-job my_molecule E -1757.381359928298
  O      -1.576442      0.092762      1.715238
  Si     -0.524735      1.070826      2.606155
  Si     -2.900209     -0.887662      2.061720
  C       0.831883      1.701901      1.463685
  C       1.732999      0.640827      0.799106
  H       1.439185      2.405117      2.078956
  H       2.577498      1.139024      0.271387
  H       2.209438     -0.019815      1.557588
  Si      0.919998     -0.460421     -0.503157
  O      -0.100361      0.500174     -1.423160
  O       2.123856     -1.081128     -1.482122
  Si      3.105882     -0.822551     -2.809630
  Si     -1.685350      0.548972     -1.970444
  H       0.340376      2.330978      0.689147
  H      -4.012955     -0.074128      2.670135
  H      -1.290342      2.228857      3.193629
  H      -2.513913     -1.980197      3.022507
  H       0.062429      0.255293      3.735469
  H      -1.676407      0.840420     -3.445209
  H      -2.374543     -0.768362     -1.728989
  H      -2.436848      1.643296     -1.263496
  H       3.873366      0.467967     -2.673782
  H       4.083895     -1.959991     -2.895064
  H       2.290759     -0.771848     -4.074002
  H       0.174831     -1.643444      0.036067
  H      -3.369718     -1.486359      0.768317
26
Coordinates from ORCA-job my_molecule E -1757.381386990583
  O      -1.573584      0.081149      1.710329
  Si     -0.534277      1.076479      2.596014
  Si     -2.895888     -0.904106      2.053114
  C       0.830901      1.695521      1.456276
  C       1.733381      0.627104      0.804672
  H       1.436259      2.401624      2.070337
  H       2.584446      1.117977      0.280585
  H       2.200566     -0.030176      1.571734
  Si      0.928186     -0.473540     -0.503770
  O      -0.083583      0.487498     -1.433603
  O       2.139377     -1.090746     -1.475849
  Si      3.100998     -0.825208     -2.817158
  Si     -1.679273      0.578422     -1.943154
  H       0.349367      2.321275      0.672884
  H      -4.035087     -0.085599      2.602346
  H      -1.308149      2.242927      3.154720
  H      -2.525283     -1.959581      3.060838
  H       0.043023      0.280940      3.743466
  H      -1.694580      0.879380     -3.415516
  H      -2.395122     -0.722652     -1.694835
  H      -2.388368      1.685877     -1.214090
  H       3.815924      0.498105     -2.719394
  H       4.124472     -1.922736     -2.880504
  H       2.276300     -0.840259     -4.075804
  H       0.177653     -1.656557      0.027102
  H      -3.323089     -1.552608      0.769310
26
Coordinates from ORCA-job my_molecule E -1757.381411450287
  O      -1.566397      0.074501      1.715341
  Si     -0.536814      1.084009      2.596050
  Si     -2.883310     -0.921127      2.046661
  C       0.831166      1.693340      1.453658
  C       1.730983      0.618110      0.809224
  H       1.438337      2.399636      2.065849
  H       2.588225      1.100791      0.287660
  H       2.190271     -0.038927      1.581294
  Si      0.926086     -0.480737     -0.501595
  O      -0.078391      0.481686     -1.438084
  O       2.137900     -1.101007     -1.470917
  Si      3.089259     -0.827911     -2.818231
  Si     -1.675328      0.600555     -1.936867
  H       0.355327      2.317333      0.665629
  H      -4.046944     -0.106708      2.547317
  H      -1.315570      2.256987      3.133460
  H      -2.524486     -1.946169      3.090133
  H       0.035686      0.306468      3.756183
  H      -1.693593      0.901573     -3.408906
  H      -2.413725     -0.686421     -1.684769
  H      -2.359374      1.720730     -1.204242
  H       3.774764      0.511593     -2.734701
  H       4.135232     -1.903600     -2.872249
  H       2.262722     -0.873122     -4.074587
  H       0.170606     -1.661736      0.025857
  H      -3.268062     -1.609335      0.770883
26
Coordinates from ORCA-job my_molecule E -1757.381443247953
  O      -1.565047      0.069484      1.701969
  Si     -0.556471      1.101866      2.581263
  Si     -2.852147     -0.964057      2.031062
  C       0.825376      1.695066      1.446910
  C       1.725380      0.608232      0.822465
  H       1.430291      2.402339      2.060353
  H       2.595168      1.078228      0.310268
  H       2.167295     -0.047910      1.605400
  Si      0.928573     -0.490020     -0.494402
  O      -0.058840      0.472548     -1.449036
  O       2.147739     -1.115566     -1.450917
  Si      3.064713     -0.846953     -2.823369
  Si     -1.659476      0.656149     -1.913641
  H       0.362404      2.315233      0.648447
  H      -4.066725     -0.176523      2.444427
  H      -1.346734      2.283004      3.082478
  H      -2.493540     -1.917320      3.141232
  H      -0.000009      0.350679      3.764547
  H      -1.691779      0.968406     -3.382876
  H      -2.443690     -0.602043     -1.657315
  H      -2.285941      1.797028     -1.161814
  H       3.712544      0.512989     -2.781833
  H       4.138027     -1.894977     -2.870423
  H       2.218677     -0.943836     -4.063555
  H       0.163088     -1.667084      0.027090
  H      -3.154306     -1.734451      0.781321
26
Coordinates from ORCA-job my_molecule E -1757.381506984887
  O      -1.562962      0.072569      1.674327
  Si     -0.588207      1.136516      2.554991
  Si     -2.790457     -1.032988      1.990878
  C       0.820666      1.702093      1.440074
  C       1.717698      0.594663      0.848514
  H       1.422758      2.408583      2.057233
  H       2.607187      1.043053      0.351242
  H       2.131015     -0.060155      1.648133
  Si      0.929764     -0.504945     -0.473371
  O      -0.038290      0.454219     -1.451125
  O       2.156276     -1.137446     -1.416212
  Si      3.012504     -0.875482     -2.829855
  Si     -1.635539      0.737320     -1.872212
  H       0.380154      2.317644      0.625738
  H      -4.087544     -0.315631      2.249794
  H      -1.394423      2.328824      3.001043
  H      -2.448640     -1.862069      3.202251
  H      -0.063347      0.422346      3.773542
  H      -1.682061      1.048828     -3.341148
  H      -2.493985     -0.466671     -1.595401
  H      -2.170259      1.917814     -1.110007
  H       3.625064      0.501347     -2.838886
  H       4.107255     -1.899766     -2.891332
  H       2.127167     -1.019241     -4.037712
  H       0.154950     -1.677438      0.044781
  H      -2.932172     -1.923479      0.794772
26
Coordinates from ORCA-job my_molecule E -1757.381448057508
  O      -1.557130      0.073820      1.619785
  Si     -0.644435      1.187916      2.506270
  Si     -2.680810     -1.141784      1.911672
  C       0.813382      1.715704      1.437073
  C       1.707573      0.578744      0.899923
  H       1.406194      2.420725      2.064712
  H       2.626267      0.996113      0.429993
  H       2.074824     -0.072334      1.724899
  Si      0.938318     -0.527326     -0.428864
  O      -0.010497      0.418854     -1.437805
  O       2.178413     -1.159859     -1.355048
  Si      2.904410     -0.927316     -2.847041
  Si     -1.582946      0.869606     -1.795952
  H       0.411870      2.324553      0.598142
  H      -4.074075     -0.576491      1.891979
  H      -1.479458      2.390312      2.862786
  H      -2.431324     -1.758571      3.264729
  H      -0.179472      0.529606      3.778435
  H      -1.642871      1.185643     -3.263482
  H      -2.559015     -0.234177     -1.491595
  H      -1.964968      2.101473     -1.021266
  H       3.422927      0.482092     -2.973571
  H       4.052097     -1.889837     -2.934924
  H       1.946149     -1.191633     -3.976632
  H       0.161274     -1.699706      0.086965
  H      -2.532128     -2.185619      0.848866
26
Coordinates from ORCA-job my_molecule E -1757.381568391207
  O      -1.549132      0.102212      1.614366
  Si     -0.604741      1.170298      2.523609
  Si     -2.740006     -1.053883      1.880214
  C       0.844914      1.715750      1.452554
  C       1.736739      0.589007      0.891000
  H       1.442970      2.413499      2.082819
  H       2.643283      1.018884      0.409249
  H       2.123641     -0.065938      1.703899
  Si      0.951851     -0.524372     -0.421350
  O      -0.033939      0.411076     -1.403518
  O       2.176565     -1.150417     -1.373019
  Si      2.929978     -0.888237     -2.846345
  Si     -1.625987      0.757088     -1.790430
  H       0.431061      2.334293      0.626805
  H      -4.093406     -0.399442      1.934441
  H      -1.419940      2.367638      2.939166
  H      -2.490522     -1.758302      3.188971
  H      -0.129104      0.458417      3.764671
  H      -1.687196      1.064479     -3.260318
  H      -2.532386     -0.408285     -1.495263
  H      -2.098816      1.963282     -1.024552
  H       3.461362      0.519811     -2.931255
  H       4.071374     -1.858815     -2.943807
  H       1.985870     -1.116945     -3.995937
  H       0.201999     -1.705019      0.116057
  H      -2.691862     -2.045570      0.758024
26
Coordinates from ORCA-job my_molecule E -1757.381596081887
  O      -1.557376      0.063891      1.634326
  Si     -0.605184      1.137229      2.529698
  Si     -2.780528     -1.049089      1.947528
  C       0.826243      1.702611      1.444199
  C       1.731079      0.593263      0.868639
  H       1.418637      2.408874      2.070530
  H       2.625715      1.042058      0.381469
  H       2.134958     -0.058998      1.675259
  Si      0.958212     -0.518794     -0.451767
  O      -0.019917      0.419271     -1.439741
  O       2.194003     -1.139557     -1.392311
  Si      2.972740     -0.883550     -2.853026
  Si     -1.614383      0.768608     -1.816785
  H       0.398031      2.318910      0.623652
  H      -4.111174     -0.350347      2.021921
  H      -1.428343      2.324950      2.956846
  H      -2.525433     -1.748128      3.257732
  H      -0.105643      0.425566      3.762573
  H      -1.684449      1.076084     -3.285970
  H      -2.517813     -0.396961     -1.514307
  H      -2.082016      1.974602     -1.048243
  H       3.505994      0.523473     -2.938990
  H       4.118920     -1.850481     -2.928020
  H       2.046222     -1.121190     -4.014867
  H       0.200843     -1.699133      0.075509
  H      -2.794767     -2.052655      0.834199
26
Coordinates from ORCA-job my_molecule E -1757.381628191434
  O      -1.548706      0.075006      1.622780
  Si     -0.606829      1.150005      2.526700
  Si     -2.758793     -1.058126      1.913134
  C       0.836807      1.707173      1.453193
  C       1.736144      0.590655      0.883038
  H       1.430481      2.408379      2.083859
  H       2.636042      1.032429      0.399344
  H       2.131862     -0.063612      1.692159
  Si      0.959354     -0.521742     -0.435141
  O      -0.023729      0.412658     -1.421062
  O       2.191840     -1.142217     -1.381138
  Si      2.943343     -0.885495     -2.856509
  Si     -1.614781      0.772816     -1.800404
  H       0.417729      2.326799      0.630501
  H      -4.105419     -0.387002      1.915585
  H      -1.433261      2.339680      2.941748
  H      -2.541117     -1.717179      3.250567
  H      -0.122494      0.441435      3.767681
  H      -1.682313      1.068277     -3.272327
  H      -2.530111     -0.381506     -1.489650
  H      -2.071760      1.989683     -1.042411
  H       3.469050      0.523624     -2.954236
  H       4.091233     -1.848925     -2.949938
  H       1.998019     -1.128715     -4.002070
  H       0.207744     -1.703422      0.097547
  H      -2.705765     -2.090169      0.827097
26
Coordinates from ORCA-job my_molecule E -1757.381653131233
  O      -1.541039      0.087134      1.604111
  Si     -0.613478      1.161314      2.523514
  Si     -2.735884     -1.068534      1.871172
  C       0.846959      1.712923      1.470106
  C       1.743230      0.591734      0.904416
  H       1.439154      2.407311      2.109497
  H       2.648148      1.029303      0.426549
  H       2.130364     -0.065307      1.715461
  Si      0.968339     -0.519628     -0.416234
  O      -0.021216      0.409895     -1.399328
  O       2.203152     -1.131756     -1.365728
  Si      2.906566     -0.895618     -2.868462
  Si     -1.609192      0.783351     -1.776904
  H       0.441493      2.338579      0.645191
  H      -4.095870     -0.431041      1.786164
  H      -1.446780      2.351039      2.923879
  H      -2.566415     -1.679630      3.237985
  H      -0.150403      0.453552      3.773611
  H      -1.676201      1.072652     -3.250128
  H      -2.535785     -0.360987     -1.461866
  H      -2.054928      2.007395     -1.024122
  H       3.403176      0.519639     -3.014987
  H       4.069322     -1.839817     -2.974714
  H       1.932889     -1.183461     -3.979470
  H       0.226403     -1.706866      0.117876
  H      -2.607433     -2.132667      0.822460
26
Coordinates from ORCA-job my_molecule E -1757.381667454893
  O      -1.537469      0.086958      1.601598
  Si     -0.613394      1.158227      2.527650
  Si     -2.737288     -1.066094      1.861452
  C       0.850846      1.712736      1.480954
  C       1.747618      0.593812      0.911550
  H       1.442006      2.404392      2.124257
  H       2.651507      1.034210      0.434391
  H       2.135659     -0.064877      1.720794
  Si      0.975174     -0.515144     -0.412690
  O      -0.018404      0.413082     -1.392319
  O       2.213622     -1.118615     -1.363482
  Si      2.897502     -0.898032     -2.877508
  Si     -1.606453      0.783821     -1.772175
  H       0.448485      2.342316      0.657412
  H      -4.095254     -0.430206      1.740359
  H      -1.450619      2.345446      2.926969
  H      -2.593193     -1.659129      3.238928
  H      -0.154779      0.447323      3.778043
  H      -1.673284      1.067110     -3.246552
  H      -2.531784     -0.360705     -1.453894
  H      -2.054515      2.009806     -1.024536
  H       3.372638      0.520766     -3.055580
  H       4.073744     -1.825640     -2.981997
  H       1.915080     -1.220552     -3.971153
  H       0.238072     -1.706548      0.118923
  H      -2.590945     -2.143955      0.828655
26
Coordinates from ORCA-job my_molecule E -1757.381679639389
  O      -1.536509      0.086063      1.599741
  Si     -0.615105      1.152228      2.534158
  Si     -2.740056     -1.064906      1.855194
  C       0.851937      1.712770      1.494402
  C       1.750935      0.598288      0.919565
  H       1.441449      2.401942      2.141888
  H       2.653302      1.043257      0.443842
  H       2.140634     -0.062599      1.726164
  Si      0.983836     -0.505747     -0.411827
  O      -0.013539      0.422108     -1.387140
  O       2.229257     -1.094881     -1.362637
  Si      2.890831     -0.903266     -2.890065
  Si     -1.602321      0.787409     -1.769333
  H       0.451833      2.346709      0.672983
  H      -4.096159     -0.434662      1.692159
  H      -1.455849      2.336296      2.935183
  H      -2.623887     -1.633775      3.245329
  H      -0.159832      0.435536      3.782556
  H      -1.670657      1.061613     -3.245274
  H      -2.524150     -0.358012     -1.444317
  H      -2.053402      2.016026     -1.028726
  H       3.353947      0.513507     -3.108624
  H       4.074003     -1.822272     -2.991166
  H       1.894899     -1.259480     -3.960870
  H       0.251497     -1.703226      0.112841
  H      -2.572324     -2.160417      0.844025
26
Coordinates from ORCA-job my_molecule E -1757.381685333277
  O      -1.535102      0.083208      1.603268
  Si     -0.613979      1.148825      2.538384
  Si     -2.743795     -1.062821      1.855306
  C       0.852453      1.711798      1.499041
  C       1.751906      0.598480      0.922573
  H       1.442018      2.400587      2.146884
  H       2.654219      1.044228      0.447467
  H       2.141706     -0.063472      1.728209
  Si      0.986664     -0.502114     -0.412553
  O      -0.011721      0.427158     -1.385246
  O       2.235092     -1.083760     -1.363745
  Si      2.889626     -0.903905     -2.895322
  Si     -1.600763      0.787938     -1.770638
  H       0.451820      2.346465      0.678416
  H      -4.096982     -0.430587      1.677268
  H      -1.454735      2.332417      2.940908
  H      -2.640267     -1.623866      3.249611
  H      -0.157729      0.430699      3.785291
  H      -1.667847      1.060724     -3.246881
  H      -2.519857     -0.359691     -1.445733
  H      -2.055661      2.015906     -1.031423
  H       3.339476      0.514106     -3.132069
  H       4.081239     -1.812614     -2.990237
  H       1.892833     -1.281881     -3.957895
  H       0.254959     -1.702329      0.106897
  H      -2.571005     -2.164990      0.852273
26
Coordinates from ORCA-job my_molecule E -1757.381693105102
  O      -1.536285      0.083203      1.604289
  Si     -0.614901      1.144743      2.543945
  Si     -2.744570     -1.063429      1.851790
  C       0.850753      1.713600      1.506752
  C       1.752152      0.602681      0.928587
  H       1.439442      2.401567      2.156243
  H       2.655315      1.049295      0.455906
  H       2.140991     -0.061415      1.732911
  Si      0.991079     -0.491844     -0.413384
  O      -0.009174      0.439625     -1.381733
  O       2.244861     -1.059996     -1.364777
  Si      2.887829     -0.909413     -2.903675
  Si     -1.599385      0.790873     -1.770726
  H       0.449062      2.349379      0.687506
  H      -4.097511     -0.437513      1.652376
  H      -1.453640      2.327676      2.952900
  H      -2.656253     -1.611419      3.252492
  H      -0.157815      0.420389      3.786152
  H      -1.667521      1.056915     -3.248150
  H      -2.512879     -0.359683     -1.440377
  H      -2.059235      2.019912     -1.036339
  H       3.342017      0.502348     -3.167163
  H       4.075187     -1.824329     -2.991582
  H       1.881322     -1.300831     -3.952392
  H       0.259951     -1.696887      0.096184
  H      -2.556222     -2.174937      0.862315
26
Coordinates from ORCA-job my_molecule E -1757.381696268884
  O      -1.533123      0.080932      1.603164
  Si     -0.615770      1.144244      2.544812
  Si     -2.742705     -1.065508      1.842601
  C       0.851679      1.714657      1.511175
  C       1.753923      0.603351      0.935181
  H       1.439167      2.401917      2.162424
  H       2.659446      1.048672      0.465839
  H       2.139242     -0.062202      1.740002
  Si      0.995954     -0.488354     -0.410722
  O      -0.006166      0.443326     -1.377063
  O       2.252406     -1.048254     -1.363098
  Si      2.879822     -0.914350     -2.909818
  Si     -1.596177      0.796379     -1.764511
  H       0.451277      2.350667      0.691548
  H      -4.093380     -0.443588      1.617703
  H      -1.455364      2.327080      2.952494
  H      -2.674275     -1.599470      3.249926
  H      -0.161171      0.419849      3.787668
  H      -1.664763      1.065474     -3.241406
  H      -2.511075     -0.353708     -1.436002
  H      -2.054084      2.024669     -1.027250
  H       3.307000      0.500409     -3.200937
  H       4.081640     -1.810979     -2.991504
  H       1.871858     -1.340761     -3.943491
  H       0.266470     -1.696899      0.093264
  H      -2.537262     -2.187042      0.868052
26
Coordinates from ORCA-job my_molecule E -1757.381699176828
  O      -1.531847      0.081894      1.599282
  Si     -0.618500      1.144421      2.545941
  Si     -2.737947     -1.069603      1.831576
  C       0.851454      1.717679      1.517605
  C       1.755367      0.607312      0.942649
  H       1.436786      2.403416      2.172341
  H       2.662994      1.052617      0.477450
  H       2.137273     -0.060360      1.747350
  Si      1.001500     -0.480829     -0.408404
  O      -0.002942      0.450870     -1.372506
  O       2.261249     -1.031592     -1.361372
  Si      2.871831     -0.923338     -2.916651
  Si     -1.593575      0.803050     -1.757555
  H       0.453055      2.355189      0.698242
  H      -4.088546     -0.456311      1.584029
  H      -1.459513      2.326151      2.953939
  H      -2.685592     -1.591398      3.244271
  H      -0.167392      0.417693      3.788755
  H      -1.663898      1.074815     -3.233925
  H      -2.507589     -0.348306     -1.430570
  H      -2.051660      2.029728     -1.017483
  H       3.286128      0.488682     -3.237911
  H       4.078215     -1.814365     -2.993456
  H       1.856855     -1.375110     -3.932699
  H       0.273819     -1.693306      0.089226
  H      -2.512954     -2.198492      0.869928
26
Coordinates from ORCA-job my_molecule E -1757.381719400632
  O      -1.525756      0.082485      1.584845
  Si     -0.628094      1.142267      2.550193
  Si     -2.720976     -1.085283      1.790713
  C       0.850014      1.728835      1.541789
  C       1.760593      0.624021      0.967549
  H       1.426993      2.407832      2.210702
  H       2.674685      1.071361      0.517464
  H       2.131475     -0.052581      1.769968
  Si      1.021857     -0.449363     -0.403464
  O       0.008325      0.482929     -1.358312
  O       2.293674     -0.964920     -1.358837
  Si      2.844531     -0.963166     -2.939479
  Si     -1.585122      0.833884     -1.730588
  H       0.458583      2.373647      0.725038
  H      -4.067816     -0.498414      1.470292
  H      -1.476650      2.317793      2.960544
  H      -2.723393     -1.571692      3.217275
  H      -0.188191      0.406529      3.792159
  H      -1.663023      1.123223     -3.203391
  H      -2.495407     -0.324078     -1.414994
  H      -2.043975      2.050370     -0.973598
  H       3.184729      0.433781     -3.387605
  H       4.083072     -1.811484     -2.988600
  H       1.817002     -1.536213     -3.879466
  H       0.301717     -1.676835      0.069703
  H      -2.434279     -2.234420      0.870152
26
Coordinates from ORCA-job my_molecule E -1757.381734282725
  O      -1.523984      0.081176      1.578243
  Si     -0.633347      1.138324      2.553402
  Si     -2.713462     -1.094213      1.773929
  C       0.846527      1.735470      1.554114
  C       1.761153      0.635778      0.976952
  H       1.419248      2.410272      2.230862
  H       2.677470      1.086074      0.534511
  H       2.128032     -0.046689      1.776225
  Si      1.030267     -0.427822     -0.405676
  O       0.014427      0.507220     -1.355859
  O       2.308867     -0.926297     -1.360254
  Si      2.835794     -0.992707     -2.947338
  Si     -1.580798      0.856916     -1.721100
  H       0.457041      2.385187      0.740445
  H      -4.061574     -0.511793      1.450982
  H      -1.486245      2.308828      2.969109
  H      -2.719250     -1.586075      3.198715
  H      -0.195723      0.395936      3.792356
  H      -1.660805      1.166316     -3.189759
  H      -2.486748     -0.308885     -1.421651
  H      -2.044198      2.061052     -0.947025
  H       3.115964      0.389198     -3.475930
  H       4.103610     -1.798056     -2.971146
  H       1.816825     -1.653507     -3.838036
  H       0.312138     -1.662322      0.053061
  H      -2.416660     -2.238872      0.850919
26
Coordinates from ORCA-job my_molecule E -1757.381752185588
  O      -1.529747      0.076026      1.582598
  Si     -0.637432      1.129608      2.559879
  Si     -2.717983     -1.099536      1.789124
  C       0.837500      1.738770      1.560062
  C       1.756586      0.648169      0.972802
  H       1.408246      2.412017      2.240260
  H       2.668518      1.107653      0.530731
  H       2.129244     -0.037163      1.766796
  Si      1.029284     -0.410637     -0.414940
  O       0.023371      0.530062     -1.370081
  O       2.313048     -0.915034     -1.359613
  Si      2.844415     -1.018130     -2.943306
  Si     -1.572009      0.876336     -1.740105
  H       0.445033      2.392907      0.751251
  H      -4.076476     -0.496107      1.561402
  H      -1.495765      2.292584      2.985156
  H      -2.654103     -1.655416      3.188315
  H      -0.190900      0.382418      3.793067
  H      -1.643896      1.205269     -3.204848
  H      -2.471527     -0.299699     -1.463172
  H      -2.049538      2.066231     -0.953469
  H       3.081094      0.352148     -3.520443
  H       4.137800     -1.781862     -2.942588
  H       1.846429     -1.742455     -3.807993
  H       0.303368     -1.642022      0.039798
  H      -2.479988     -2.201631      0.799369
26
Coordinates from ORCA-job my_molecule E -1757.381769516504
  O      -1.528129      0.072378      1.579670
  Si     -0.642409      1.121269      2.566964
  Si     -2.708577     -1.113743      1.773630
  C       0.835324      1.741606      1.577310
  C       1.758127      0.659338      0.980002
  H       1.403616      2.410070      2.264385
  H       2.667859      1.127042      0.542336
  H       2.132461     -0.031282      1.768539
  Si      1.037435     -0.388357     -0.419095
  O       0.026636      0.551868     -1.368823
  O       2.329830     -0.870746     -1.364303
  Si      2.832605     -1.042633     -2.951504
  Si     -1.568846      0.905368     -1.731814
  H       0.445038      2.403947      0.773927
  H      -4.066639     -0.532429      1.492451
  H      -1.509409      2.276811      2.994553
  H      -2.679401     -1.644830      3.183275
  H      -0.197762      0.367754      3.797246
  H      -1.649028      1.216639     -3.199950
  H      -2.473942     -0.261429     -1.435120
  H      -2.033757      2.107512     -0.957223
  H       3.029888      0.299425     -3.603455
  H       4.142381     -1.777232     -2.939827
  H       1.833062     -1.831625     -3.756329
  H       0.317825     -1.627753      0.024529
  H      -2.429618     -2.228459      0.808675
26
Coordinates from ORCA-job my_molecule E -1757.381794925473
  O      -1.524015      0.069399      1.575001
  Si     -0.645673      1.115634      2.571103
  Si     -2.702324     -1.121306      1.753839
  C       0.833973      1.746213      1.590724
  C       1.759857      0.669957      0.987037
  H       1.399811      2.409839      2.284428
  H       2.670576      1.142383      0.556659
  H       2.131909     -0.027421      1.770752
  Si      1.045972     -0.365617     -0.424081
  O       0.029279      0.576226     -1.365859
  O       2.345383     -0.824542     -1.371274
  Si      2.823755     -1.072749     -2.955902
  Si     -1.567992      0.930382     -1.720169
  H       0.445515      2.414956      0.791747
  H      -4.059422     -0.544899      1.458571
  H      -1.518100      2.265864      3.001872
  H      -2.686178     -1.655330      3.162527
  H      -0.202932      0.356302      3.798461
  H      -1.651535      1.263262     -3.183360
  H      -2.469491     -0.243177     -1.439749
  H      -2.035409      2.119528     -0.927258
  H       2.942363      0.233061     -3.694023
  H       4.167204     -1.743269     -2.929188
  H       1.846975     -1.957147     -3.686542
  H       0.333326     -1.614379      0.005217
  H      -2.408255     -2.232662      0.789517
26
Coordinates from ORCA-job my_molecule E -1757.381833454609
  O      -1.518635      0.061641      1.563642
  Si     -0.651209      1.101081      2.576049
  Si     -2.687668     -1.141163      1.723203
  C       0.828229      1.754716      1.610330
  C       1.759833      0.692523      0.990595
  H       1.389762      2.408172      2.317159
  H       2.669292      1.175617      0.569689
  H       2.132613     -0.016507      1.763444
  Si      1.053899     -0.322551     -0.438580
  O       0.029979      0.623394     -1.368208
  O       2.362496     -0.749365     -1.388164
  Si      2.815368     -1.132033     -2.953444
  Si     -1.569517      0.986286     -1.702795
  H       0.440326      2.436460      0.822101
  H      -4.047773     -0.573381      1.425276
  H      -1.534529      2.238427      3.018491
  H      -2.674627     -1.689984      3.126089
  H      -0.207059      0.328887      3.794948
  H      -1.662740      1.346453     -3.158930
  H      -2.470844     -0.191298     -1.438998
  H      -2.031007      2.160828     -0.885134
  H       2.804367      0.089573     -3.830986
  H       4.209424     -1.688320     -2.905595
  H       1.893900     -2.166050     -3.547548
  H       0.349242     -1.583600     -0.030952
  H      -2.378550     -2.239298      0.748370
26
Coordinates from ORCA-job my_molecule E -1757.381863370127
  O      -1.508104      0.051448      1.552454
  Si     -0.654416      1.091334      2.575887
  Si     -2.677346     -1.153380      1.691348
  C       0.825298      1.762895      1.623035
  C       1.762645      0.710792      0.994505
  H       1.382181      2.409317      2.339971
  H       2.670737      1.201629      0.579603
  H       2.137267     -0.004456      1.760821
  Si      1.062009     -0.297086     -0.441883
  O       0.034846      0.648939     -1.367461
  O       2.374195     -0.710922     -1.393019
  Si      2.799401     -1.177647     -2.943786
  Si     -1.563599      1.024999     -1.691160
  H       0.438177      2.452668      0.841481
  H      -4.039655     -0.576017      1.423125
  H      -1.548682      2.218611      3.022112
  H      -2.650301     -1.738850      3.079075
  H      -0.210175      0.314169      3.791373
  H      -1.655713      1.418924     -3.138605
  H      -2.469934     -0.154480     -1.454185
  H      -2.021116      2.182369     -0.846764
  H       2.638140     -0.036888     -3.910768
  H       4.239734     -1.602170     -2.918455
  H       1.954739     -2.334981     -3.411373
  H       0.363974     -1.564644     -0.042536
  H      -2.379733     -2.226064      0.685257
26
Coordinates from ORCA-job my_molecule E -1757.381873244656
  O      -1.508608      0.051120      1.554504
  Si     -0.653998      1.091282      2.577222
  Si     -2.682213     -1.148778      1.694982
  C       0.823478      1.764116      1.622141
  C       1.762570      0.712719      0.995027
  H       1.379597      2.412256      2.337986
  H       2.670293      1.204164      0.579922
  H       2.138629     -0.001274      1.761797
  Si      1.063562     -0.297790     -0.440213
  O       0.039395      0.649136     -1.367583
  O       2.375981     -0.716346     -1.388933
  Si      2.799625     -1.177367     -2.941704
  Si     -1.558983      1.017619     -1.699725
  H       0.434170      2.451538      0.839725
  H      -4.047228     -0.559346      1.469879
  H      -1.546234      2.219446      3.025496
  H      -2.628522     -1.761727      3.070237
  H      -0.207394      0.314095      3.791314
  H      -1.644775      1.422439     -3.144501
  H      -2.459066     -0.169105     -1.475930
  H      -2.027490      2.165586     -0.848246
  H       2.634343     -0.032602     -3.903806
  H       4.240618     -1.599631     -2.919131
  H       1.955357     -2.333777     -3.411906
  H       0.363451     -1.564210     -0.041040
  H      -2.411988     -2.203053      0.662536
26
Coordinates from ORCA-job my_molecule E -1757.381881535816
  O      -1.508068      0.046993      1.556705
  Si     -0.653933      1.086282      2.580814
  Si     -2.684379     -1.149987      1.695257
  C       0.820369      1.764406      1.624801
  C       1.761898      0.717166      0.994453
  H       1.375623      2.412752      2.341023
  H       2.668162      1.212177      0.580391
  H       2.140740      0.002106      1.758806
  Si      1.066022     -0.289572     -0.444730
  O       0.041573      0.659332     -1.368796
  O       2.381366     -0.701143     -1.392746
  Si      2.800236     -1.186075     -2.939463
  Si     -1.556728      1.024593     -1.704135
  H       0.427738      2.451924      0.844197
  H      -4.050424     -0.555575      1.489890
  H      -1.546428      2.212790      3.032926
  H      -2.620362     -1.777838      3.063538
  H      -0.203860      0.307064      3.791965
  H      -1.641597      1.434298     -3.147513
  H      -2.453351     -0.165385     -1.484241
  H      -2.028176      2.168292     -0.848395
  H       2.616587     -0.060386     -3.920887
  H       4.245778     -1.592080     -2.917672
  H       1.964520     -2.359286     -3.382622
  H       0.366725     -1.558875     -0.052922
  H      -2.425462     -2.193464      0.649407
26
Coordinates from ORCA-job my_molecule E -1757.381891454035
  O      -1.505866      0.041635      1.557340
  Si     -0.655127      1.079959      2.585567
  Si     -2.679186     -1.158085      1.693239
  C       0.815008      1.767310      1.630108
  C       1.760913      0.727326      0.994636
  H       1.368012      2.416479      2.347340
  H       2.664157      1.228701      0.581496
  H       2.144975      0.011263      1.755435
  Si      1.069098     -0.275834     -0.448701
  O       0.044901      0.675190     -1.369310
  O       2.388381     -0.681104     -1.394976
  Si      2.794296     -1.201161     -2.934008
  Si     -1.551981      1.038360     -1.712587
  H       0.416974      2.454886      0.852241
  H      -4.049470     -0.564674      1.513566
  H      -1.551101      2.201942      3.042245
  H      -2.599045     -1.805655      3.051642
  H      -0.201478      0.297893      3.793431
  H      -1.632965      1.449690     -3.155626
  H      -2.446656     -0.153512     -1.495368
  H      -2.026328      2.180244     -0.855880
  H       2.603622     -0.097328     -3.939066
  H       4.239684     -1.607253     -2.913858
  H       1.952678     -2.382527     -3.343169
  H       0.370718     -1.548265     -0.064835
  H      -2.429644     -2.184971      0.629150
26
Coordinates from ORCA-job my_molecule E -1757.381898673263
  O      -1.503075      0.036987      1.554075
  Si     -0.656021      1.072393      2.588652
  Si     -2.672371     -1.167057      1.686852
  C       0.810584      1.771135      1.636107
  C       1.761151      0.739672      0.994115
  H       1.360739      2.419763      2.356038
  H       2.660758      1.248214      0.581763
  H       2.150822      0.022094      1.750614
  Si      1.072920     -0.259415     -0.453443
  O       0.045916      0.692606     -1.368955
  O       2.395760     -0.655356     -1.399751
  Si      2.788190     -1.219192     -2.927322
  Si     -1.550257      1.054567     -1.716089
  H       0.407745      2.460421      0.862169
  H      -4.046100     -0.575869      1.525890
  H      -1.556592      2.187885      3.052206
  H      -2.580116     -1.830082      3.037026
  H      -0.199621      0.284807      3.792120
  H      -1.629411      1.468039     -3.158565
  H      -2.443644     -0.138827     -1.501859
  H      -2.026576      2.194619     -0.857957
  H       2.589356     -0.144318     -3.961753
  H       4.233488     -1.625508     -2.907944
  H       1.941388     -2.410569     -3.295077
  H       0.377983     -1.536245     -0.077288
  H      -2.428444     -2.180256      0.608425
26
Coordinates from ORCA-job my_molecule E -1757.381904037299
  O      -1.494398      0.026015      1.543247
  Si     -0.655930      1.053099      2.593581
  Si     -2.654219     -1.188759      1.664206
  C       0.802265      1.780320      1.649376
  C       1.761397      0.768937      0.988972
  H       1.347210      2.423980      2.377718
  H       2.653053      1.293167      0.578966
  H       2.162920      0.045431      1.733519
  Si      1.078272     -0.216866     -0.469451
  O       0.042088      0.738595     -1.369750
  O       2.406930     -0.587928     -1.419638
  Si      2.777732     -1.269818     -2.905060
  Si     -1.553668      1.101559     -1.716367
  H       0.389678      2.476909      0.887102
  H      -4.034515     -0.602046      1.546927
  H      -1.567204      2.151868      3.075807
  H      -2.534051     -1.890401      2.992403
  H      -0.192264      0.250658      3.784905
  H      -1.631933      1.531218     -3.154109
  H      -2.445170     -0.095895     -1.517316
  H      -2.032625      2.231061     -0.845751
  H       2.530718     -0.290181     -4.020149
  H       4.231748     -1.643832     -2.887693
  H       1.948051     -2.504286     -3.150585
  H       0.392796     -1.504649     -0.112207
  H      -2.424308     -2.167647      0.551397
26
Coordinates from ORCA-job my_molecule E -1757.381907620596
  O      -1.496513      0.030493      1.546784
  Si     -0.656302      1.062468      2.590594
  Si     -2.661410     -1.179074      1.671512
  C       0.806399      1.777905      1.644235
  C       1.762934      0.757446      0.993760
  H       1.352409      2.424469      2.369194
  H       2.657967      1.274680      0.582227
  H       2.159138      0.037857      1.744949
  Si      1.078616     -0.237571     -0.458228
  O       0.045625      0.714291     -1.367087
  O       2.404366     -0.621032     -1.406765
  Si      2.777639     -1.245585     -2.916300
  Si     -1.549963      1.077084     -1.715236
  H       0.398773      2.470739      0.875929
  H      -4.037669     -0.588515      1.530234
  H      -1.564413      2.167854      3.063519
  H      -2.557445     -1.862009      3.010701
  H      -0.197091      0.267073      3.788247
  H      -1.626615      1.497725     -3.155804
  H      -2.443720     -0.117627     -1.509840
  H      -2.028830      2.212782     -0.852735
  H       2.552085     -0.217352     -3.991458
  H       4.226578     -1.639347     -2.904379
  H       1.935342     -2.458302     -3.219690
  H       0.390377     -1.520541     -0.090176
  H      -2.423707     -2.175403      0.575865
26
Coordinates from ORCA-job my_molecule E -1757.381909347510
  O      -1.494837      0.029022      1.544876
  Si     -0.656097      1.060043      2.590745
  Si     -2.659318     -1.181356      1.666927
  C       0.805632      1.779596      1.645869
  C       1.763408      0.761481      0.993490
  H       1.350786      2.425465      2.372075
  H       2.657538      1.280425      0.582145
  H       2.160770      0.041381      1.743563
  Si      1.079977     -0.232345     -0.459728
  O       0.045085      0.719516     -1.366746
  O       2.406095     -0.612028     -1.409356
  Si      2.775840     -1.252451     -2.913284
  Si     -1.550674      1.082653     -1.713557
  H       0.397202      2.473459      0.878927
  H      -4.035611     -0.589840      1.530331
  H      -1.565787      2.162966      3.066350
  H      -2.552708     -1.869628      3.003103
  H      -0.195900      0.262545      3.786648
  H      -1.627115      1.507147     -3.153044
  H      -2.444391     -0.112741     -1.512116
  H      -2.030528      2.215904     -0.848438
  H       2.539866     -0.238233     -3.999292
  H       4.226829     -1.638767     -2.903974
  H       1.938769     -2.473211     -3.198559
  H       0.393682     -1.516983     -0.093856
  H      -2.423941     -2.173514      0.566953
26
Coordinates from ORCA-job my_molecule E -1757.381910269984
  O      -1.493346      0.027421      1.543332
  Si     -0.655834      1.057495      2.590943
  Si     -2.657349     -1.183751      1.662803
  C       0.804380      1.781531      1.647013
  C       1.763555      0.765724      0.992984
  H       1.348700      2.427137      2.374062
  H       2.656749      1.286323      0.581700
  H       2.162083      0.045361      1.742169
  Si      1.081244     -0.226854     -0.461610
  O       0.044636      0.725302     -1.366869
  O       2.407679     -0.602545     -1.412318
  Si      2.774600     -1.259670     -2.909854
  Si     -1.551469      1.088350     -1.711916
  H       0.394844      2.476030      0.881252
  H      -4.033722     -0.590889      1.533572
  H      -1.566962      2.157801      3.069834
  H      -2.545870     -1.879125      2.994828
  H      -0.193729      0.257826      3.784610
  H      -1.627729      1.517928     -3.149964
  H      -2.444645     -0.108242     -1.515534
  H      -2.033122      2.218114     -0.843323
  H       2.531085     -0.259362     -4.006871
  H       4.226988     -1.640787     -2.901886
  H       1.941443     -2.487113     -3.177590
  H       0.396622     -1.513105     -0.098293
  H      -2.426260     -2.170392      0.556977
26
Coordinates from ORCA-job my_molecule E -1757.381910501887
  O      -1.493501      0.027503      1.543858
  Si     -0.655787      1.057826      2.590991
  Si     -2.657657     -1.183468      1.663686
  C       0.804153      1.781712      1.646527
  C       1.763434      0.765558      0.993142
  H       1.348481      2.427867      2.373074
  H       2.656681      1.285926      0.581651
  H       2.161869      0.045646      1.742801
  Si      1.081312     -0.227586     -0.461165
  O       0.045019      0.724530     -1.366978
  O       2.407617     -0.603853     -1.411715
  Si      2.774696     -1.258478     -2.910263
  Si     -1.551186      1.086853     -1.712279
  H       0.394488      2.475657      0.880333
  H      -4.033915     -0.590278      1.534911
  H      -1.566771      2.158227      3.069946
  H      -2.545507     -1.878952      2.995595
  H      -0.193128      0.258421      3.784575
  H      -1.627292      1.516211     -3.150417
  H      -2.443929     -0.110052     -1.515887
  H      -2.033686      2.216486     -0.844001
  H       2.536979     -0.254293     -4.005016
  H       4.225630     -1.645064     -2.900950
  H       1.937538     -2.482153     -3.182674
  H       0.396382     -1.513551     -0.097482
  H      -2.427352     -2.170186      0.557788
