66
Coordinates from ORCA-job my_molecule E -2537.167043029710
  O           2.17529008342156     -0.11027714123442     -1.14238674027020
  Si          3.05446896221271      1.35411132589671     -1.45060697014841
  Si          2.49925162189991     -1.79488713584734     -1.09777789514805
  C           2.25175364181759      2.72270105809612     -0.44577716742441
  C           2.05366889850185      4.06271543130177     -0.93914015529273
  C           2.02957374261831     -2.52882755068892     -2.76733101799186
  C           1.47911435095898     -1.86537048195464     -3.80426620065410
  C           4.84037956171838      1.15655016050663     -0.85270997426436
  C           3.02800975938151      1.67833286197293     -3.30642705752571
  C           4.32004931945626     -2.18272282381574     -0.77939603005400
  C           1.45629510644364     -2.54720610690435      0.29236990679767
  H           2.31741501246760      2.59748438018473      0.65662146186045
  H           2.40906770322552      4.35100798053876     -1.94751418638393
  H           2.02804633553557      4.90712968631201     -0.22443505766222
  H           2.22631605281059     -3.61217691215644     -2.90031591533136
  H           1.24546279203058     -0.78878665135414     -3.74545316608292
  H           1.23070081559276     -2.36505481104873     -4.75737012707204
  H           5.43119137977315      0.42598175608406     -1.43901463197277
  H           4.88518846128263      0.86699315553484      0.21707512397512
  H           5.33743301726135      2.14520883892600     -0.94737010738599
  H           1.98896133911107      1.83655466412172     -3.65876530618720
  H           3.47213593929856      0.82922699523634     -3.86531425109137
  H           3.61073271093279      2.59053262834058     -3.55156676029109
  H           4.98561873483827     -1.83390407219258     -1.59280694935175
  H           4.42244155635918     -3.28705476704400     -0.71396153647360
  H           4.67842286180469     -1.75617958525272      0.17891667531566
  H           0.90819547281925     -1.76111303551666      0.84841683886536
  H           2.09441008373177     -3.10122334726132      1.01067250355660
  H           0.69997536900683     -3.25049792274541     -0.11044684812609
  Pt          0.30121360178976      2.98493041116700     -1.02341600345348
  O          -1.57701428292657      0.71911229454289      0.75832455574472
  O          -1.22545199043909     -0.61577779995042      1.35011540513708
  P          -1.64631147481373      0.64522795907848     -0.91940363036043
  P          -2.24609181777831     -0.85838297513405      2.68312855062319
  O          -1.57300788270551     -2.29702141053996      3.10147844692065
  O          -3.70974057951610     -0.88651534282023      2.34239855633104
  O          -0.46760139388050     -0.30082739432410     -1.42931259624389
  O          -1.63588911397562      2.13303129320886     -1.31193130078851
  C          -3.19924312139085     -0.16479904762548     -1.49605094031363
  C          -1.69433180772464      0.26966086583075      4.03950465356198
  C          -2.34110993137220     -0.27301091139025      5.33368384092141
  C          -2.22082737805273      1.68754420676420      3.73661648121789
  C          -0.15780218693835      0.25531988541302      4.13876178291489
  C          -3.22277886098279     -1.66036358010814     -1.12528565396278
  C          -4.37904128531901      0.57956167679202     -0.83642069931548
  C          -3.21901612480185      0.01628089727788     -3.03144734000723
  H          -2.06366030147349     -3.02135357525353      2.66245834465568
  H           0.50044474040884     -0.00698282285914     -1.26985332438777
  H          -3.44569267547688     -0.30605211619865      5.24846085958186
  H          -2.08130714567025      0.39975679529915      6.17729673459450
  H          -1.97783958277637     -1.29071381866195      5.57698562674430
  H          -3.32215157549283      1.69041074774317      3.61627484334279
  H          -1.77007522242183      2.11228875016192      2.81909928197668
  H          -1.96264172131656      2.35139372771198      4.58781443470353
  H           0.22933664231906     -0.76363489756601      4.33699501296420
  H           0.15682932070098      0.91144794358017      4.97704836165131
  H           0.31293234820166      0.63306337447440      3.21013201349025
  H          -3.30830139679669     -1.79895199168028     -0.03090582746636
  H          -2.32520167257954     -2.19106876878795     -1.49819573853643
  H          -4.11780662170776     -2.12278846843926     -1.59198883035368
  H          -4.38532100930434      0.42503675370377      0.26067464295994
  H          -5.32830411164504      0.17497358950622     -1.24495545110301
  H          -4.34617496884796      1.66570319071338     -1.05198593000315
  H          -2.36900785752099     -0.50506732361789     -3.51505296993764
  H          -3.18132804732452      1.08610466465815     -3.31540871959067
  H          -4.16025519676003     -0.41678136070581     -3.42955493239852
