26
image3
O    -1.2289078031   -0.2467453900    1.9690105222
Si   -0.1714584856    0.7458630307    2.7912613160
Si   -2.8559728793   -0.6347447094    1.9362351697
C     0.8234417477    1.8271999292    1.5806069609
C     1.7248520123    1.0639276782    0.6503642828
H     1.4091624125    2.4673634691    2.2649152633
H     2.0466944185    1.5650456011   -0.2159229673
H     2.4468295183    0.3955261468    1.1110797158
Si    0.3994965775   -1.0376937450   -0.9826795183
O    -0.4926349160    0.1698643014   -1.5059998657
O     1.6810114533   -1.4407902528   -1.9016443404
Si    3.0700265543   -0.8332332260   -2.4830423523
Si   -1.9570488170    0.4915966888   -2.1425585362
H     0.1393159700    2.4925206050    1.0365940780
H    -3.6612729017    0.4473626374    2.5342298332
H    -0.9078634161    1.6037131014    3.7714149880
H    -3.0118171902   -1.8877900904    2.7121368804
H     0.8014802414   -0.1419260763    3.4937331649
H    -1.7466603361    0.8885630788   -3.5578009581
H    -2.8128836431   -0.6714196116   -2.0725770948
H    -2.5476125478    1.5779239087   -1.3525618647
H     2.9317319297    0.6165324728   -2.7379210103
H     4.1383559515   -1.1007703124   -1.5000492767
H     3.3836012244   -1.5043838586   -3.7246310582
H     0.2343028398   -1.6776965868    0.1030846405
H    -3.1853871773   -0.8665592321    0.5082997418
