26
image2
O    -1.2353121334   -0.1639045548    1.9162762413
Si   -0.1767677272    0.7902670524    2.7816781865
Si   -2.8281938209   -0.6472057370    1.9124030612
C     0.8408711131    1.8925848308    1.6182124107
C     1.7559235811    1.1489151594    0.6955720066
H     1.4115833190    2.5234203139    2.3255989849
H     2.0117265533    1.5893765111   -0.2268677525
H     2.4598297395    0.4452083743    1.1275249903
Si    0.2895169290   -1.2502811963   -1.0938730036
O    -0.5333924895    0.0619039358   -1.5033522152
O     1.6275905049   -1.5472503560   -1.9819368246
Si    3.0208796662   -0.8445648125   -2.4572836250
Si   -1.9638756322    0.5165907921   -2.1467776388
H     0.1697664214    2.5696199058    1.0708693116
H    -3.6929265401    0.4040529826    2.4875372086
H    -0.9267893843    1.6274633785    3.7715814810
H    -2.9334715382   -1.8909992374    2.7133646630
H     0.7712709500   -0.1198220639    3.4909204867
H    -1.7185337643    0.9456514376   -3.5467707327
H    -2.9110427144   -0.5820699078   -2.1230010659
H    -2.4741805456    1.6209372998   -1.3234158210
H     2.8221267444    0.6047648920   -2.6746527169
H     4.0474836552   -1.0818172612   -1.4200811775
H     3.4419696461   -1.4579295967   -3.7019698078
H     0.2875616539   -1.7271331267    0.1203588941
H    -3.1650455306   -0.9249392086    0.4939327647
