26
image4
O    -1.2225034728   -0.3295862253    2.0217448031
Si   -0.1661492439    0.7014590090    2.8008444456
Si   -2.8837519377   -0.6222836819    1.9600672784
C     0.8060123823    1.7618150277    1.5430015110
C     1.6937804434    0.9789401969    0.6051565590
H     1.4067415061    2.4113066243    2.2042315418
H     2.0816622837    1.5407146910   -0.2049781821
H     2.4338292971    0.3458439194    1.0946344413
Si    0.5094762259   -0.8251062938   -0.8714860330
O    -0.4518773425    0.2778246670   -1.5086475163
O     1.7344324017   -1.3343301496   -1.8213518562
Si    3.1191734424   -0.8219016394   -2.5088010797
Si   -1.9502220018    0.4666025855   -2.1383394335
H     0.1088655186    2.4154213042    1.0023188445
H    -3.6296192632    0.4906722921    2.5809224579
H    -0.8889374478    1.5799628243    3.7712484949
H    -3.0901628421   -1.8845809434    2.7109090979
H     0.8316895329   -0.1640300887    3.4965458431
H    -1.7747869080    0.8314747200   -3.5688311834
H    -2.7147245718   -0.7607693153   -2.0221531236
H    -2.6210445499    1.5349105175   -1.3817079084
H     3.0413371150    0.6283000536   -2.8011893037
H     4.2292282478   -1.1197233636   -1.5800173759
H     3.3252328027   -1.5508381205   -3.7472923085
H     0.1810440258   -1.6282600469    0.0858103868
H    -3.2057288240   -0.8081792555    0.5226667191
