63
image4
O    -1.5071192943    0.6487854622    2.2555956215
Si    0.0570697666    0.5006304744    2.6569085646
Si   -2.9601840170    0.3753252956    2.8829426560
C     0.5026843801    1.8672257293    3.7449392357
C     0.5386950554   -1.1407851106    3.2349335524
C    -3.6213312570    1.5133527200    4.0631310191
C    -3.1500323665   -1.1287308170    3.7777238579
C     0.8480824918    0.7919630922    1.0751313677
C     2.1846758376    0.2919122825    0.7828086973
C    -4.0692323184    0.3594697726    1.3358890506
C    -5.3934871608   -0.0482693671    1.4287473526
H     0.1407936256    2.8246916394    3.3518426574
H     1.5966016041    1.8732881286    3.7769175217
H     0.0718997506    1.6905757489    4.7478239318
H     0.6567936397   -1.8521668567    2.4524546204
H    -0.1199715696   -1.7001328439    3.9048199628
H     1.4672282318   -1.1641537735    3.7773732315
H    -3.9606655363    2.3266575233    3.2595407444
H    -2.7991544904    2.3997530505    4.4288052777
H    -4.2477926244    2.0905998890    4.4910907438
H    -2.4486151189   -2.1010180902    3.4344849185
H    -3.6185799963   -1.8677752303    3.5773376582
H    -2.9421489126   -0.9678480113    4.7915999975
H     0.7349527670    1.8059982540    0.6882614789
H     2.5090520285   -0.6001483857    1.2523897700
H     2.9816522258    1.0521009107    0.6334103757
H    -3.8361280410    0.8004422281    0.2982191319
H    -5.9280677231   -0.4915220933    2.1468067032
H    -6.0243027111   -0.3734391131    0.5978099338
Si    1.1632696617   -0.5344328049   -1.4389358550
O    -0.0556745344   -0.1581154336   -2.3738180719
O     2.5935045854   -0.1560700885   -2.3575803604
Si    4.2955163929   -0.1945516553   -2.3058105138
Si   -1.6437673463   -0.0936254719   -2.6086021748
C    -2.1147989758    1.5816853296   -1.7584882998
C    -2.6432032724   -1.4158798327   -1.6566062146
C     1.0952632628   -2.2247880669   -0.8554175154
H     0.2720572322    0.0571302919    0.1519383823
C     4.7754840370   -1.6246063597   -1.2234811004
C     4.9813186707    1.4252689696   -1.6564828013
C     4.6332084732   -0.4217639050   -4.0979734335
C    -2.1494942288   -0.0917099854   -4.3396503318
H    -1.9057932713    1.5682232544   -0.6812225458
H    -3.1664590215    1.8438420607   -1.8890985700
H    -1.4957547416    2.3612128515   -2.2184891299
H    -2.5825523479   -1.1942497113   -0.5807240074
H    -2.2524417668   -2.3729136955   -1.5383962195
H    -3.6800876413   -1.7598832666   -1.9309391883
H     1.9106052922   -2.5084717538   -0.2298220752
H     1.8045773344   -3.5770028687   -1.9253753608
H     0.1880693856   -2.6753585856   -0.4754581782
H     4.5163271681   -1.4601829742   -0.1717876025
H     5.8570988775   -1.7408330827   -1.2874252747
H     4.3001068517   -2.5601025503   -1.5455928109
H     4.8382960112    1.5414688273   -0.5750895341
H     4.5426423761    2.3046437772   -2.1496008108
H     6.0659276724    1.4346268130   -1.8374086084
H     4.1115076986   -1.3127281268   -4.4676061360
H     5.7082581245   -0.5411343666   -4.2583462583
H     4.2925403153    0.4346462923   -4.6922844842
H    -1.4428652436    0.5410870819   -4.9000928299
H    -3.1439765556    0.2981717688   -4.5212071109
H    -2.1411684311   -1.0515328880   -4.8135316551
