63
image3
O    -1.5598393437    0.6416343842    2.2992343475
Si    0.0549993353    0.4778071124    2.5660268197
Si   -2.9489500106    0.3661818983    2.8274211066
C     0.5247738332    1.8657004652    3.7218672424
C     0.5200305065   -1.0973830949    3.2544651698
C    -3.6251466403    1.6039870275    3.9891328586
C    -3.1482337221   -1.1279540211    3.7611930620
C     0.7854101267    0.7570389677    1.0417475605
C     2.1617334302    0.3193242635    0.7773665666
C    -4.2053421159    0.3134534452    1.2447121011
C    -5.3561113864   -0.1049678648    1.5184965823
H     0.1437322373    2.8286197629    3.3422700999
H     1.5938946679    1.8749931098    3.7671635336
H     0.0712738769    1.6956285294    4.7641143023
H     0.7468573237   -1.8988477009    2.4399558091
H    -0.1358610159   -1.7010252467    3.9316431879
H     1.4764032758   -1.1213789553    3.8876693443
H    -3.7116813169    1.6480776636    3.7428383676
H    -2.8014498810    2.5123709673    4.4186942794
H    -4.3677637296    2.1512128635    4.8053945929
H    -2.6259516785   -2.1280443166    3.5664571421
H    -3.9862788811   -1.4306611982    3.9290380547
H    -2.9413662467   -0.9678905811    4.7924476836
H     0.6562113026    1.7103492852    0.6810329653
H     2.4877073981   -0.5827860981    1.2158461699
H     2.9047581717    1.0351542831    0.6388823651
H    -3.8287065511    0.7743121772    0.4222459901
H    -5.8677554684   -0.4601318667    2.1507284784
H    -5.9780613600   -0.4885994085    0.5689191526
Si    1.1668088175   -0.5479264632   -1.4440040410
O    -0.0958550222   -0.1761799583   -2.4257866084
O     2.6011754728   -0.1297384595   -2.3781582661
Si    4.3839636209   -0.1946980628   -2.2583582144
Si   -1.6725166094    0.0062973765   -2.5793006668
C    -2.1667897965    1.6723871077   -1.8502643507
C    -2.6695178038   -1.3776969064   -1.6532271834
C     1.1334100842   -2.2365436760   -0.8664095511
H     0.1993361779    0.0093118794    0.1910123739
C     4.7920570081   -1.6269713705   -1.2360449247
C     4.9707262048    1.4229878676   -1.6548625756
C     4.6834653155   -0.4245508774   -4.0993404141
C    -2.0793055870   -0.1078705391   -4.3413466086
H    -1.9040497088    1.5689072107   -0.6694198888
H    -3.2603163111    1.8633132334   -1.9829856118
H    -1.4987364706    2.3537997025   -2.2168845905
H    -2.5608161747   -1.2025787215   -0.5393192790
H    -2.2611650755   -2.4274443354   -1.5817999335
H    -3.6354268265   -1.6712251904   -1.8055169865
H     1.9080761386   -2.5303670382   -0.2560240972
H     1.7061313172   -3.4444832752   -1.9004255388
H     0.2422978375   -2.6777137278   -0.4638946070
H     4.5133957908   -1.4584482783   -0.1622748429
H     5.8781354209   -1.7425027002   -1.2761184696
H     4.3296043071   -2.5666223159   -1.5671553927
H     4.8363004842    1.5410457517   -0.5742599862
H     4.5413548531    2.3058150408   -2.1482319127
H     6.0390687262    1.4269333326   -1.8327826291
H     4.1355433528   -1.2991113150   -4.4634877798
H     5.7687715081   -0.5165242282   -4.2503317958
H     4.3495346010    0.4280205857   -4.7098382778
H    -1.4739689288    0.5122840523   -4.8703319116
H    -3.0191103170    0.4906498414   -4.6508256864
H    -2.1278624585   -1.0414618632   -4.8021171062
