63
image2
O    -1.5042272572    0.6408702470    2.0560623364
Si    0.0830231713    0.6776829549    2.6239885669
Si   -3.0372479120    0.4473647166    2.7129033836
C     0.2195692299    1.8415453227    4.1250613270
C     0.5918937763   -1.0600919302    3.1727888207
C    -3.4990027532    1.9591355391    3.7117391161
C    -3.0745340104   -1.1141959197    3.7385910600
C     1.1212545414    1.2037651161    1.2353916646
C     2.6310751015    0.9910358573    1.3144185289
C    -4.1926430816    0.2836533849    1.2322665526
C    -5.4147118738   -0.2479149449    1.2806398042
H    -0.1781064101    2.8481405930    3.8844195985
H     1.2620109326    1.9448159080    4.4377641360
H    -0.3544591377    1.4465022244    4.9628710144
H     0.5299358951   -1.7584514270    2.3315476244
H    -0.0671942335   -1.4355957560    3.9645009762
H     1.6239399601   -1.0847810979    3.5439647197
H    -3.5062308979    2.8456612502    3.1207880800
H    -2.8317568762    2.1044873906    4.5637480339
H    -4.5194348109    1.8660653969    4.0896331054
H    -2.6692095599   -1.9656220603    3.1839081997
H    -4.1068738088   -1.3449982178    4.0340124831
H    -2.4887706613   -1.0137869384    4.6599202420
H     0.8635014505    2.0028161064    0.5279547861
H     3.0861215107    0.3049153752    2.0382570948
H     3.3351387168    1.5061809659    0.6556386647
H    -3.8534233128    0.6993901514    0.2782691241
H    -5.8348166354   -0.6693653577    2.1885543133
H    -6.0731226020   -0.3100447697    0.4102692304
Si    1.0479139185   -0.9327236860   -1.5642002454
O    -0.0856967990   -0.4578347729   -2.7308098042
O     2.4258563530   -0.0400267370   -1.9192423334
Si    4.0746277075   -0.2485080999   -2.2049127304
Si   -1.7485377849   -0.1086790962   -2.6330440545
C    -1.9267904615    1.5037405749   -1.7024535322
C    -2.6767151894   -1.5221947125   -1.7440524093
C     1.3649543182   -2.8177326036   -1.6294148202
H     0.5552894558   -0.4879612790   -0.1482625158
C     4.7635838722   -1.6332906601   -1.1366954255
C     4.9230368527    1.3707061887   -1.7768925801
C     4.2790771692   -0.6307606692   -4.0333352056
C    -2.3509970017    0.0495568692   -4.3702100423
H    -1.5883587499    1.4119954271   -0.6628887558
H    -2.9654487809    1.8572907993   -1.7040841933
H    -1.3075148217    2.2718660690   -2.1912247016
H    -2.3560308958   -1.6311892336   -0.7026578548
H    -2.5024194301   -2.4687384244   -2.2498599112
H    -3.7655476859   -1.3435372818   -1.7284423296
H     2.0308774807   -3.1448313827   -0.8035998757
H     1.8163421851   -3.1210247955   -2.5753693599
H     0.4304141409   -3.3936234699   -1.5223422628
H     4.4990488989   -1.4747101144   -0.0828701080
H     5.8609969332   -1.6597451701   -1.1990491998
H     4.3815502442   -2.6160189193   -1.4464520821
H     5.0081158614    1.5252224576   -0.6930915292
H     4.3701889974    2.2188358945   -2.1983069031
H     5.9384272288    1.3792512004   -2.1881819903
H     3.7185587366   -1.5392321700   -4.3130366118
H     5.3325432325   -0.7747920672   -4.3113833814
H     3.8830467135    0.1988932146   -4.6356264967
H    -1.8023539184    0.8361941950   -4.9057133058
H    -3.4202719627    0.3100826795   -4.3892267147
H    -2.2231849629   -0.8785082685   -4.9434724378
