63
image5
O    -1.4280889084    0.6443428976    2.2571923988
Si    0.0381755955    0.4904588877    2.6153819971
Si   -3.0029215667    0.3920131161    2.8196163858
C     0.5175477344    1.8669334981    3.7037098412
C     0.5275792001   -1.1057054396    3.2784311702
C    -3.6796426751    1.5292183581    3.9957888661
C    -3.1673667512   -1.1159564339    3.7396527644
C     0.8375073764    0.7814727971    1.0707706676
C     2.1786136349    0.3054104077    0.8339301082
C    -4.1514627844    0.3381083842    1.3403398790
C    -5.3309345472   -0.1030255460    1.4629860130
H     0.1466361976    2.8184925606    3.3400525595
H     1.6045889668    1.8710593020    3.7503042579
H     0.1265792710    1.6927044923    4.7028200294
H     0.7516351889   -1.8267251968    2.5666652664
H    -0.0856987231   -1.6903258081    3.8836418424
H     1.3877626217   -1.1275042288    3.8815980965
H    -3.7693604336    1.7555772518    3.7265858890
H    -2.8480724880    2.5613360698    4.3650200116
H    -4.2532087278    2.1033339275    4.5253895928
H    -2.6483566275   -1.9888041509    3.7311942041
H    -3.5743554228   -1.8299170892    3.5530683093
H    -3.0160350196   -1.0594919738    4.7349430566
H     0.6883823496    1.7548094237    0.6596586117
H     2.5096854278   -0.5932893548    1.2557470316
H     2.9666956525    1.0605822948    0.6524382330
H    -3.8524690769    0.7946855720    0.4522346491
H    -5.9222850766   -0.4987419388    2.1585561265
H    -6.0096302436   -0.5298174413    0.5811855641
Si    1.1351330719   -0.5272511201   -1.4439643491
O    -0.0267714053   -0.1632918089   -2.4266716843
O     2.5995581163   -0.1785179774   -2.3501938768
Si    4.3385911186   -0.1979861403   -2.3111992020
Si   -1.9919834575    0.0075062965   -2.4266524842
C    -2.1193021101    1.6508956147   -1.7291344434
C    -2.6020094344   -1.4456046377   -1.6869255030
C     1.1548581852   -2.2843179642   -0.9363424621
H     0.2547841805    0.0544064229    0.2272802304
C     4.7760199753   -1.6221713990   -1.2252764808
C     4.9767177046    1.4242500070   -1.6553405112
C     4.6325357243   -0.4218540295   -4.0998363701
C    -2.1558168998   -0.0954684527   -4.3047043601
H    -1.9171358575    1.5806787678   -0.6838562352
H    -3.1719010917    1.8453372669   -1.8995242648
H    -1.5047858540    2.3653971006   -2.2253699453
H    -2.6229295518   -1.1936292380   -0.5635269835
H    -2.2435799790   -2.4012636525   -1.5861508956
H    -3.5510443722   -1.7881598890   -1.9290536165
H     1.9180686178   -2.5243256056   -0.2359118347
H     1.5446213220   -3.2299994469   -1.8707142279
H     0.2384592126   -2.6350358032   -0.5005815811
H     4.5172437554   -1.4605540277   -0.1720200140
H     5.8580995790   -1.7412347583   -1.2890836851
H     4.3084942841   -2.5588503403   -1.5534382960
H     4.8402346867    1.5428743573   -0.5699945425
H     4.5435876793    2.3062549306   -2.1475069448
H     6.0551465475    1.4256550744   -1.8471533667
H     4.0996161281   -1.3139181876   -4.4667252736
H     5.6930346446   -0.5443922191   -4.2565700877
H     4.2759471221    0.4352302144   -4.6886230257
H    -1.4463355085    0.4991483153   -4.8636885810
H    -3.1106708100    0.3055427583   -4.5419126265
H    -2.1385329938   -1.0410532668   -4.8120724313
