63
image6
O    -1.5758191757    0.6511260096    2.6205365742
Si    0.0471900101    0.5037585244    2.6807692995
Si   -3.1163987065    0.3491632342    3.0149803636
C     0.7079369417    1.9801720507    3.5154964300
C     0.6094455680   -1.0735032496    3.4402741025
C    -3.7024456121    1.7394279281    4.2130581954
C    -3.2471678970   -1.2193131716    3.9224011034
C     0.5345220109    0.5668455820    0.9444490488
C     1.8989986607    0.1759628054    0.4896927619
C    -4.0878776431    0.3375565483    1.4648069543
C    -5.4467806725   -0.2867049897    1.3446378662
H     0.3005790012    2.9011425538    3.0770839390
H     1.7975623169    1.9572727786    3.4117198044
H     0.4422831398    1.9361897676    4.5705368877
H     1.1423308842   -1.7212207458    2.7647081222
H    -0.0885255930   -1.8038971158    3.8369036044
H     1.3055352142   -0.9498768658    4.2762925206
H    -4.7320103996    1.9666452335    3.9426863102
H    -3.1624282484    2.5521616027    3.7646991802
H    -3.8403852689    2.3275302519    5.1403634046
H    -2.4349596220   -1.8125628316    4.3008311666
H    -3.8211977947   -2.0189040446    3.4593347209
H    -3.7469480171   -1.1138988834    4.8796849172
H     0.2430444114    1.5459303728    0.5445230888
H     2.3900663154   -0.6206227665    1.0821309168
H     2.5956289814    1.0302215690    0.4379287575
H    -3.7491849159    0.8981330583    0.6020895725
H    -6.1608801542   -0.1797057972    2.1041728451
H    -5.8356843757   -0.8601711399    0.5697364870
Si    1.3614560176   -0.5588566500   -1.3532041296
O    -0.0163861812   -0.1194605665   -2.2976492429
O     2.5900349307   -0.0946548720   -2.3507191454
Si    4.2558733476   -0.1780940282   -2.3107551966
Si   -1.6458756817    0.0022214208   -2.5759365686
C    -2.2015906031    1.6571602018   -1.8884225675
C    -2.5444662207   -1.4521719993   -1.7880696665
C     1.1781633766   -2.4079453541   -1.1310383298
H    -0.1801518758   -0.1502835494    0.4857446395
C     4.8192600666   -1.6271045527   -1.2456835252
C     4.9605004953    1.4266300901   -1.6327131590
C     4.7171427361   -0.4162097481   -4.1090176481
C    -1.9619888341   -0.0902462666   -4.4002491271
H    -2.0446718840    1.7000293890   -0.8039864113
H    -3.2633571693    1.8512645208   -2.0862336721
H    -1.6128860447    2.4651998619   -2.3428428280
H    -3.2743392555   -1.1010512932   -1.1055444744
H    -2.0869041893   -2.1961739050   -1.1730179975
H    -3.1747486511   -2.0758160404   -2.3571195236
H     1.9850130335   -2.7779732737   -0.4866926335
H     1.2053388050   -2.9316245678   -2.0951565908
H     0.2515276804   -2.6951928903   -0.6224727364
H     4.5266673239   -1.4815742368   -0.1960351372
H     5.9127111992   -1.7300254634   -1.2646622793
H     4.3859784994   -2.5771573247   -1.5957683950
H     4.7485047767    1.5333395523   -0.5577677666
H     4.5414425363    2.3030892254   -2.1490204779
H     6.0525186750    1.4547431157   -1.7528784968
H     4.2325430825   -1.3265334028   -4.4965238303
H     5.7997611753   -0.5087673548   -4.2593211544
H     4.3546397923    0.4333982072   -4.7035262418
H    -1.0819647614    0.2711163636   -4.9402518808
H    -2.7944435977    0.5412320582   -4.7152418367
H    -2.1715854093   -1.0760285466   -4.8259673562
