63
image1
O    -1.5908944679    0.6423795364    2.1390247337
Si    0.0470520804    0.7131255830    2.6470449332
Si   -3.1778340859    0.5333301596    2.8908410198
C     0.1919233258    1.9735385002    4.1424044759
C     0.5247312317   -0.8590087017    3.6128357359
C    -3.7090650965    2.0748823138    3.8492829367
C    -3.2874547328   -1.0249093083    3.9616163185
C     1.0114676076    1.1833644465    1.2013479843
C     2.5311722851    1.3406246591    1.4714110810
C    -4.1745785906    0.3345902807    1.3278195056
C    -5.5658304206    0.0055278550    1.2598393084
H    -0.1905678272    2.9709068263    3.8782091580
H     1.1927639938    2.1550380477    4.5610301925
H    -0.3944836704    1.5527981586    4.9819766820
H     0.4816077419   -1.6921082447    2.9187189971
H    -0.1664482081   -1.1387488450    4.4347120768
H     1.5377539529   -0.7678900341    4.0393814567
H    -3.5809104646    2.9587718565    3.2114528769
H    -3.1342123895    2.2114716130    4.7736754986
H    -4.7855911037    2.0103285922    4.1205058649
H    -2.8610869007   -1.8804810647    3.4200925549
H    -4.3333192365   -1.2834329603    4.1820201233
H    -2.7756212220   -0.9085605652    4.9253979749
H     0.4020243054    1.3240603828    0.2743331817
H     3.1555074011    1.3483914497    2.4001733259
H     3.2269283288    1.5630208872    0.7014976626
H    -3.7234589778    0.5216492220    0.3861791657
H    -6.1072209656   -0.1413636444    2.1777265970
H    -6.0603205639   -0.1991868040    0.3509257822
Si    1.2035958298   -1.3863510523   -1.8520628543
O    -0.0283590668   -0.4933563482   -2.7094758719
O     2.4505407880   -0.1818799847   -1.9151483649
Si    4.1283975437   -0.2784709400   -2.2254496392
Si   -1.7134018871   -0.1052147463   -2.6222384530
C    -1.8277196912    1.5165931145   -1.6661169583
C    -2.6423140934   -1.5169026195   -1.7806199498
C     1.3363349908   -3.3497003574   -2.1285576570
H     0.9181441050   -1.7116565174   -0.2693434421
C     5.0215523040   -1.5813939961   -1.1665621385
C     4.8603777161    1.3943461843   -1.8163707530
C     4.3054863935   -0.6310353189   -4.0511431150
C    -2.3263772628    0.1056029219   -4.3840217014
H    -1.3472828162    1.3860225453   -0.6531274779
H    -2.9112160119    1.8711901582   -1.6643845534
H    -1.2130260254    2.2750546095   -2.1982814832
H    -2.2477659272   -1.7065250547   -0.7685006400
H    -2.5124283104   -2.4445506706   -2.3665574626
H    -3.7366481383   -1.2995303268   -1.7713785853
H     2.3416066770   -4.1518934831   -2.5359280083
H     2.0696820479   -3.0473911226   -3.2725310321
H     0.8233698967   -4.0796635150   -3.0870550707
H     4.5984055063   -1.4847383232   -0.1308332476
H     6.1328718984   -1.4208478032   -1.1866785795
H     4.8725519105   -2.6058302401   -1.5547061491
H     4.9285267859    1.5100767433   -0.7249020748
H     4.2333759853    2.1935643342   -2.2492053484
H     5.8930431423    1.4627187322   -2.1884414930
H     3.8040319448   -1.5520540948   -4.3449068259
H     5.3635954785   -0.7153907464   -4.3596897323
H     3.8681554674    0.1809154544   -4.6468568791
H    -1.7824328165    0.8696693863   -4.9227733236
H    -3.3826473435    0.4051613627   -4.2934603491
H    -2.2664908495   -0.8474325485   -4.9197764306
