26
image5
O    -1.2034338901   -0.5310113259    2.0946504727
Si   -0.1946715588    0.5856373523    2.8434676370
Si   -3.0196049694   -0.5469331082    1.9578284199
C     0.7648544369    1.6135821036    1.4459372790
C     1.6261577470    0.8123563484    0.5069947225
H     1.3629921849    2.2402586921    2.1336657804
H     2.0960168141    1.4869870276   -0.2365411844
H     2.4235554585    0.2650456705    1.0388972875
Si    0.7055228607   -0.4256205396   -0.6721955306
O    -0.3830912608    0.5045487392   -1.5110999800
O     1.8604351836   -1.1204459423   -1.6521753716
Si    3.2439603597   -0.7808435412   -2.5528171638
Si   -1.9636818640    0.4324860934   -2.0997016535
H     0.0309325341    2.2386391558    0.9284431143
H    -3.6158904802    0.6136347367    2.6608687638
H    -0.8423791488    1.5530483051    3.7748133313
H    -3.0827244072   -1.8526780131    2.7208231412
H     0.8867674020   -0.2097219542    3.4994770373
H    -1.8398980826    0.7175259888   -3.5614481496
H    -2.5721509196   -0.9144662845   -1.8997703502
H    -2.7818388943    1.4807747541   -1.4225479514
H     3.2511123157    0.6619038731   -2.9515597982
H     4.4619969001   -1.0637090267   -1.7314169413
H     3.2352824994   -1.6541300673   -3.7638995496
H     0.0876356087   -1.5191849943    0.1393449356
H    -3.2433396617   -0.6699658831    0.4907961211
