26
image1
O    -1.2483651437   -0.3257504889    2.1338486574
Si   -0.1422331736    0.7194913883    2.8414277595
Si   -2.8961267491   -0.5789852675    1.9907296751
C     0.8075033532    1.7633034584    1.5816695899
C     1.7905763951    1.0560226179    0.7367015315
H     1.3161230195    2.4940374581    2.2486008577
H     1.9497411275    1.3475958248   -0.3012653226
H     2.4914129451    0.3399932901    1.1643528838
Si    0.3770683656   -1.2786806768   -1.1846038577
O    -0.4637659038    0.1788681330   -1.3403711405
O     1.9708510786   -1.1157200006   -1.6460657613
Si    3.2734354455   -0.7593723981   -2.6284482505
Si   -1.9327074208    0.4799003545   -2.1189966346
H     0.0929276629    2.3366107614    0.9713670738
H    -3.6793851879    0.5628629707    2.5581082431
H    -0.8672449883    1.6430601439    3.7806712711
H    -3.2555169149   -1.8384899454    2.7035057179
H     0.8412525281   -0.0980285887    3.6206342941
H    -1.6766026861    0.8638886626   -3.5382270898
H    -2.7850084159   -0.7382865560   -2.0666051154
H    -2.6046702037    1.6123191498   -1.4163640444
H     3.2401768724    0.6824024606   -3.0227534609
H     4.5175589518   -1.0310747291   -1.8514151138
H     3.2424544580   -1.6456037914   -3.8292853517
H     0.3902177430   -1.6468014944    0.2774315025
H    -3.2362857920   -0.7178842787    0.5427519554
