26
image4
O    -1.2376575339   -0.4909108511    2.1183513201
Si   -0.1709623315    0.5786191271    2.8152244661
Si   -2.9444429563   -0.5770349406    1.9771435395
C     0.7470047869    1.5981535767    1.4557591572
C     1.6440396952    0.8475214354    0.5319636605
H     1.3662649202    2.2367472594    2.1236086284
H     2.0759530719    1.4715762222   -0.2667757567
H     2.4182970259    0.2471851917    1.0300769802
Si    0.6147111330   -0.5227674255   -0.7923600562
O    -0.3904301381    0.6135767806   -1.4810257606
O     1.8983682874   -1.1205857982   -1.6516018500
Si    3.2778651964   -0.7733565782   -2.5670868475
Si   -1.9624645755    0.4389246035   -2.1135927181
H     0.0424586739    2.2494254419    0.9235186990
H    -3.5978246924    0.5933548215    2.6494512203
H    -0.8419871481    1.5368042393    3.7607891045
H    -3.1379816421   -1.8527691499    2.7119238000
H     0.8855656666   -0.2136053819    3.5043027332
H    -1.8450073751    0.7190416090   -3.5724092457
H    -2.5664018014   -0.9065463670   -1.8966531265
H    -2.7804833148    1.4851376533   -1.4266595093
H     3.2513296343    0.6691127805   -2.9597455334
H     4.4821605649   -1.0581946478   -1.7369132296
H     3.2375343463   -1.6564498469   -3.7696735345
H     0.1052753587   -1.5107710093    0.2219249792
H    -3.2526809288   -0.6705759416    0.5144538456
