26
image3
O    -1.2490108797   -0.4831842996    2.1318989143
Si   -0.1553423657    0.5804588203    2.7974097279
Si   -2.9187474984   -0.5954319127    1.9870778038
C     0.7402644339    1.5972705523    1.4649872534
C     1.6688571507    0.8860169719    0.5485316335
H     1.3627949929    2.2518466288    2.1157144943
H     2.0549975203    1.4623511736   -0.2968888463
H     2.4103124786    0.2274004229    1.0114964824
Si    0.4877296809   -0.6915494661   -0.9504626948
O    -0.3889675119    0.6621996745   -1.4470388249
O     1.9535227446   -1.1090414582   -1.6226874737
Si    3.2829044243   -0.7679287330   -2.5700773093
Si   -1.9468222820    0.4502706559   -2.1176904603
H     0.0476811972    2.2552024592    0.9245882756
H    -3.5917292246    0.5812214291    2.6442316353
H    -0.8459035953    1.5226675911    3.7460454325
H    -3.1985550560   -1.8598212621    2.7067719770
H     0.8830332213   -0.2191155922    3.5087313992
H    -1.8458768721    0.7190094581   -3.5802622879
H    -2.5630745722   -0.8949706820   -1.8962238817
H    -2.7801725544    1.4894743237   -1.4355115736
H     3.2569014271    0.6739036735   -2.9741580770
H     4.4973060766   -1.0496717276   -1.7482071365
H     3.2439095749   -1.6529686977   -3.7733752168
H     0.1734143441   -1.4617553298    0.3028437488
H    -3.2583583852   -0.6758286711    0.5318268479
