26
image2
O    -1.2379103078   -0.4845654983    2.1349721087
Si   -0.1391696521    0.5921710930    2.7905085384
Si   -2.9013630618   -0.6112654062    2.0183730659
C     0.7749241204    1.6496219830    1.5207186064
C     1.7478414151    0.9701530774    0.6351733532
H     1.3322219689    2.3323693541    2.2014632531
H     2.0071416834    1.4257299803   -0.3190615400
H     2.4430207554    0.2338052856    1.0402926292
Si    0.3728831511   -0.9756842504   -1.1244643557
O    -0.4116207012    0.5110690823   -1.3583061459
O     1.9575117519   -1.1088013387   -1.6328480222
Si    3.2822095754   -0.7599030425   -2.5880777872
Si   -1.9432860775    0.4630337766   -2.1027734487
H     0.0743893981    2.2782278122    0.9507910308
H    -3.5745267119    0.5595263555    2.6593650066
H    -0.8493391758    1.5087153529    3.7457808665
H    -3.2801504375   -1.8725171948    2.7086073891
H     0.8793534891   -0.2258831388    3.5150042368
H    -1.8227868060    0.7288183364   -3.5687321330
H    -2.5951281494   -0.8679537313   -1.9073202517
H    -2.7675499137    1.5154984874   -1.4405116993
H     3.2554391133    0.6769805689   -3.0012422481
H     4.5025568184   -1.0337203051   -1.7686899190
H     3.2544721181   -1.6473609048   -3.7899048108
H     0.2594133560   -1.4114565481    0.3068077567
H    -3.2677293083   -0.6939371597    0.5745219608
