69
Coordinates from ORCA-job my_molecule_im3 E -2464.489041405164
  Pt          0.67218706195898     -1.23396307453967      0.16526250658694
  O           1.36547747747265     -0.15225168578959      1.70580912013149
  O          -2.16077477577273     -0.97447427511532     -0.26349645294631
  P           2.65913191129476      0.80913628502728      1.69862791159161
  P          -1.76285270770913     -2.22253976852448     -1.04614168309440
  O          -2.05607145439171     -3.60185017323954     -0.16341944776889
  O          -0.19413282179409     -2.28291437973333     -1.38225371121474
  O           2.24398127262841      2.04899393075248      0.67065994577196
  O           4.00391266254550      0.23052401533104      1.30258549159425
  C           2.61154683924916      1.57289555202936      3.39213486110303
  C          -2.65854302426854     -2.53930701162086     -2.63236450920812
  C          -2.08067773855994     -3.79471114025997     -3.31205703610707
  C          -2.47860583524856     -1.29729160949359     -3.52777564178595
  C          -4.14496113163230     -2.74220526428960     -2.27737826579573
  C           1.25257177197873      2.25755328783629      3.62471259420727
  C           2.84523412032381      0.44927835061974      4.42011494089526
  C           3.75918592207032      2.60108304541721      3.45100016137264
  H          -2.27661260585269     -3.31936253717970      0.74240652893420
  H           3.03662711851183      2.26075014627978      0.13911228132179
  H          -1.01010374567307     -3.66147408529416     -3.56335302288090
  H          -2.63474026959661     -3.99356394113497     -4.25422388417227
  H          -2.17690418232550     -4.68770741926208     -2.66327735680999
  H          -1.41136107730929     -1.12437133382545     -3.77087079962426
  H          -2.87095119976415     -0.38428215033919     -3.03778355088405
  H          -3.02933062638431     -1.44537988466893     -4.48075466001258
  H          -4.28374089091837     -3.63258481431230     -1.63324102014408
  H          -4.73420868600211     -2.88821981222910     -3.20671881289597
  H          -4.55451917992467     -1.86138920201941     -1.74323624810215
  H           0.42124503754867      1.52701142709666      3.58551043749004
  H           1.06005181687132      3.03908240250757      2.86294695512133
  H           1.24464780893640      2.74077765531798      4.62494328085870
  H           2.03344081535127     -0.30351354590299      4.38226689413109
  H           2.87233642163086      0.87852271948959      5.44396894320467
  H           3.80871806003499     -0.06842694624664      4.23928527861879
  H           3.60081556091650      3.42449801451441      2.72541237451875
  H           4.73525238964614      2.12553550523873      3.22974296504522
  H           3.80919654205560      3.04857655052213      4.46615397634206
  Si          2.57712179310226     -2.69417799334704     -0.10019186965348
  C           3.78879066114666     -1.92982006368849     -1.31294794591316
  C           3.32393313522122     -2.90690450379415      1.62172321647496
  C           1.86790863604483     -4.34347759479780     -0.69809136868766
  H           4.17147776851248     -0.98592613734204     -0.87656684917730
  H           3.31755369725696     -1.74240999546366     -2.29747317907514
  H           4.64100494211168     -2.62844704716876     -1.45987568642594
  H           2.58127746065032     -3.17799359740785      2.39853276437536
  H           3.84589719864289     -1.97337091504221      1.91028596658210
  H           4.06212680855403     -3.73725861570797      1.56127630977268
  H           1.05509124565424     -4.71123032298738     -0.04008516724510
  H           2.68562879401742     -5.09737567175681     -0.68805203929755
  H           1.45751627493016     -4.25995347324865     -1.72142383501889
  H           0.78301419891706     -0.25695084961746     -0.99344320643271
  C          -0.10214647324897      2.51365783144493     -1.71842683008948
  C          -0.86174117806942      2.51395018155441     -0.60355636082880
  H           0.87662890500468      2.00518079067674     -1.75719216080050
  H          -0.40954280234856      3.02844797312412     -2.64553876801875
  Si         -2.54859340189674      3.36506069865872     -0.43061886625570
  H          -0.45562998877154      1.97616619584917      0.27382184482788
  C          -2.35926224606365      5.19836939567217     -0.89494859844322
  C          -3.13287137358044      3.20463721210705      1.36525764859403
  C          -3.80131939652782      2.53070435469645     -1.58485745633880
  H          -1.63844181729701      5.70337305867058     -0.21928640869027
  H          -3.32655390452493      5.73895582549172     -0.82938813612386
  H          -1.97913769199079      5.30956896859057     -1.93165309621665
  H          -2.39593766283691      3.64175724859478      2.07063647882013
  H          -3.26849224183301      2.13640418678121      1.63349982593022
  H          -4.10201064586752      3.72189050464978      1.52499773771248
  H          -3.46589333117083      2.58375536389395     -2.64121466605715
  H          -4.79987552416518      3.01092390168570     -1.51772519028788
  H          -3.90399049747169      1.46005825626883     -1.31178545340550
