69
Coordinates from ORCA-job my_molecule_im2 E -2464.504401777091
  Pt          0.74234514997380     -1.11993770731028     -0.13648678984622
  O           1.21828656330345      0.01164885063529      1.47282359100866
  O          -1.62517578219833     -1.35615116669649     -0.00396651748753
  P           2.56533753609473      0.88878900219669      1.53736876482416
  P          -1.49178452158933     -2.39607660427900     -1.15341074628037
  O          -1.77125303649166     -3.89258442897488     -0.51178154212190
  O          -0.00479495868810     -2.26000025966507     -1.71224269894513
  O           2.26851850862487      2.19833797062889      0.55519287811398
  O           3.87829008094799      0.24008971433022      1.13709450798312
  C           2.53741501456488      1.59789530675946      3.25746602115150
  C          -2.60636107454401     -2.40921976872469     -2.62333159597069
  C          -2.16847937893273     -3.62497270678032     -3.47441843763249
  C          -2.40126206480600     -1.09984986801458     -3.40795686559984
  C          -4.06719085390615     -2.56436079041132     -2.16462254861269
  C           1.19487118720339      2.30751398640025      3.50971422129685
  C           2.74877161049521      0.44927131589065      4.26176759212512
  C           3.70850680179201      2.59857585612106      3.33978222664443
  H          -1.78607922342483     -3.78967741863188      0.46159645563445
  H           3.08326772648718      2.34819486004926      0.03618063952559
  H          -1.10800705733081     -3.54022073432578     -3.78395612858918
  H          -2.79403889452455     -3.67055955553461     -4.39018881013449
  H          -2.29479803174509     -4.57577339249323     -2.92061254097345
  H          -1.34663567448179     -0.98131068224151     -3.72396607147336
  H          -2.68396777687482     -0.21116142975271     -2.80946740255253
  H          -3.03609230462881     -1.11855968212149     -4.31874153544256
  H          -4.20999434725502     -3.49394294859517     -1.57950024357470
  H          -4.72532925487970     -2.61563900717528     -3.05728606381152
  H          -4.39594373830464     -1.70498143093574     -1.54646571254152
  H           0.34907776284659      1.59412531861303      3.46592848850945
  H           1.01405150347170      3.10292846410900      2.75949308458928
  H           1.20465919787967      2.77699026467175      4.51666099408561
  H           1.92899890790809     -0.29375999292380      4.20565664079372
  H           2.77345057988607      0.85895135755259      5.29414282743871
  H           3.70775100515933     -0.07647094325082      4.08080187566158
  H           3.56880289370124      3.44068628641751      2.63270143717381
  H           4.67354865711421      2.10531708766230      3.10804027817389
  H           3.76893238850630      3.02029199152244      4.36539674681646
  Si          2.51591174129314     -2.75334748474012      0.01918426966763
  C           3.85795577523037     -2.28471426548152     -1.22929354320200
  C           3.20492968182007     -2.81372163340315      1.76891650577805
  C           1.74733574830574     -4.42110129263585     -0.43969288902040
  H           4.33108713080747     -1.33388096526438     -0.91065724776624
  H           3.44335949169821     -2.17136852736755     -2.25148616462757
  H           4.63620143165899     -3.07697826370214     -1.26054169472014
  H           2.42077291138490     -2.97637380278831      2.53368433111064
  H           3.74759589426209     -1.87154573712795      1.97779291135914
  H           3.91785544800649     -3.66643022451644      1.81373063371930
  H           0.91713877629471     -4.70962358738000      0.23417343238934
  H           2.54409850476395     -5.19237190692861     -0.35511048995925
  H           1.35971223741971     -4.41309829060710     -1.47531116239889
  H           2.03738179286854     -0.62461572782228     -0.78887072027714
  C          -0.13588365769974      2.69859020044630     -1.68873860552856
  C          -0.93944952085409      2.51195033723176     -0.62095450617462
  H           0.85343691353462      2.21367800163523     -1.75745657861661
  H          -0.41563179550661      3.35336701587469     -2.53459252517057
  Si         -2.63073356116688      3.32547071365255     -0.38432386726820
  H          -0.55850557724415      1.84754261902421      0.17904963292684
  C          -2.50685721696760      5.15687315596512     -0.86976892488569
  C          -3.13757123413292      3.16287764343736      1.43442823822633
  C          -3.91949760382537      2.46094126402232     -1.48134026779135
  H          -1.77198399900691      5.68112007338142     -0.22465378915556
  H          -3.48353955164038      5.67394784987135     -0.76865179333113
  H          -2.17045108268021      5.27312295300372     -1.92093355679888
  H          -2.38596375964747      3.63148220784187      2.10305484346558
  H          -3.22434032988417      2.09460397979232      1.72268622929441
  H          -4.11608157836738      3.64908324226216      1.62870082779139
  H          -3.62511981243527      2.51203287397222     -2.54999953383826
  H          -4.92133458904664      2.92788969794033     -1.37890073617548
  H          -4.00952371059752      1.39020076568871     -1.20353027898232
