69
Coordinates from ORCA-job my_molecule_im1 E -2464.512390250003
  Pt          0.93474414184350     -1.20138643144345     -0.27927543354790
  O           1.28876114882350      0.04695402567823      1.26827796566830
  O          -1.36098925106139     -1.39642599662075     -0.22465333533158
  P           2.64615992533129      0.91058831271638      1.31698720948556
  P          -1.27669000502610     -2.40394652904933     -1.41119683128313
  O          -1.76298791547126     -3.89940606892001     -0.93139478058108
  O           0.25830860855498     -2.40630583982399     -1.85580714829979
  O           2.41668138922582      2.14719939073868      0.22567583428974
  O           3.95814574327636      0.20938417415187      1.01274709399518
  C           2.56373732367300      1.73828626062713      2.98009428615785
  C          -2.34380355827706     -2.16033964943920     -2.89229608431567
  C          -2.03415971159452     -3.31632329594204     -3.86946021202133
  C          -1.97169740133480     -0.80405889379756     -3.52254350776064
  C          -3.82342654293861     -2.18472528706475     -2.46271126223132
  C           1.22581789410736      2.48143859672374      3.14315100034938
  C           2.72146066667877      0.65045187884335      4.06016978164344
  C           3.74862031449455      2.72352354615758      3.03873061720354
  H          -1.45475208332977     -4.07065849561611     -0.01867752534729
  H           3.24325155537653      2.20593713418737     -0.29361358928548
  H          -0.96187422352881     -3.33286330923654     -4.14842564312427
  H          -2.62962726702440     -3.17817327272076     -4.79580109664490
  H          -2.29566433318132     -4.29958230200950     -3.43271235717336
  H          -0.90842192022469     -0.78149190119467     -3.83176380529430
  H          -2.14840273689955      0.03830293382166     -2.82471034885578
  H          -2.59701222717266     -0.64096627628258     -4.42482073606965
  H          -4.09359178040674     -3.14752143257047     -1.98713389644298
  H          -4.46323353359733     -2.05145067717146     -3.36005686883924
  H          -4.05812158195655     -1.36534254790695     -1.75458913116651
  H           0.36950575167641      1.77951008269137      3.12240710375899
  H           1.07552780125852      3.22963640892545      2.33950427469124
  H           1.21506020261618      3.01444782169569      4.11812630664696
  H           1.88438637539130     -0.07453255142693      4.02807740087491
  H           2.73066567171763      1.12318537775393      5.06524032654996
  H           3.67056960937308      0.09207213034547      3.93516316047876
  H           3.64406030730512      3.52268213962645      2.27798188173299
  H           4.71085530554249      2.20143898555940      2.86586053198177
  H           3.78646286785631      3.20451049669355      4.03891045959428
  Si          2.39729571716784     -3.00325101896060      0.28088391862718
  C           3.68709031365667     -3.14154018829095     -1.09066492990385
  C           3.18288509928609     -2.73335460874703      1.96442201405917
  C           1.30577932728655     -4.55417075359296      0.32767313954666
  H           4.37495593886817     -2.27325101519004     -1.05227241447060
  H           3.20448951382200     -3.17707864860606     -2.08747136047116
  H           4.28582579287217     -4.06713470383796     -0.95738512077142
  H           2.42165512738407     -2.63613212482900      2.76310025380594
  H           3.80702371516875     -1.81820615547477      1.94018725212486
  H           3.81929050633387     -3.61609661188123      2.19105711241419
  H           0.56391798990742     -4.50057533194189      1.15142946787435
  H           1.96189204371343     -5.42694470000820      0.53575466178400
  H           0.78742576329722     -4.72428274734485     -0.63417758393092
  H           2.38553509965357     -0.90705057784679     -0.71562235350020
  C          -0.23933330301547      3.21296919474312     -1.45096445639001
  C          -1.02174681401984      2.65098730339792     -0.50593787500898
  H           0.79980618040297      2.87777075504877     -1.60821096541887
  H          -0.59196830697408      4.04098911292742     -2.09187658749701
  Si         -2.79486160069924      3.16541617152148     -0.11185206965742
  H          -0.57213509226451      1.83396486867965      0.09248750247579
  C          -3.06541607616396      4.96207874629662     -0.65806546659866
  C          -3.07931579812144      2.99397037749483      1.75546487504713
  C          -4.00338459944984      2.01979105094487     -1.02740387629086
  H          -2.36586735972488      5.64192967063993     -0.12959823586664
  H          -4.09954417538073      5.29851436208706     -0.43886686207135
  H          -2.89649658388314      5.08598582034928     -1.74770662177701
  H          -2.37271842017503      3.62552572194784      2.33223313423134
  H          -2.93075285665447      1.94201656873067      2.07625695960705
  H          -4.11069988143688      3.29192244049651      2.03657762454346
  H          -3.87422649033214      2.10670019186709     -2.12599136112752
  H          -5.05933777380272      2.26087700287315     -0.78554890166730
  H          -3.81538952781955      0.96361088780585     -0.74337251520802
