69
Coordinates from ORCA-job my_molecule_im0 E -2464.517687869945
  Pt          1.05499905797101     -1.31229498550724     -0.37534702898551
  O           1.38030105797102      0.07625001449275      1.05546897101449
  O          -1.24102094202898     -1.26970198550724     -0.55748302898551
  P           2.75491005797101      0.91195101449275      0.97361397101449
  P          -1.14389894202898     -2.29515198550725     -1.72761602898551
  O          -1.98767994202898     -3.66434298550725     -1.39888702898551
  O           0.41347905797101     -2.61670898550725     -1.88656402898551
  O           2.52970205797101      1.97299801449276     -0.29431302898551
  O           4.04631805797101      0.13928301449275      0.77451497101449
  C           2.70762005797101      1.98244901449276      2.49146497101449
  C          -1.85399794202898     -1.78749598550724     -3.34909602898551
  C          -1.53476994202898     -2.89060998550725     -4.37935402898551
  C          -1.17197394202898     -0.45981698550725     -3.73933802898551
  C          -3.37553794202899     -1.59683698550724     -3.19523302898551
  C           1.41592505797102      2.81749901449275      2.52600797101449
  C           2.79438105797101      1.06022501449276      3.72304597101449
  C           3.94799005797101      2.89563501449275      2.41852497101449
  H          -1.90518894202898     -3.87894998550725     -0.44696102898551
  H           3.33273005797101      1.90846001449276     -0.84885902898551
  H          -0.44269394202899     -3.05150898550725     -4.47417402898551
  H          -1.92762094202898     -2.58566798550725     -5.37190402898551
  H          -2.00726094202898     -3.85442298550725     -4.10505302898551
  H          -0.07459494202898     -0.58032398550725     -3.83789702898551
  H          -1.36895294202898      0.33867401449275     -2.99624902898551
  H          -1.56697894202898     -0.12186398550725     -4.71987402898551
  H          -3.87619494202899     -2.54124498550725     -2.90636802898551
  H          -3.79958094202899     -1.26240998550724     -4.16518302898551
  H          -3.61550894202899     -0.82691098550725     -2.43553702898551
  H           0.51804805797101      2.17334201449275      2.59803597101449
  H           1.30991205797102      3.44552001449275      1.61988397101449
  H           1.43344605797102      3.48798501449275      3.41185897101449
  H           1.90847305797102      0.39858701449275      3.79257097101449
  H           2.83645505797101      1.67721101449276      4.64572897101449
  H           3.70254605797101      0.42566101449275      3.69205297101449
  H           3.89805005797101      3.57173701449275      1.54139397101449
  H           4.87908005797101      2.29930601449275      2.34535597101449
  H           4.00252405797101      3.52438501449275      3.33216497101449
  Si          2.00961405797102     -3.19728298550725      0.70029497101449
  C           3.08173905797101     -4.11252498550725     -0.55302502898551
  C           2.98733005797101     -2.65458998550725      2.20890397101449
  C           0.50799805797101     -4.25701598550725      1.18008297101449
  H           4.00121905797101     -3.54044398550725     -0.78831902898551
  H           2.51733605797101     -4.28599298550725     -1.49026602898551
  H           3.38338005797101     -5.09581998550725     -0.13272702898551
  H           2.33080705797101     -2.20242298550725      2.97778397101449
  H           3.74401805797101     -1.90098298550724      1.90851897101449
  H           3.49338705797101     -3.54065798550725      2.64872797101449
  H          -0.21800494202899     -3.68566498550725      1.79310697101449
  H           0.85509805797101     -5.12435498550725      1.78212397101449
  H           0.00678005797102     -4.65013798550725      0.27285297101449
  H           2.58378205797101     -1.28017098550724     -0.61436002898551
  C          -0.60331994202899      3.57221001449275     -1.07825702898551
  C          -1.18980794202898      2.63934701449275     -0.29840602898551
  H           0.44397405797101      3.46568001449275     -1.41275902898551
  H          -1.13449794202898      4.48533801449275     -1.40306002898551
  Si         -2.94293694202899      2.69751101449275      0.39929297101449
  H          -0.57419194202899      1.76172001449276     -0.01717602898551
  C          -3.78473294202899      4.33268901449275     -0.06670002898551
  C          -2.83692594202899      2.53641001449275      2.28876697101449
  C          -3.92792494202899      1.22819601449276     -0.28974102898551
  H          -3.22867094202899      5.20240701449275      0.34013397101449
  H          -4.81739794202898      4.37380801449275      0.33764297101449
  H          -3.85068994202899      4.45586001449275     -1.16759002898551
  H          -2.26836894202899      3.37980401449275      2.73189397101449
  H          -2.32061894202899      1.59546901449276      2.57151197101449
  H          -3.84594194202899      2.52165101449275      2.75126797101449
  H          -4.12764694202899      1.36536401449276     -1.37283702898551
  H          -4.90407194202898      1.11115801449276      0.22545597101449
  H          -3.34414594202899      0.29254801449275     -0.16353802898551
