69
Coordinates from ORCA-job my_molecule_im4 E -2464.472177160777
  Pt          0.82657180717242     -1.28794080947796      0.21089425858127
  O           1.42696542943754     -0.22834552306742      1.78507658628508
  O          -2.00826943113957     -0.73773698718646     -0.61930388115940
  P           2.67023266158528      0.78221408319747      1.73392685824070
  P          -1.60139596927339     -2.21982229292261     -1.17446508071048
  O          -2.14527215854100     -3.29251309697878     -0.08429889656874
  O          -0.08321124778226     -2.25827327338814     -1.46513467505432
  O           2.20536084688039      2.02761805890795      0.72415959241731
  O           4.03241980849565      0.25911241247824      1.31969510138382
  C           2.62596981717704      1.56159348862586      3.42201411177670
  C          -2.61772243583180     -2.57322667215860     -2.66473960253304
  C          -2.05288810544063     -3.84144332140105     -3.33792385517983
  C          -2.46967747765361     -1.34485521495465     -3.58779343092429
  C          -4.09114164366086     -2.76867996854323     -2.25552977369036
  C           1.26516186291791      2.24195114226206      3.65721513742778
  C           2.86560109691545      0.44679269514910      4.45774104157955
  C           3.76782622188665      2.59477250626606      3.47118916448913
  H          -1.70420364017566     -3.17795838847854      0.78534522366706
  H           2.94857879358372      2.17411531669805      0.10629901432724
  H          -0.98787140593609     -3.71477374110698     -3.61378405337975
  H          -2.62791332590357     -4.04825358376367     -4.26445107056043
  H          -2.13921604523613     -4.72792520449317     -2.67887591422935
  H          -1.40967766003256     -1.15389775014380     -3.84916460002671
  H          -2.88250345002696     -0.43268739696259     -3.11418295397110
  H          -3.02818085046269     -1.52819915245402     -4.52778098116430
  H          -4.22249579067264     -3.65177932133294     -1.60174998991004
  H          -4.69950706315468     -2.91958410439012     -3.17126616116988
  H          -4.49094486374717     -1.88069385864753     -1.72650733368209
  H           0.43654465070182      1.50802539585155      3.61388457773716
  H           1.07318215856771      3.02656187140009      2.89826429856767
  H           1.25267197258214      2.72190011871177      4.65943812243392
  H           2.05728974151212     -0.30954106525460      4.42363238859160
  H           2.89681045499572      0.88201354434856      5.47933658092459
  H           3.82911104039992     -0.06993400878157      4.27409671817970
  H           3.60464267580396      3.40870497626398      2.73602006734776
  H           4.74312109619109      2.11904856894717      3.24744010289944
  H           3.82108384532794      3.05175068855518      4.48214183007043
  Si          2.61495226441892     -2.74777179799208     -0.06833940496160
  C           3.79835488710233     -1.94706084446074     -1.30636152404246
  C           3.41604497127275     -2.97598362175579      1.62284928915315
  C           1.91773303558055     -4.39181707555523     -0.71387749086956
  H           4.16969627035795     -1.00047376514762     -0.86405797091648
  H           3.30043667634629     -1.73696684117632     -2.27402863625003
  H           4.66524358566462     -2.61641430213631     -1.49581390898717
  H           2.66171144678640     -3.24002291102540      2.39019591156206
  H           3.90748261086126     -2.02337250318528      1.90511916595714
  H           4.17448817859477     -3.78581581574888      1.57581262967307
  H           1.11056585293891     -4.76234872043267     -0.04983889455685
  H           2.72127802378326     -5.15763751281809     -0.74124640731024
  H           1.49597148616000     -4.27301441950056     -1.73031165510223
  H          -1.20022560871506     -0.15779083444736     -0.70091628702073
  C          -0.20943636987395      2.34563410065542     -1.70926257972075
  C          -0.84074597521216      2.60220904937240     -0.57110096122155
  H           0.28476239519274      1.53143265187523     -2.03694418645597
  H          -0.08620015514107      2.91468318756913     -2.52859995516061
  Si         -2.51579047149506      3.47097847423755     -0.41519310975720
  H          -0.41363451488970      2.17241770026126      0.32631639755576
  C          -2.37001209853543      5.29211627123644     -0.88146496181244
  C          -3.14459024916097      3.27669451944524      1.36290233988931
  C          -3.73760932385910      2.60191507301448     -1.59580797959427
  H          -1.66750809613218      5.81086040285377     -0.19837103626017
  H          -3.35013896098934      5.80664043592251     -0.82729280271927
  H          -1.98142817102549      5.39837051209762     -1.91482145858769
  H          -2.42738115979020      3.71403222585701      2.08700183090699
  H          -3.27557483873441      2.20587514442368      1.62077143152590
  H          -4.12348755420480      3.77879907451130      1.51137580659863
  H          -3.37855279526371      2.64033287210567     -2.64524986174239
  H          -4.73923960392107      3.08101836604827     -1.56419922086214
  H          -3.86421915558025      1.53437077212070     -1.32010303192398
