69
Coordinates from ORCA-job my_molecule_im6 E -2464.530169211564
  Pt          0.48619766484755     -0.75337919619828      0.14456328616618
  O           1.39034464969087      0.17994794906420      1.69091505769622
  O          -2.84281759010023     -0.90077876659396     -0.29107476136912
  P           2.69969625317793      1.09382737085986      1.75741952785434
  P          -2.02680289147518     -1.95515472406796     -1.03355263818616
  O          -1.84479703034023     -3.30991133112323     -0.09177478938126
  O          -0.53834405763091     -1.56018275681666     -1.44809294760004
  O           2.35447090596961      2.48580977444212      0.88260067084843
  O           4.03599001689438      0.55189871930881      1.28671854348616
  C           2.64967414926101      1.65170260242310      3.52241664662422
  C          -2.80994234263842     -2.60916959323823     -2.58130051310432
  C          -2.02987736007952     -3.83861841283117     -3.07949443612015
  C          -2.79295166945675     -1.49376842156349     -3.64463402634290
  C          -4.25780660709661     -2.97808351609230     -2.20804376055338
  C           1.26931257007728      2.25812047919562      3.82932422078851
  C           2.91006566641732      0.42000249822981      4.40828196813839
  C           3.76938485057222      2.69169938651953      3.69964967754824
  H          -2.00041412616351     -3.04845254519356      0.83537253729002
  H           3.17099574076741      2.68613986433745      0.37997205093441
  H          -0.98960684136256     -3.57100725966692     -3.34977615465549
  H          -2.52079097444940     -4.25625607647081     -3.98361083632208
  H          -1.99166617612633     -4.63249302320256     -2.30891663171483
  H          -1.75704363543400     -1.23326203668190     -3.93805845706962
  H          -3.29411645174405     -0.57423408321485     -3.28230171171644
  H          -3.33195085100730     -1.83824767596116     -4.55274107328798
  H          -4.27623646772413     -3.78925499065797     -1.45383991841374
  H          -4.80748361381972     -3.32484836239420     -3.10797318795438
  H          -4.78572767377451     -2.10217792771425     -1.78289211327162
  H           0.46824468876463      1.50340381509729      3.70645224802698
  H           1.04715359222311      3.11185297554591      3.15801517008964
  H           1.24635915243724      2.62627718300132      4.87643319539443
  H           2.11380440223914     -0.33999404202447      4.28368496281914
  H           2.93155714805734      0.72999191341081      5.47392385920104
  H           3.88305541215675     -0.05212377025851      4.16626171700487
  H           3.59157020467170      3.57867821127220      3.05940982959305
  H           4.75396766696853      2.25998800755793      3.43087583927453
  H           3.81001297977668      3.02961717837197      4.75612022646011
  Si          2.33039741311822     -2.11285880666508     -0.41645684522371
  C           3.59499211883343     -1.31028804556494     -1.53872355303367
  C           3.15185258098474     -2.54310497965493      1.21476839792836
  C           1.62828786103192     -3.68291810320713     -1.16388731902939
  H           4.05946560572150     -0.44627566051846     -1.02551694850428
  H           3.20024264746275     -1.03653102696607     -2.53464580371024
  H           4.37628720949902     -2.09018928869712     -1.67243618001780
  H           2.42367929585957     -2.91215000809000      1.96093144763281
  H           3.69856966963594     -1.66086905075353      1.60034270694729
  H           3.87063682675417     -3.35499514205059      0.97433348598030
  H           0.88959643075925     -4.13796760637774     -0.47631651602362
  H           2.50558001232706     -4.35518484176514     -1.26118401275875
  H           1.14524728050964     -3.53919258398534     -2.14733187252434
  H          -1.78324698288171      0.68897783537692      0.12548859860574
  C           0.11082609531292      1.02178569365150     -0.91705869985063
  C          -0.96629882926141      1.49374984062914     -0.02535313100589
  H          -0.14921103272397      0.67928605292808     -1.93790737057362
  H           1.08932642516276      1.52282781319519     -0.82458969511744
  Si         -2.18202812895500      2.85697026755594     -0.55090439437476
  H          -0.52960187051156      1.86052982320044      0.92556517658671
  C          -1.33632051895695      4.47392059602239     -0.95495684801181
  C          -3.15255455120255      3.09827940765858      1.03282004112060
  C          -3.31942228053859      2.29716164085571     -1.93757679835061
  H          -0.60878827431796      4.74874473828993     -0.16627579641214
  H          -2.12889599663397      5.24809373667115     -0.97694316552655
  H          -0.83248060804819      4.44562655533275     -1.93880659618616
  H          -2.48181344188602      3.44385044209316      1.84539797942129
  H          -3.62158540763188      2.14176735333951      1.33115590067471
  H          -3.93795526829279      3.86070130008115      0.87835606891755
  H          -2.84026521387103      2.28168466384119     -2.93636936798002
  H          -4.15151655827047      3.02914758943743     -1.96743367386411
  H          -3.73648386353617      1.29186037746442     -1.72881849391121
