69
Coordinates from ORCA-job my_molecule_MEP E -2464.517687869945
  Pt      1.054999     -1.312295     -0.375347
  O       1.380301      0.076250      1.055469
  O      -1.241021     -1.269702     -0.557483
  P       2.754910      0.911951      0.973614
  P      -1.143899     -2.295152     -1.727616
  O      -1.987680     -3.664343     -1.398887
  O       0.413479     -2.616709     -1.886564
  O       2.529702      1.972998     -0.294313
  O       4.046318      0.139283      0.774515
  C       2.707620      1.982449      2.491465
  C      -1.853998     -1.787496     -3.349096
  C      -1.534770     -2.890610     -4.379354
  C      -1.171974     -0.459817     -3.739338
  C      -3.375538     -1.596837     -3.195233
  C       1.415925      2.817499      2.526008
  C       2.794381      1.060225      3.723046
  C       3.947990      2.895635      2.418525
  H      -1.905189     -3.878950     -0.446961
  H       3.332730      1.908460     -0.848859
  H      -0.442694     -3.051509     -4.474174
  H      -1.927621     -2.585668     -5.371904
  H      -2.007261     -3.854423     -4.105053
  H      -0.074595     -0.580324     -3.837897
  H      -1.368953      0.338674     -2.996249
  H      -1.566979     -0.121864     -4.719874
  H      -3.876195     -2.541245     -2.906368
  H      -3.799581     -1.262410     -4.165183
  H      -3.615509     -0.826911     -2.435537
  H       0.518048      2.173342      2.598036
  H       1.309912      3.445520      1.619884
  H       1.433446      3.487985      3.411859
  H       1.908473      0.398587      3.792571
  H       2.836455      1.677211      4.645729
  H       3.702546      0.425661      3.692053
  H       3.898050      3.571737      1.541394
  H       4.879080      2.299306      2.345356
  H       4.002524      3.524385      3.332165
  Si      2.009614     -3.197283      0.700295
  C       3.081739     -4.112525     -0.553025
  C       2.987330     -2.654590      2.208904
  C       0.507998     -4.257016      1.180083
  H       4.001219     -3.540444     -0.788319
  H       2.517336     -4.285993     -1.490266
  H       3.383380     -5.095820     -0.132727
  H       2.330807     -2.202423      2.977784
  H       3.744018     -1.900983      1.908519
  H       3.493387     -3.540658      2.648728
  H      -0.218005     -3.685665      1.793107
  H       0.855098     -5.124355      1.782124
  H       0.006780     -4.650138      0.272853
  H       2.583782     -1.280171     -0.614360
  C      -0.603320      3.572210     -1.078257
  C      -1.189808      2.639347     -0.298406
  H       0.443974      3.465680     -1.412759
  H      -1.134498      4.485338     -1.403060
  Si     -2.942937      2.697511      0.399293
  H      -0.574192      1.761720     -0.017176
  C      -3.784733      4.332689     -0.066700
  C      -2.836926      2.536410      2.288767
  C      -3.927925      1.228196     -0.289741
  H      -3.228671      5.202407      0.340134
  H      -4.817398      4.373808      0.337643
  H      -3.850690      4.455860     -1.167590
  H      -2.268369      3.379804      2.731894
  H      -2.320619      1.595469      2.571512
  H      -3.845942      2.521651      2.751268
  H      -4.127647      1.365364     -1.372837
  H      -4.904072      1.111158      0.225456
  H      -3.344146      0.292548     -0.163538
69
Coordinates from ORCA-job my_molecule_MEP E -2464.512390250003
  Pt      0.934744     -1.201386     -0.279275
  O       1.288761      0.046954      1.268278
  O      -1.360989     -1.396426     -0.224653
  P       2.646160      0.910588      1.316987
  P      -1.276690     -2.403947     -1.411197
  O      -1.762988     -3.899406     -0.931395
  O       0.258309     -2.406306     -1.855807
  O       2.416681      2.147199      0.225676
  O       3.958146      0.209384      1.012747
  C       2.563737      1.738286      2.980094
  C      -2.343804     -2.160340     -2.892296
  C      -2.034160     -3.316323     -3.869460
  C      -1.971697     -0.804059     -3.522544
  C      -3.823427     -2.184725     -2.462711
  C       1.225818      2.481439      3.143151
  C       2.721461      0.650452      4.060170
  C       3.748620      2.723524      3.038731
  H      -1.454752     -4.070658     -0.018678
  H       3.243252      2.205937     -0.293614
  H      -0.961874     -3.332863     -4.148426
  H      -2.629627     -3.178173     -4.795801
  H      -2.295664     -4.299582     -3.432712
  H      -0.908422     -0.781492     -3.831764
  H      -2.148403      0.038303     -2.824710
  H      -2.597012     -0.640966     -4.424821
  H      -4.093592     -3.147521     -1.987134
  H      -4.463234     -2.051451     -3.360057
  H      -4.058122     -1.365343     -1.754589
  H       0.369506      1.779510      3.122407
  H       1.075528      3.229636      2.339504
  H       1.215060      3.014448      4.118126
  H       1.884386     -0.074533      4.028077
  H       2.730666      1.123185      5.065240
  H       3.670570      0.092072      3.935163
  H       3.644060      3.522682      2.277982
  H       4.710855      2.201439      2.865861
  H       3.786463      3.204510      4.038910
  Si      2.397296     -3.003251      0.280884
  C       3.687090     -3.141540     -1.090665
  C       3.182885     -2.733355      1.964422
  C       1.305779     -4.554171      0.327673
  H       4.374956     -2.273251     -1.052272
  H       3.204490     -3.177079     -2.087471
  H       4.285826     -4.067135     -0.957385
  H       2.421655     -2.636132      2.763100
  H       3.807024     -1.818206      1.940187
  H       3.819291     -3.616097      2.191057
  H       0.563918     -4.500575      1.151429
  H       1.961892     -5.426945      0.535755
  H       0.787426     -4.724283     -0.634178
  H       2.385535     -0.907051     -0.715622
  C      -0.239333      3.212969     -1.450964
  C      -1.021747      2.650987     -0.505938
  H       0.799806      2.877771     -1.608211
  H      -0.591968      4.040989     -2.091877
  Si     -2.794862      3.165416     -0.111852
  H      -0.572135      1.833965      0.092488
  C      -3.065416      4.962079     -0.658065
  C      -3.079316      2.993970      1.755465
  C      -4.003385      2.019791     -1.027404
  H      -2.365867      5.641930     -0.129598
  H      -4.099544      5.298514     -0.438867
  H      -2.896497      5.085986     -1.747707
  H      -2.372718      3.625526      2.332233
  H      -2.930753      1.942017      2.076257
  H      -4.110700      3.291922      2.036578
  H      -3.874226      2.106700     -2.125991
  H      -5.059338      2.260877     -0.785549
  H      -3.815390      0.963611     -0.743373
69
Coordinates from ORCA-job my_molecule_MEP E -2464.504401777091
  Pt      0.742345     -1.119938     -0.136487
  O       1.218287      0.011649      1.472824
  O      -1.625176     -1.356151     -0.003967
  P       2.565338      0.888789      1.537369
  P      -1.491785     -2.396077     -1.153411
  O      -1.771253     -3.892584     -0.511782
  O      -0.004795     -2.260000     -1.712243
  O       2.268519      2.198338      0.555193
  O       3.878290      0.240090      1.137095
  C       2.537415      1.597895      3.257466
  C      -2.606361     -2.409220     -2.623332
  C      -2.168479     -3.624973     -3.474418
  C      -2.401262     -1.099850     -3.407957
  C      -4.067191     -2.564361     -2.164623
  C       1.194871      2.307514      3.509714
  C       2.748772      0.449271      4.261768
  C       3.708507      2.598576      3.339782
  H      -1.786079     -3.789677      0.461596
  H       3.083268      2.348195      0.036181
  H      -1.108007     -3.540221     -3.783956
  H      -2.794039     -3.670560     -4.390189
  H      -2.294798     -4.575773     -2.920613
  H      -1.346636     -0.981311     -3.723966
  H      -2.683968     -0.211161     -2.809467
  H      -3.036092     -1.118560     -4.318742
  H      -4.209994     -3.493943     -1.579500
  H      -4.725329     -2.615639     -3.057286
  H      -4.395944     -1.704981     -1.546466
  H       0.349078      1.594125      3.465928
  H       1.014052      3.102928      2.759493
  H       1.204659      2.776990      4.516661
  H       1.928999     -0.293760      4.205657
  H       2.773451      0.858951      5.294143
  H       3.707751     -0.076471      4.080802
  H       3.568803      3.440686      2.632701
  H       4.673549      2.105317      3.108040
  H       3.768932      3.020292      4.365397
  Si      2.515912     -2.753347      0.019184
  C       3.857956     -2.284714     -1.229294
  C       3.204930     -2.813722      1.768917
  C       1.747336     -4.421101     -0.439693
  H       4.331087     -1.333881     -0.910657
  H       3.443359     -2.171369     -2.251486
  H       4.636201     -3.076978     -1.260542
  H       2.420773     -2.976374      2.533684
  H       3.747596     -1.871546      1.977793
  H       3.917855     -3.666430      1.813731
  H       0.917139     -4.709624      0.234173
  H       2.544099     -5.192372     -0.355110
  H       1.359712     -4.413098     -1.475311
  H       2.037382     -0.624616     -0.788871
  C      -0.135884      2.698590     -1.688739
  C      -0.939450      2.511950     -0.620955
  H       0.853437      2.213678     -1.757457
  H      -0.415632      3.353367     -2.534593
  Si     -2.630734      3.325471     -0.384324
  H      -0.558506      1.847543      0.179050
  C      -2.506857      5.156873     -0.869769
  C      -3.137571      3.162878      1.434428
  C      -3.919498      2.460941     -1.481340
  H      -1.771984      5.681120     -0.224654
  H      -3.483540      5.673948     -0.768652
  H      -2.170451      5.273123     -1.920934
  H      -2.385964      3.631482      2.103055
  H      -3.224340      2.094604      1.722686
  H      -4.116082      3.649083      1.628701
  H      -3.625120      2.512033     -2.550000
  H      -4.921335      2.927890     -1.378901
  H      -4.009524      1.390201     -1.203530
69
Coordinates from ORCA-job my_molecule_MEP E -2464.489041405164
  Pt      0.672187     -1.233963      0.165263
  O       1.365477     -0.152252      1.705809
  O      -2.160775     -0.974474     -0.263496
  P       2.659132      0.809136      1.698628
  P      -1.762853     -2.222540     -1.046142
  O      -2.056071     -3.601850     -0.163419
  O      -0.194133     -2.282914     -1.382254
  O       2.243981      2.048994      0.670660
  O       4.003913      0.230524      1.302585
  C       2.611547      1.572896      3.392135
  C      -2.658543     -2.539307     -2.632365
  C      -2.080678     -3.794711     -3.312057
  C      -2.478606     -1.297292     -3.527776
  C      -4.144961     -2.742205     -2.277378
  C       1.252572      2.257553      3.624713
  C       2.845234      0.449278      4.420115
  C       3.759186      2.601083      3.451000
  H      -2.276613     -3.319363      0.742407
  H       3.036627      2.260750      0.139112
  H      -1.010104     -3.661474     -3.563353
  H      -2.634740     -3.993564     -4.254224
  H      -2.176904     -4.687707     -2.663277
  H      -1.411361     -1.124371     -3.770871
  H      -2.870951     -0.384282     -3.037784
  H      -3.029331     -1.445380     -4.480755
  H      -4.283741     -3.632585     -1.633241
  H      -4.734209     -2.888220     -3.206719
  H      -4.554519     -1.861389     -1.743236
  H       0.421245      1.527011      3.585510
  H       1.060052      3.039082      2.862947
  H       1.244648      2.740778      4.624943
  H       2.033441     -0.303514      4.382267
  H       2.872336      0.878523      5.443969
  H       3.808718     -0.068427      4.239285
  H       3.600816      3.424498      2.725412
  H       4.735252      2.125536      3.229743
  H       3.809197      3.048577      4.466154
  Si      2.577122     -2.694178     -0.100192
  C       3.788791     -1.929820     -1.312948
  C       3.323933     -2.906905      1.621723
  C       1.867909     -4.343478     -0.698091
  H       4.171478     -0.985926     -0.876567
  H       3.317554     -1.742410     -2.297473
  H       4.641005     -2.628447     -1.459876
  H       2.581277     -3.177994      2.398533
  H       3.845897     -1.973371      1.910286
  H       4.062127     -3.737259      1.561276
  H       1.055091     -4.711230     -0.040085
  H       2.685629     -5.097376     -0.688052
  H       1.457516     -4.259953     -1.721424
  H       0.783014     -0.256951     -0.993443
  C      -0.102146      2.513658     -1.718427
  C      -0.861741      2.513950     -0.603556
  H       0.876629      2.005181     -1.757192
  H      -0.409543      3.028448     -2.645539
  Si     -2.548593      3.365061     -0.430619
  H      -0.455630      1.976166      0.273822
  C      -2.359262      5.198369     -0.894949
  C      -3.132871      3.204637      1.365258
  C      -3.801319      2.530704     -1.584857
  H      -1.638442      5.703373     -0.219286
  H      -3.326554      5.738956     -0.829388
  H      -1.979138      5.309569     -1.931653
  H      -2.395938      3.641757      2.070636
  H      -3.268492      2.136404      1.633500
  H      -4.102011      3.721891      1.524998
  H      -3.465893      2.583755     -2.641215
  H      -4.799876      3.010924     -1.517725
  H      -3.903990      1.460058     -1.311785
69
Coordinates from ORCA-job my_molecule_MEP E -2464.472177160777
  Pt      0.826572     -1.287941      0.210894
  O       1.426965     -0.228346      1.785077
  O      -2.008269     -0.737737     -0.619304
  P       2.670233      0.782214      1.733927
  P      -1.601396     -2.219822     -1.174465
  O      -2.145272     -3.292513     -0.084299
  O      -0.083211     -2.258273     -1.465135
  O       2.205361      2.027618      0.724160
  O       4.032420      0.259112      1.319695
  C       2.625970      1.561593      3.422014
  C      -2.617722     -2.573227     -2.664740
  C      -2.052888     -3.841443     -3.337924
  C      -2.469677     -1.344855     -3.587793
  C      -4.091142     -2.768680     -2.255530
  C       1.265162      2.241951      3.657215
  C       2.865601      0.446793      4.457741
  C       3.767826      2.594773      3.471189
  H      -1.704204     -3.177958      0.785345
  H       2.948579      2.174115      0.106299
  H      -0.987871     -3.714774     -3.613784
  H      -2.627913     -4.048254     -4.264451
  H      -2.139216     -4.727925     -2.678876
  H      -1.409678     -1.153898     -3.849165
  H      -2.882503     -0.432687     -3.114183
  H      -3.028181     -1.528199     -4.527781
  H      -4.222496     -3.651779     -1.601750
  H      -4.699507     -2.919584     -3.171266
  H      -4.490945     -1.880694     -1.726507
  H       0.436545      1.508025      3.613885
  H       1.073182      3.026562      2.898264
  H       1.252672      2.721900      4.659438
  H       2.057290     -0.309541      4.423632
  H       2.896810      0.882014      5.479337
  H       3.829111     -0.069934      4.274097
  H       3.604643      3.408705      2.736020
  H       4.743121      2.119049      3.247440
  H       3.821084      3.051751      4.482142
  Si      2.614952     -2.747772     -0.068339
  C       3.798355     -1.947061     -1.306362
  C       3.416045     -2.975984      1.622849
  C       1.917733     -4.391817     -0.713877
  H       4.169696     -1.000474     -0.864058
  H       3.300437     -1.736967     -2.274029
  H       4.665244     -2.616414     -1.495814
  H       2.661711     -3.240023      2.390196
  H       3.907483     -2.023373      1.905119
  H       4.174488     -3.785816      1.575813
  H       1.110566     -4.762349     -0.049839
  H       2.721278     -5.157638     -0.741246
  H       1.495971     -4.273014     -1.730312
  H      -1.200226     -0.157791     -0.700916
  C      -0.209436      2.345634     -1.709263
  C      -0.840746      2.602209     -0.571101
  H       0.284762      1.531433     -2.036944
  H      -0.086200      2.914683     -2.528600
  Si     -2.515790      3.470978     -0.415193
  H      -0.413635      2.172418      0.326316
  C      -2.370012      5.292116     -0.881465
  C      -3.144590      3.276695      1.362902
  C      -3.737609      2.601915     -1.595808
  H      -1.667508      5.810860     -0.198371
  H      -3.350139      5.806640     -0.827293
  H      -1.981428      5.398371     -1.914821
  H      -2.427381      3.714032      2.087002
  H      -3.275575      2.205875      1.620771
  H      -4.123488      3.778799      1.511376
  H      -3.378553      2.640333     -2.645250
  H      -4.739240      3.081018     -1.564199
  H      -3.864219      1.534371     -1.320103
69
Coordinates from ORCA-job my_molecule_MEP E -2464.448726123537
  Pt      0.755736     -1.145632      0.186204
  O       1.417730     -0.121868      1.764803
  O      -2.223846     -0.733628     -0.534668
  P       2.673839      0.859057      1.742237
  P      -1.680170     -2.145810     -1.150281
  O      -2.095810     -3.303371     -0.092200
  O      -0.172871     -2.069024     -1.476837
  O       2.250012      2.160117      0.762654
  O       4.031865      0.341095      1.309056
  C       2.632913      1.587876      3.448637
  C      -2.660054     -2.584355     -2.647903
  C      -2.041312     -3.847788     -3.281390
  C      -2.544986     -1.384763     -3.609290
  C      -4.127867     -2.825013     -2.249055
  C       1.267259      2.249855      3.703364
  C       2.876626      0.442028      4.448128
  C       3.770089      2.621717      3.529747
  H      -1.739675     -3.135336      0.803207
  H       3.016594      2.296770      0.172199
  H      -0.981594     -3.686558     -3.557625
  H      -2.600562     -4.103805     -4.205489
  H      -2.097801     -4.716272     -2.597462
  H      -1.490131     -1.178351     -3.877355
  H      -2.981249     -0.470852     -3.161376
  H      -3.100992     -1.609466     -4.541977
  H      -4.231039     -3.693413     -1.571221
  H      -4.724331     -3.023501     -3.163213
  H      -4.559404     -1.938073     -1.745151
  H       0.445318      1.510334      3.638598
  H       1.068624      3.053935      2.966948
  H       1.252091      2.702482      4.717551
  H       2.071004     -0.315528      4.390938
  H       2.905446      0.847254      5.481711
  H       3.842463     -0.064352      4.249670
  H       3.604118      3.453765      2.816434
  H       4.746809      2.154630      3.294404
  H       3.820472      3.049643      4.552964
  Si      2.538180     -2.587340     -0.149586
  C       3.747150     -1.789623     -1.364310
  C       3.351600     -2.867006      1.522870
  C       1.845392     -4.214982     -0.825042
  H       4.144402     -0.861572     -0.906624
  H       3.276240     -1.561365     -2.340719
  H       4.594773     -2.487062     -1.539313
  H       2.598750     -3.152031      2.283109
  H       3.854921     -1.929119      1.830061
  H       4.101275     -3.679663      1.431845
  H       1.051487     -4.600647     -0.154751
  H       2.665192     -4.961296     -0.866910
  H       1.410724     -4.089272     -1.834843
  H      -1.510538      0.008302     -0.479714
  C      -0.124602      1.942404     -1.581773
  C      -0.786964      2.336325     -0.440363
  H      -1.013943      1.874552     -2.633281
  H       1.221599      1.875423     -1.342383
  Si     -2.467747      3.204635     -0.443484
  H      -0.148230      2.730475      0.436194
  C      -2.091372      5.009915     -0.889364
  C      -3.171186      3.207766      1.299052
  C      -3.675518      2.492374     -1.703808
  H      -1.392838      5.502265     -0.183047
  H      -3.037499      5.583678     -0.840806
  H      -1.685276      5.126272     -1.913315
  H      -2.438300      3.643031      2.009172
  H      -3.384259      2.167795      1.605220
  H      -4.100651      3.805329      1.369800
  H      -3.261212      2.542193     -2.731719
  H      -4.628866      3.059177     -1.691013
  H      -3.877996      1.435263     -1.448115
69
Coordinates from ORCA-job my_molecule_MEP E -2464.530169211564
  Pt      0.486198     -0.753379      0.144563
  O       1.390345      0.179948      1.690915
  O      -2.842818     -0.900779     -0.291075
  P       2.699696      1.093827      1.757420
  P      -2.026803     -1.955155     -1.033553
  O      -1.844797     -3.309911     -0.091775
  O      -0.538344     -1.560183     -1.448093
  O       2.354471      2.485810      0.882601
  O       4.035990      0.551899      1.286719
  C       2.649674      1.651703      3.522417
  C      -2.809942     -2.609170     -2.581301
  C      -2.029877     -3.838618     -3.079494
  C      -2.792952     -1.493768     -3.644634
  C      -4.257807     -2.978084     -2.208044
  C       1.269313      2.258120      3.829324
  C       2.910066      0.420002      4.408282
  C       3.769385      2.691699      3.699650
  H      -2.000414     -3.048453      0.835373
  H       3.170996      2.686140      0.379972
  H      -0.989607     -3.571007     -3.349776
  H      -2.520791     -4.256256     -3.983611
  H      -1.991666     -4.632493     -2.308917
  H      -1.757044     -1.233262     -3.938058
  H      -3.294116     -0.574234     -3.282302
  H      -3.331951     -1.838248     -4.552741
  H      -4.276236     -3.789255     -1.453840
  H      -4.807484     -3.324848     -3.107973
  H      -4.785728     -2.102178     -1.782892
  H       0.468245      1.503404      3.706452
  H       1.047154      3.111853      3.158015
  H       1.246359      2.626277      4.876433
  H       2.113804     -0.339994      4.283685
  H       2.931557      0.729992      5.473924
  H       3.883055     -0.052124      4.166262
  H       3.591570      3.578678      3.059410
  H       4.753968      2.259988      3.430876
  H       3.810013      3.029617      4.756120
  Si      2.330397     -2.112859     -0.416457
  C       3.594992     -1.310288     -1.538724
  C       3.151853     -2.543105      1.214768
  C       1.628288     -3.682918     -1.163887
  H       4.059466     -0.446276     -1.025517
  H       3.200243     -1.036531     -2.534646
  H       4.376287     -2.090189     -1.672436
  H       2.423679     -2.912150      1.960931
  H       3.698570     -1.660869      1.600343
  H       3.870637     -3.354995      0.974333
  H       0.889596     -4.137968     -0.476317
  H       2.505580     -4.355185     -1.261184
  H       1.145247     -3.539193     -2.147332
  H      -1.783247      0.688978      0.125489
  C       0.110826      1.021786     -0.917059
  C      -0.966299      1.493750     -0.025353
  H      -0.149211      0.679286     -1.937907
  H       1.089326      1.522828     -0.824590
  Si     -2.182028      2.856970     -0.550904
  H      -0.529602      1.860530      0.925565
  C      -1.336321      4.473921     -0.954957
  C      -3.152555      3.098279      1.032820
  C      -3.319422      2.297162     -1.937577
  H      -0.608788      4.748745     -0.166276
  H      -2.128896      5.248094     -0.976943
  H      -0.832481      4.445627     -1.938807
  H      -2.481813      3.443850      1.845398
  H      -3.621585      2.141767      1.331156
  H      -3.937955      3.860701      0.878356
  H      -2.840265      2.281685     -2.936369
  H      -4.151517      3.029148     -1.967434
  H      -3.736484      1.291860     -1.728818
69
Coordinates from ORCA-job my_molecule_MEP E -2464.468891936895
  Pt      0.335299     -0.912088      0.422095
  O       1.337942      0.307224      1.727666
  O      -3.300836     -1.294981     -0.015288
  P       2.634235      1.235145      1.831941
  P      -2.279597     -2.082468     -0.817100
  O      -1.724595     -3.333280      0.153175
  O      -0.869685     -1.491033     -1.236748
  O       2.292311      2.711571      1.095034
  O       3.965625      0.741053      1.298077
  C       2.593368      1.618679      3.647958
  C      -2.980431     -2.795948     -2.383305
  C      -2.089532     -3.954831     -2.856685
  C      -3.076003     -1.698947     -3.465458
  C      -4.385155     -3.274289     -1.984499
  C       1.199904      2.144355      4.034711
  C       2.905649      0.308867      4.399133
  C       3.680862      2.673260      3.917232
  H      -2.351690     -3.269409      0.899418
  H       3.120179      2.998886      0.652438
  H      -1.087523     -3.590146     -3.155593
  H      -2.548680     -4.463302     -3.729628
  H      -1.947148     -4.703672     -2.053117
  H      -2.075823     -1.369694     -3.809241
  H      -3.624836     -0.804532     -3.107905
  H      -3.627416     -2.099298     -4.344057
  H      -4.313228     -4.049037     -1.195384
  H      -4.917813     -3.706412     -2.855937
  H      -4.967213     -2.426267     -1.574909
  H       0.422871      1.375038      3.859691
  H       0.932182      3.047063      3.449389
  H       1.187302      2.414459      5.111684
  H       2.132950     -0.463143      4.210834
  H       2.933914      0.507379      5.491052
  H       3.887977     -0.106875      4.098276
  H       3.465849      3.614558      3.372722
  H       4.675143      2.304211      3.595856
  H       3.726779      2.905455      5.001932
  Si      2.217886     -1.720526     -0.678571
  C       3.398044     -0.679698     -1.689039
  C       3.102151     -2.315794      0.836270
  C       1.573519     -3.155481     -1.669032
  H       3.875206      0.102119     -1.069815
  H       3.005938     -0.309672     -2.652292
  H       4.185840     -1.432791     -1.912958
  H       2.387036     -2.806724      1.521319
  H       3.607703     -1.463162      1.329563
  H       3.831419     -3.053657      0.458717
  H       0.902281     -3.746837     -1.021138
  H       2.501676     -3.719501     -1.882904
  H       1.032783     -2.915466     -2.600837
  H      -1.969101      0.815098      0.503757
  C       0.146940      0.746607     -0.599843
  C      -1.024909      1.315857      0.167703
  H       0.142443      0.134351     -1.530432
  H       1.031582      1.401157     -0.484044
  Si     -1.858832      2.736096     -0.714482
  H      -0.648580      1.671309      1.147468
  C      -0.571350      4.067773     -1.031532
  C      -3.105415      3.255428      0.593604
  C      -2.824740      2.268962     -2.270274
  H       0.099166      4.167327     -0.152073
  H      -1.109348      5.021079     -1.185153
  H       0.056879      3.858803     -1.921314
  H      -2.574272      3.516085      1.531241
  H      -3.820945      2.436603      0.825831
  H      -3.672379      4.135245      0.239653
  H      -2.225298      2.108784     -3.185762
  H      -3.468274      3.153966     -2.451857
  H      -3.488184      1.389110     -2.137236
69
Coordinates from ORCA-job my_molecule_MEP E -2464.548126137792
  Pt      0.397093     -0.862418      0.198031
  O       1.248485      0.008247      1.802616
  O      -2.883971     -1.255293      0.219135
  P       2.433981      1.059177      1.997646
  P      -2.112717     -2.308151     -0.558932
  O      -1.722804     -3.587415      0.442603
  O      -0.708817     -1.870836     -1.199351
  O       1.844424      2.482917      1.339132
  O       3.802631      0.756807      1.418193
  C       2.436084      1.359919      3.832394
  C      -3.044100     -3.079545     -1.966526
  C      -2.218584     -4.219550     -2.587850
  C      -3.325562     -1.972591     -3.001660
  C      -4.366349     -3.614405     -1.381537
  C       1.037521      1.796685      4.302178
  C       2.863737      0.048754      4.520317
  C       3.474573      2.467286      4.100416
  H      -2.216327     -3.447461      1.275349
  H       2.597358      2.904744      0.879490
  H      -1.267300     -3.844429     -3.013621
  H      -2.797722     -4.701034     -3.404736
  H      -1.976167     -4.995034     -1.834337
  H      -2.385521     -1.581285     -3.438556
  H      -3.872796     -1.125075     -2.541428
  H      -3.948044     -2.379043     -3.826896
  H      -4.181611     -4.413225     -0.635110
  H      -4.990579     -4.043551     -2.193522
  H      -4.940196     -2.805060     -0.887880
  H       0.283339      1.008993      4.109039
  H       0.711842      2.721541      3.785486
  H       1.055649      2.000932      5.394080
  H       2.133113     -0.762514      4.331960
  H       2.930536      0.205833      5.617930
  H       3.856402     -0.288141      4.159875
  H       3.180501      3.420743      3.616357
  H       4.473721      2.177895      3.718636
  H       3.554717      2.651278      5.192533
  Si      2.361693     -1.696299     -0.873322
  C       3.259883     -0.248478     -1.682065
  C       3.379497     -2.451947      0.525723
  C       1.885346     -3.001390     -2.151170
  H       3.603556      0.449794     -0.892334
  H       2.630776      0.280282     -2.425462
  H       4.152481     -0.646846     -2.211625
  H       2.796754     -3.166716      1.140489
  H       3.774991     -1.637445      1.164684
  H       4.231532     -3.005862      0.074491
  H       1.329910     -3.840494     -1.689601
  H       2.821557     -3.398916     -2.600267
  H       1.256274     -2.575988     -2.956271
  H      -2.048646      0.853091     -0.062647
  C      -0.025260      0.869178     -0.848639
  C      -1.161471      1.523031     -0.129559
  H      -0.269133      0.505417     -1.866604
  H       0.918027      1.446460     -0.823746
  Si     -1.748423      3.148358     -0.992168
  H      -0.861468      1.833091      0.893648
  C      -0.285072      4.348428     -1.096699
  C      -3.120765      3.870744      0.092573
  C      -2.413222      2.751276     -2.721479
  H       0.210065      4.435385     -0.107555
  H      -0.613105      5.360205     -1.412967
  H       0.474403      3.998198     -1.826039
  H      -2.745933      4.105910      1.109828
  H      -3.964285      3.158069      0.197272
  H      -3.518258      4.808748     -0.348204
  H      -1.621025      2.340472     -3.380799
  H      -2.814405      3.663765     -3.209681
  H      -3.232813      2.004785     -2.671261
