
                                 *****************
                                 * O   R   C   A *
                                 *****************

                                            #,                                       
                                            ###                                      
                                            ####                                     
                                            #####                                    
                                            ######                                   
                                           ########,                                 
                                     ,,################,,,,,                         
                               ,,#################################,,                 
                          ,,##########################################,,             
                       ,#########################################, ''#####,          
                    ,#############################################,,   '####,        
                  ,##################################################,,,,####,       
                ,###########''''           ''''###############################       
              ,#####''   ,,,,##########,,,,          '''####'''          '####       
            ,##' ,,,,###########################,,,                        '##       
           ' ,,###''''                  '''############,,,                           
         ,,##''                                '''############,,,,        ,,,,,,###''
      ,#''                                            '''#######################'''  
     '                                                          ''''####''''         
             ,#######,   #######,   ,#######,      ##                                
            ,#'     '#,  ##    ##  ,#'     '#,    #''#        ,####,    ,#,          
            ##       ##  ##   ,#'  ##            #'  '#       #'       ,# #          
            ##       ##  #######   ##           ,######,      #####,      #          
            '#,     ,#'  ##    ##  '#,     ,#' ,#      #,     #,   #      #          
             '#######'   ##     ##  '#######'  #'      '#     '####' #    #          



                #########################################################
                #                        -***-                          #
                #          Department of theory and spectroscopy        #
                #                                                       #
                #                      Frank Neese                      #
                #                                                       #
                #     Directorship, Architecture, Infrastructure        #
                #                    SHARK, DRIVERS                     #
                #        Core code/Algorithms in most modules           #
                #                                                       #
                #        Max Planck Institute fuer Kohlenforschung      #
                #                Kaiser Wilhelm Platz 1                 #
                #                 D-45470 Muelheim/Ruhr                 #
                #                      Germany                          #
                #                                                       #
                #                  All rights reserved                  #
                #                        -***-                          #
                #########################################################


                         Program Version 6.1.1  -  RELEASE   -
                                (GIT: $487d211c$)
                          ($2025-11-21 10:33:24 +0100$)


 With contributions from (in alphabetic order):
[Max-Planck-Institut fuer Kohlenforschung]                               
  Daniel Aravena         : Magnetic Suceptibility                        
  Michael Atanasov       : Ab Initio Ligand Field Theory (pilot matlab implementation)
  Alexander A. Auer      : GIAO ZORA, VPT2 properties, NMR spectrum      
  Ute Becker             : All parallelization in ORCA, NUMFREQ, NUMCALC 
  Giovanni Bistoni       : ED, misc. LED, open-shell LED, HFLD           
  Dmytro Bykov           : pre 5.0 version of the SCF Hessian            
  Marcos Casanova-Páez   : Triplet and SCS-CIS(D). UHF-(DLPNO)-IP/EA/STEOM-CCSD. UHF-CVS-IP/STEOM-CCSD   
  Vijay G. Chilkuri      : MRCI spin determinant printing, contributions to CSF-ICE 
  Pauline Colinet        : FMM embedding                                 
  Dipayan Datta          : RHF DLPNO-CCSD density                        
  Achintya Kumar Dutta   : EOM-CC, STEOM-CC                              
  Nicolas Foglia         : Exact transition moments, OPA infrastructure, MCD improvements    
  Dmitry Ganyushin       : Spin-Orbit,Spin-Spin,Magnetic field MRCI      
  Miquel Garcia-Rates    : C-PCM and meta-GGA Hessian, CCSD/C-PCM, Gaussian charge scheme 
  Tiago L. C. Gouveia    : GS-ROHF, GS-ROCIS                             
  Yang Guo               : DLPNO-NEVPT2, F12-NEVPT2, CIM, IAO-localization        
  Andreas Hansen         : Spin unrestricted coupled pair/coupled cluster methods 
  Ingolf Harden          : AUTO-CI MPn and infrastructure                
  Benjamin Helmich-Paris : MC-RPA, TRAH-(SCF,CASSCF), AVAS, COSX integrals, SCF dyn. polar., MC-PDFT, srDFT 
  Lee Huntington         : MR-EOM, pCC                                   
  Robert Izsak           : Overlap fitted RIJCOSX, COSX-SCS-MP3, EOM     
  Riya Kayal             : Wick's Theorem for AUTO-CI, AUTO-CI UHF-CCSDT 
  Emily Kempfer          : AUTO-CI RHF CISDT and CCSDT, approximate NEVPT4
  Christian Kollmar      : KDIIS, OOCD, Brueckner-CCSD(T), CCSD density, CASPT2, CASPT2-K, improved NEVPT2 
  Axel Koslowski         : Symmetry handling                             
  Simone Kossmann        : meta-GGA functionals, TD-DFT gradient, OOMP2, (MP2 Hessian; deprecated post 5.0) 
  Lucas Lang             : DCDCAS, Hyperfine gauge corrections, ICE-SOC+SSC
  Marvin Lechner         : AUTO-CI (C++ implementation), FIC-MRCC        
  Spencer Leger          : CASSCF response                               
  Dagmar Lenk            : GEPOL surface, SMD, ORCA-2-JSON               
  Dimitrios Liakos       : Extrapolation schemes; Compound Job, Property file
  Dimitrios Manganas     : Further ROCIS development; embedding schemes. LFT, Crystal Embedding 
  Dimitrios Pantazis     : SARC Basis sets                               
  Anastasios Papadopoulos: AUTO-CI, single reference methods and gradients 
  Taras Petrenko         : pre 6.0 DFT Hessian and TD-DFT gradient,  ECA, NRVS 
  Petra Pikulova         : Analytic Raman intensities                    
  Peter Pinski           : DLPNO-MP2, DLPNO-MP2 Gradient                 
  Shashank Vittal Rao    : ES-AILFT, MagRelax                            
  Christoph Reimann      : Effective Core Potentials                     
  Marius Retegan         : Local ZFS, SOC                                
  Christoph Riplinger    : Optimizer, TS searches, QM/MM, DLPNO-CCSD(T), (RO)-DLPNO pert. Triples 
  Michael Roemelt        : Original ROCIS implementation, recursive CI coupling coefficients
  Masaaki Saitow         : Open-shell DLPNO-CCSD energy and density      
  Barbara Sandhoefer     : DKH picture change effects                    
  Yorick L. A. Schmerwitz: GMF and freeze-and-release deltaSCF, NEB S-IDPP initial path                    
  Kantharuban Sivalingam : CASSCF convergence/infrastructure, NEVPT2, NEVPT3, NEVPT4(SD), FIC-MRCI and CEPA variants
  Bernardo de Souza      : ESD, SOC TD-DFT                               
  Georgi L. Stoychev     : AutoAux, RI-MP2 NMR, DLPNO-MP2 response, X2C  
  Van Anh Tran           : RI-MP2 g-tensors                              
  Willem Van den Heuvel  : Paramagnetic NMR                              
  Zikuan Wang            : NOTCH, Electric field optimization            
  Frank Wennmohs         : Technical directorship and infrastructure     
  Hang Xu                : AUTO-CI-Response properties                   
                                                                         
[FACCTs GmbH]                                                            
  Markus Bursch, Nicolas Foglia, Miquel Garcia-Rates, Ingolf Harden, Hagen Neugebauer, Anastasios Papadopoulos, 
  Christoph Riplinger, Bernardo de Souza, Georgi L. Stoychev                                                    
                                                                 
  APM, various basis sets, CI-OPT, improved COSX, DLPNO-Multilevel,           
  DOCKER, DRACO, updates on ESD, Fragmentator, GOAT, IRC, LR-CPCM, L-BFGS, MBIS, meta-GGA TD-DFT gradient, ML-optimized integration grids, 
  MM, NACMEs, nearIR, NEB, NEB-TS, NL-DFT gradient (VV10), 2- and 3-layer-ONIOM, interface openCOSMO-RS, QMMM,   
  Crystal-QMMM, RESP, rigid body optimization, SF, symmetry and pop. for TD-DFT, various functionals, SOLVATOR                                   
                                                                         
[Other institutions]                                                     
  V. Asgeirsson          : NEB                                           
  Christoph Bannwarth    : sTDA-DFT, sTD-DFT, PBEh-3c, B97-3c, D3        
  Giovanni Bistoni       : ETS/NOCV, ADLD/ADEX, COVALED                  
  Martin Brehm           : Molecular dynamics                            
  Ronald Cardenas        : ETS/NOCV                                      
  Martina Colucci        : COVALED                                       
  Sebastian Ehlert       : rSCAN, r2SCAN, r2SCAN-3c, D4, dhf basis sets  
  Marvin Friede          : D4 for Fr, Ra, Ac-Lr                          
  Lars Goerigk           : TD-DFT with DH, B97 family of functionals     
  Stefan Grimme          : VdW corrections, initial TS optimization, DFT functionals, gCP, sTDA/sTD-DF 
  Waldemar Hujo          : DFT-NL                                        
  H. Jonsson             : NEB                                           
  Holger Kruse           : gCP                                           
  Marcel Mueller         : wB97X-3c, vDZP basis set                      
  Hagen Neugebauer       : wr2SCAN, Native XTB                           
  Gianluca Regni         : ADLD/ADEX                                     
  Tobias Risthaus        : pre 6.0 range-separated hybrid DFT and stability analysis
  Lukas Wittmann         : regularized MP2, r2SCAN double-hybrids, wr2SCAN        
                                                                         
We gratefully acknowledge several colleagues who have allowed us to      
interface, adapt or use parts of their codes:                            
  Ed Valeev, F. Pavosevic, A. Kumar             : LibInt (2-el integral package), F12 methods 
  Garnet Chan, S. Sharma, J. Yang, R. Olivares  : DMRG                   
  Ulf Ekstrom                                   : XCFun DFT Library      
  Mihaly Kallay                                 : mrcc  (arbitrary order and MRCC methods)
  Frank Weinhold                                : gennbo (NPA and NBO analysis)           
  Simon Mueller                                 : openCOSMO-RS                            
  Christopher J. Cramer and Donald G. Truhlar   : smd solvation model                     
  S Lehtola, MJT Oliveira, MAL Marques          : LibXC Library                           
  Liviu Ungur et al                             : ANISO software                          


 Your calculation uses the libint2 library for the computation of 2-el integrals
 For citations please refer to: http://libint.valeyev.net

 Your ORCA version has been built with support for libXC version: 7.0.0
 For citations please refer to: https://libxc.gitlab.io

 This ORCA versions uses:
   CBLAS   interface :  Fast vector & matrix operations
   LAPACKE interface :  Fast linear algebra routines
   SCALAPACK package :  Parallel linear algebra routines
   Shared memory     :  Shared parallel matrices
   BLAS/LAPACK       :  OpenBLAS 0.3.29  USE64BITINT DYNAMIC_ARCH NO_AFFINITY Zen SINGLE_THREADED
        Core in use  :  Zen
   Copyright (c) 2011-2014, The OpenBLAS Project


  ***********************************
  * Starting time: Thu Apr 16 02:28:42 2026
  * Host name:     r318.ib.bridges2.psc.edu
  * Process ID:    75383
  * Working dir.:  /ocean/projects/mat250017p/desantos/ORCA/Projects/Catalyzed-tBuPa/Step2/NEB
  ***********************************

NOTE: MaxCore=1900 MB was set to SCF,MP2,MDCI,CIPSI,MRCI,RASCI and CIS
      => If you want to overwrite this, your respective input block should be placed after the MaxCore statement
Your calculation utilizes a Nudged-Elastic-Band implementation
by V. Ásgeirsson, C. Riplinger & H. Jónsson
Please cite in your paper:
Ásgeirsson, V.; Birgisson, B. O.; Bjornsson, R.; Becker, U.; Neese, F.; Riplinger, R.;
Jónsson H. J. Chem. Theory Comput. 2021, 17, 4929-4945
   

Warning: RI is on but no J-basis has been assigned. Assigning Def2/J (nothing to worry about!)
================================================================================

cite the ECPs for Pt [Def2-ECP] as follows:
Ce-Yb(ecp-28): M. Dolg, H. Stoll, H.Preuss, J. Chem. Phys., 1989, 90, 1730-1734.
Y-Cd(ecp-28), Hf-Hg(ecp-46): D. Andrae,U. Haeussermann, M. Dolg, H. Stoll, H. Preuss, Theor. Chim. Acta, 1990, 77, 123-141.
In-Sb(ecp-28), Tl-Bi(ecp-46): B. Metz, H. Stoll, M. Dolg, J. Chem. Phys., 2000, 113, 2563-2569.
Te-Xe(ecp-28), Po-Rn(ecp-46): K. A. Peterson, D. Figgen, E. Goll, H. Stoll, M. Dolg, J. Chem. Phys., 2003, 119, 11113-11123.
Rb(ecp-28), Cs(ecp-46): T. Leininger, A. Nicklass, W. Kuechle, H. Stoll, M. Dolg, A. Bergner, Chem. Phys. Lett., 1996, 255, 274-280.
Sr(ecp-28), Ba(ecp-46): M. Kaupp, P. V. Schleyer, H. Stoll and H. Preuss, J. Chem. Phys., 1991, 94, 1360-1366.
La(ecp-46): M. Dolg, H. Stoll, A. Savin, H. Preuss, Theor. Chim. Acta, 1989, 75, 173-194.
Lu(ecp-28): X. Cao, M. Dolg, J. Chem. Phys., 2001, 115, 7348-7355.

ECP parameters for Pt [Def2-ECP] have been obtained from:
TURBOMOLE (7.0.2)

----- Orbital basis set information -----
Your calculation utilizes the basis: def2-SVP
   F. Weigend and R. Ahlrichs, Phys. Chem. Chem. Phys. 7, 3297 (2005).

----- AuxJ basis set information -----
Your calculation utilizes the auxiliary basis: def2/J
   H-Rn: F. Weigend, Phys. Chem. Chem. Phys. 8, 1057 (2006).
   Fr-Lr: K. Eichkorn, F. Weigend, O. Treutler, R. Ahlrichs; Theor. Chem. Acc. 97, 119 (1997).

================================================================================
                                        WARNINGS
                       Please study these warnings very carefully!
================================================================================


WARNING: Geometry Optimization
  ===> : Switching off AutoStart
         For restart on a previous wavefunction, please use MOREAD

================================================================================
                                       INPUT FILE
================================================================================
NAME = my_molecule.inp
|  1> ! UKS PBE def2-SVP FAST-NEB-TS FREQ
|  2> 
|  3> %pal nprocs 28 end
|  4> %maxcore 1900
|  5> 
|  6> %geom
|  7>   MaxIter 500
|  8> end
|  9> 
| 10> %neb
| 11>   MaxIter 400
| 12>   Restart_ALLXYZFile "my_molecule_MEP.allxyz"
| 13>   NImages 7
| 14> end
| 15> 
| 16> * xyz 0 1
| 17>   Pt          1.24471816264346     -0.98135565438428     -0.35769664733104
| 18>   O           1.57002017358996      0.40718951262393      1.07311950082007
| 19>   O          -1.05130141849038     -0.93876304629531     -0.53983192293991
| 20>   P           2.94462892759181      1.24288994619433      0.99126426786193
| 21>   P          -0.95417982633816     -1.96421301501983     -1.70996560065082
| 22>   O          -1.79796101506949     -3.33340332916944     -1.38123606948186
| 23>   O           0.60319852201697     -2.28576999199674     -1.86891311246792
| 24>   O           2.71942127706425      2.30393767259340     -0.27666291218979
| 25>   O           4.23603686201903      0.47022277808272      0.79216515313120
| 26>   C           2.89733950998806      2.31338854084094      2.50911581045566
| 27>   C          -1.66427913584254     -1.45655609188119     -3.33144575081438
| 28>   C          -1.34505045101353     -2.55967040501252     -4.36170312382865
| 29>   C          -0.98225521698471     -0.12887711125346     -3.72168731335925
| 30>   C          -3.18581860016330     -1.26589774201964     -3.17758199357973
| 31>   C           1.60564458951311      3.14843863024745      2.54365826966016
| 32>   C           2.98410003083177      1.39116466228584      3.74069611902063
| 33>   C           4.13770947755820      3.22657471506147      2.43617554511226
| 34>   H          -1.71547001777627     -3.54801037253129     -0.42931069978466
| 35>   H           3.52244888873962      2.23939919109709     -0.83120858499761
| 36>   H          -0.25297529818907     -2.72056970315405     -4.45652298071954
| 37>   H          -1.73790208890306     -2.25472828907886     -5.35425351877712
| 38>   H          -1.81754177783999     -3.52348401830463     -4.08740236874363
| 39>   H           0.11512418573984     -0.24938432392185     -3.82024662870348
| 40>   H          -1.17923434021464      0.66961298212380     -2.97859879445143
| 41>   H          -1.37725947879141      0.20907502837098     -4.70222316019569
| 42>   H          -3.68647538214228     -2.21030589054939     -2.88871778596529
| 43>   H          -3.60986149505894     -0.93147103250787     -4.14753268261919
| 44>   H          -3.42578978507807     -0.49597114366931     -2.41788623734354
| 45>   H           0.70776702714950      2.50428188364407      2.61568622299492
| 46>   H           1.49963153571471      3.77645949705021      1.63753422152739
| 47>   H           1.62316543498255      3.81892399504439      3.42950985862797
| 48>   H           2.09819175964057      0.72952639414726      3.81022118394707
| 49>   H           3.02617387630300      2.00815043317664      4.66337958002131
| 50>   H           3.89226471348820      0.75660003870496      3.70970404297673
| 51>   H           4.08776884921750      3.90267649757433      1.55904477424185
| 52>   H           5.06879934192153      2.63024517613130      2.36300689494959
| 53>   H           4.19224355925794      3.85532456539570      3.34981531090447
| 54>   Si          2.19933340359860     -2.86634322279821      0.71794573920345
| 55>   C           3.27145786260093     -3.78158520389653     -0.53537442776762
| 56>   C           3.17704945509819     -2.32365073986922      2.22655414246855
| 57>   C           0.69771687270851     -3.92607617979417      1.19773364436851
| 58>   H           4.19093764315423     -3.20950456132549     -0.77066820571133
| 59>   H           2.70705539537038     -3.95505342699099     -1.47261571307714
| 60>   H           3.57309886581106     -4.76488065935070     -0.11507664112341
| 61>   H           2.52052656883578     -1.87148388323341      2.99543489226845
| 62>   H           3.93373674120921     -1.57004394005867      1.92616955715862
| 63>   H           3.68310642027082     -3.20971851673675      2.66637829358612
| 64>   H          -0.02828550142308     -3.35472560995630      1.81075754845090
| 65>   H           1.04481705585618     -4.79341600138101      1.79977467269645
| 66>   H           0.19649949832391     -4.31919867395803      0.29050310021964
| 67>   H           2.77350127533439     -0.94923141511672     -0.59670955995846
| 68>   C          -0.41360042621241      3.90314894579029     -1.06060596748217
| 69>   C          -1.00008907666550      2.97028624409347     -0.28075504684499
| 70>   H           0.63369346287647      3.79661971868635     -1.39510886269623
| 71>   H          -0.94477856495466      4.81627755006531     -1.38540944763904
| 72>   Si         -2.75321817268711      3.02845052661535      0.41694375418262
| 73>   H          -0.38447239295225      2.09265912976423      0.00047474364230
| 74>   C          -3.59501386597695      4.66362868082715     -0.04904991805229
| 75>   C          -2.64720678589417      2.86734973549398      2.30641778031239
| 76>   C          -3.73820570441137      1.55913503833524     -0.27208994367605
| 77>   H          -3.03895142697628      5.53334679979722      0.35778465887483
| 78>   H          -4.62767908782408      4.70474783684228      0.35529326949396
| 79>   H          -3.66097066076892      4.78679979529839     -1.14993969698111
| 80>   H          -2.07864953540835      3.71074365657156      2.74954491548653
| 81>   H          -2.13089948048311      1.92640815799556      2.58916288452357
| 82>   H          -3.65622316019156      2.85259063510460      2.76891849786778
| 83>   H          -3.93792813720636      1.69630384870991     -1.35518678960112
| 84>   H          -4.71435296519492      1.44209728384736      0.24310620459068
| 85>   H          -3.15442695289336      0.62348747098669     -0.14588694609312
| 86> **                         ****END OF INPUT****
================================================================================


--------------------------------------------------------------------------------
                        Nudged Elastic Band Calculation
--------------------------------------------------------------------------------

Reading restart file my_molecule_MEP.allxyz
Number of images (incl. end points)     ....  9
Number of intermediate images           ....  7
Number of optimized images              ....  7
Optimization of end points before NEB   ....  NO
Use existing gbw files for MO input     ....  NO
Number of atoms                         ....  69
Number of (active) degrees of freedom   ....  207
Constrained atoms                       ....  None

Reaction path read from file: my_molecule_MEP.allxyz
----------------------------------------
  REACTANT (ANGSTROEM)
----------------------------------------
Pt     1.054999    -1.312295    -0.375347 
O      1.380301     0.076250     1.055469 
O     -1.241021    -1.269702    -0.557483 
P      2.754910     0.911951     0.973614 
P     -1.143899    -2.295152    -1.727616 
O     -1.987680    -3.664343    -1.398887 
O      0.413479    -2.616709    -1.886564 
O      2.529702     1.972998    -0.294313 
O      4.046318     0.139283     0.774515 
C      2.707620     1.982449     2.491465 
C     -1.853998    -1.787496    -3.349096 
C     -1.534770    -2.890610    -4.379354 
C     -1.171974    -0.459817    -3.739338 
C     -3.375538    -1.596837    -3.195233 
C      1.415925     2.817499     2.526008 
C      2.794381     1.060225     3.723046 
C      3.947990     2.895635     2.418525 
H     -1.905189    -3.878950    -0.446961 
H      3.332730     1.908460    -0.848859 
H     -0.442694    -3.051509    -4.474174 
H     -1.927621    -2.585668    -5.371904 
H     -2.007261    -3.854423    -4.105053 
H     -0.074595    -0.580324    -3.837897 
H     -1.368953     0.338674    -2.996249 
H     -1.566979    -0.121864    -4.719874 
H     -3.876195    -2.541245    -2.906368 
H     -3.799581    -1.262410    -4.165183 
H     -3.615509    -0.826911    -2.435537 
H      0.518048     2.173342     2.598036 
H      1.309912     3.445520     1.619884 
H      1.433446     3.487985     3.411859 
H      1.908473     0.398587     3.792571 
H      2.836455     1.677211     4.645729 
H      3.702546     0.425661     3.692053 
H      3.898050     3.571737     1.541394 
H      4.879080     2.299306     2.345356 
H      4.002524     3.524385     3.332165 
Si     2.009614    -3.197283     0.700295 
C      3.081739    -4.112525    -0.553025 
C      2.987330    -2.654590     2.208904 
C      0.507998    -4.257016     1.180083 
H      4.001219    -3.540444    -0.788319 
H      2.517336    -4.285993    -1.490266 
H      3.383380    -5.095820    -0.132727 
H      2.330807    -2.202423     2.977784 
H      3.744018    -1.900983     1.908519 
H      3.493387    -3.540658     2.648728 
H     -0.218005    -3.685665     1.793107 
H      0.855098    -5.124355     1.782124 
H      0.006780    -4.650138     0.272853 
H      2.583782    -1.280171    -0.614360 
C     -0.603320     3.572210    -1.078257 
C     -1.189808     2.639347    -0.298406 
H      0.443974     3.465680    -1.412759 
H     -1.134498     4.485338    -1.403060 
Si    -2.942937     2.697511     0.399293 
H     -0.574192     1.761720    -0.017176 
C     -3.784733     4.332689    -0.066700 
C     -2.836926     2.536410     2.288767 
C     -3.927925     1.228196    -0.289741 
H     -3.228671     5.202407     0.340134 
H     -4.817398     4.373808     0.337643 
H     -3.850690     4.455860    -1.167590 
H     -2.268369     3.379804     2.731894 
H     -2.320619     1.595469     2.571512 
H     -3.845942     2.521651     2.751268 
H     -4.127647     1.365364    -1.372837 
H     -4.904072     1.111158     0.225456 
H     -3.344146     0.292548    -0.163538 
----------------------------------------
  IMAGE 2 (ANGSTROEM)
----------------------------------------
Pt     0.882432    -1.159184    -0.252039 
O      1.262523     0.088371     1.292599 
O     -1.435230    -1.334153    -0.234620 
P      2.632779     0.931567     1.334452 
P     -1.327391    -2.372054    -1.391894 
O     -1.817784    -3.851013    -0.861693 
O      0.212573    -2.375816    -1.817462 
O      2.415334     2.176881     0.251934 
O      3.933575     0.214596     1.012739 
C      2.577262     1.752209     3.001595 
C     -2.347688    -2.203042    -2.917344 
C     -1.970123    -3.391667    -3.831572 
C     -1.978898    -0.865315    -3.588169 
C     -3.842788    -2.247810    -2.549831 
C      1.243434     2.498943     3.182383 
C      2.745358     0.660379     4.076048 
C      3.765379     2.734246     3.048684 
H     -1.607922    -3.940794     0.089760 
H      3.241867     2.230119    -0.267913 
H     -0.886943    -3.392398    -4.065044 
H     -2.529937    -3.308428    -4.786503 
H     -2.225897    -4.362798    -3.364499 
H     -0.902336    -0.827678    -3.845759 
H     -2.209508     0.000824    -2.936298 
H     -2.562909    -0.757828    -4.525882 
H     -4.108371    -3.195910    -2.042873 
H     -4.446744    -2.172361    -3.478444 
H     -4.128828    -1.403830    -1.890786 
H      0.385424     1.798895     3.173775 
H      1.083998     3.246065     2.379400 
H      1.247251     3.033458     4.156559 
H      1.907854    -0.064401     4.049569 
H      2.764744     1.129375     5.082753 
H      3.692904     0.101955     3.939396 
H      3.653216     3.536623     2.292420 
H      4.724394     2.210756     2.862151 
H      3.816939     3.211325     4.050128 
Si     2.369788    -2.961773     0.260922 
C      3.633824    -3.047279    -1.141483 
C      3.190581    -2.722647     1.933420 
C      1.295813    -4.524956     0.293418 
H      4.309301    -2.168732    -1.096967 
H      3.129110    -3.066850    -2.128130 
H      4.247964    -3.967642    -1.044665 
H      2.450396    -2.652823     2.754870 
H      3.809122    -1.803343     1.915278 
H      3.837531    -3.607826     2.118882 
H      0.557554    -4.495157     1.121679 
H      1.966230    -5.391677     0.481802 
H      0.769359    -4.684543    -0.665838 
H      2.327349    -0.860857    -0.697788 
C     -0.220666     3.142163    -1.416991 
C     -1.016395     2.593929    -0.470122 
H      0.810855     2.787448    -1.573889 
H     -0.556842     3.978361    -2.054882 
Si    -2.779534     3.148969    -0.088528 
H     -0.586250     1.768103     0.129240 
C     -2.990221     4.960873    -0.614768 
C     -3.093291     2.966161     1.773700 
C     -4.003046     2.044504    -1.035910 
H     -2.271758     5.609141    -0.071481 
H     -4.014534     5.329186    -0.400112 
H     -2.806700     5.093885    -1.701171 
H     -2.376607     3.573651     2.364112 
H     -2.977577     1.907726     2.087168 
H     -4.119899     3.290703     2.043780 
H     -3.857193     2.150081    -2.131064 
H     -5.057657     2.301302    -0.803210 
H     -3.836552     0.979812    -0.768993 
----------------------------------------
  IMAGE 3 (ANGSTROEM)
----------------------------------------
Pt     0.726562    -1.092245    -0.126300 
O      1.219485     0.040320     1.476387 
O     -1.701776    -1.336996    -0.023861 
P      2.572457     0.908636     1.538588 
P     -1.526740    -2.384807    -1.155182 
O     -1.813117    -3.877175    -0.502893 
O     -0.025916    -2.245717    -1.680901 
O      2.286922     2.210594     0.544983 
O      3.879915     0.247931     1.141673 
C      2.550345     1.632220     3.253021 
C     -2.579428    -2.438738    -2.675518 
C     -2.086307    -3.659851    -3.489635 
C     -2.356767    -1.139527    -3.472909 
C     -4.058029    -2.609275    -2.284597 
C      1.207856     2.341948     3.504718 
C      2.769879     0.492184     4.265334 
C      3.719030     2.637000     3.322490 
H     -1.871005    -3.756853     0.466977 
H      3.108659     2.352252     0.034927 
H     -1.014822    -3.563439    -3.754088 
H     -2.669138    -3.727350    -4.432095 
H     -2.222892    -4.606176    -2.930636 
H     -1.289693    -1.009034    -3.738167 
H     -2.683535    -0.245012    -2.906312 
H     -2.944128    -1.183544    -4.414262 
H     -4.214737    -3.533473    -1.694631 
H     -4.675252    -2.681371    -3.205082 
H     -4.427485    -1.747176    -1.693937 
H      0.363036     1.626849     3.473107 
H      1.021656     3.128476     2.746449 
H      1.222181     2.822729     4.506279 
H      1.951715    -0.253295     4.219039 
H      2.798798     0.909560     5.294512 
H      3.729237    -0.032249     4.082684 
H      3.572297     3.475486     2.612537 
H      4.684917     2.146491     3.088313 
H      3.783617     3.063950     4.345706 
Si     2.477427    -2.747744     0.024905 
C      3.754421    -2.294737    -1.295129 
C      3.247632    -2.783238     1.740832 
C      1.685987    -4.422424    -0.361826 
H      4.246363    -1.341516    -1.013887 
H      3.286919    -2.190947    -2.295251 
H      4.528852    -3.088136    -1.357985 
H      2.504594    -2.948040     2.545296 
H      3.793037    -1.835748     1.916889 
H      3.967851    -3.631128     1.755204 
H      0.877378    -4.689173     0.346498 
H      2.483228    -5.193228    -0.277359 
H      1.267497    -4.444075    -1.384834 
H      1.999597    -0.594189    -0.806467 
C     -0.104415     2.726243    -1.575698 
C     -0.966626     2.461374    -0.569653 
H      0.864384     2.206066    -1.656678 
H     -0.315112     3.485562    -2.349621 
Si    -2.641219     3.304191    -0.335209 
H     -0.656198     1.697508     0.168992 
C     -2.482556     5.134548    -0.812756 
C     -3.167034     3.143402     1.478838 
C     -3.927685     2.450906    -1.443449 
H     -1.734859     5.638581    -0.166133 
H     -3.447603     5.671279    -0.704712 
H     -2.147908     5.251994    -1.864305 
H     -2.419503     3.604838     2.156783 
H     -3.266547     2.075462     1.764041 
H     -4.143963     3.637080     1.662604 
H     -3.626723     2.511818    -2.509768 
H     -4.931751     2.912893    -1.341879 
H     -4.013268     1.377255    -1.175001 
----------------------------------------
  IMAGE 4 (ANGSTROEM)
----------------------------------------
Pt     0.664170    -1.209744     0.168929 
O      1.348597    -0.100212     1.690173 
O     -2.212240    -1.078743    -0.229790 
P      2.650638     0.852176     1.683922 
P     -1.766356    -2.283447    -1.046450 
O     -2.036928    -3.698777    -0.215551 
O     -0.191789    -2.276480    -1.371414 
O      2.248797     2.105048     0.670299 
O      3.986087     0.261344     1.275097 
C      2.610188     1.602736     3.382495 
C     -2.632083    -2.578312    -2.655302 
C     -2.037561    -3.812484    -3.359215 
C     -2.452005    -1.314846    -3.521196 
C     -4.121233    -2.799617    -2.322662 
C      1.250794     2.284641     3.621200 
C      2.847256     0.471530     4.400928 
C      3.755875     2.632626     3.446967 
H     -2.212459    -3.452495     0.714889 
H      3.040177     2.298284     0.129563 
H     -0.964994    -3.667087    -3.595737 
H     -2.579250    -3.989391    -4.312967 
H     -2.136347    -4.723269    -2.736044 
H     -1.385237    -1.135442    -3.761795 
H     -2.845690    -0.412567    -3.012346 
H     -3.003101    -1.441623    -4.477012 
H     -4.259198    -3.704415    -1.698851 
H     -4.699771    -2.930155    -3.261088 
H     -4.541368    -1.933201    -1.773546 
H      0.420665     1.553028     3.578910 
H      1.056601     3.068939     2.862729 
H      1.244093     2.762743     4.623839 
H      2.038215    -0.283798     4.355541 
H      2.872012     0.891704     5.428574 
H      3.812501    -0.041416     4.215916 
H      3.593139     3.462569     2.729960 
H      4.732998     2.162297     3.219046 
H      3.807184     3.069970     4.466462 
Si     2.557267    -2.671230    -0.107555 
C      3.730938    -1.938914    -1.375427 
C      3.348301    -2.838914     1.596785 
C      1.832847    -4.336883    -0.636043 
H      4.133995    -0.986754    -0.977577 
H      3.234226    -1.772081    -2.351170 
H      4.574156    -2.646032    -1.531322 
H      2.623411    -3.094969     2.394941 
H      3.869484    -1.894623     1.849854 
H      4.088190    -3.667311     1.532017 
H      1.031517    -4.677963     0.049824 
H      2.649927    -5.090840    -0.610786 
H      1.403968    -4.291444    -1.654029 
H      0.782390    -0.244874    -0.993182 
C     -0.078048     2.509102    -1.599050 
C     -0.919803     2.427821    -0.553989 
H      0.853924     1.915312    -1.650410 
H     -0.251885     3.180325    -2.460715 
Si    -2.561609     3.361096    -0.399229 
H     -0.636598     1.739252     0.266878 
C     -2.290724     5.183587    -0.859804 
C     -3.185887     3.219245     1.383971 
C     -3.819732     2.566445    -1.575888 
H     -1.554880     5.655188    -0.176368 
H     -3.235822     5.762228    -0.797662 
H     -1.900902     5.284812    -1.893823 
H     -2.453721     3.635057     2.106744 
H     -3.359049     2.155513     1.648766 
H     -4.143558     3.763377     1.520061 
H     -3.461802     2.613564    -2.625131 
H     -4.806760     3.071316    -1.524633 
H     -3.956133     1.497478    -1.310523 
----------------------------------------
  IMAGE 5 (ANGSTROEM)
----------------------------------------
Pt     0.800964    -1.194209     0.186161 
O      1.406398    -0.110095     1.737512 
O     -2.071503    -0.846028    -0.524960 
P      2.677551     0.867936     1.709175 
P     -1.626951    -2.274451    -1.168347 
O     -2.128351    -3.443188    -0.153467 
O     -0.110074    -2.215401    -1.464286 
O      2.257707     2.142241     0.721525 
O      4.027797     0.315543     1.293657 
C      2.631412     1.609384     3.413059 
C     -2.624974    -2.604762    -2.677024 
C     -2.021781    -3.849257    -3.362534 
C     -2.476676    -1.356814    -3.572071 
C     -4.103283    -2.841898    -2.307121 
C      1.267893     2.281374     3.657770 
C      2.870354     0.472284     4.424397 
C      3.770431     2.643859     3.485648 
H     -1.793471    -3.335733     0.757179 
H      3.019173     2.291447     0.127352 
H     -0.953033    -3.697087    -3.609115 
H     -2.572226    -4.042520    -4.306275 
H     -2.108351    -4.751339    -2.724956 
H     -1.414879    -1.163453    -3.822057 
H     -2.889356    -0.452691    -3.082304 
H     -3.030958    -1.521042    -4.518323 
H     -4.230075    -3.743976    -1.678464 
H     -4.685229    -2.989047    -3.241156 
H     -4.542830    -1.976757    -1.771304 
H      0.442927     1.543936     3.605621 
H      1.071258     3.072882     2.907110 
H      1.254462     2.748701     4.665895 
H      2.063618    -0.284893     4.371176 
H      2.896482     0.884368     5.455713 
H      3.835329    -0.038836     4.232763 
H      3.604110     3.473000     2.768427 
H      4.747095     2.175623     3.251496 
H      3.822421     3.077936     4.506609 
Si     2.568607    -2.669501    -0.105026 
C      3.727479    -1.901835    -1.384529 
C      3.403142    -2.865500     1.571787 
C      1.858310    -4.329614    -0.689299 
H      4.117373    -0.949903    -0.970617 
H      3.212295    -1.707242    -2.346342 
H      4.582408    -2.585655    -1.574596 
H      2.671561    -3.121506     2.363826 
H      3.903520    -1.909739     1.827412 
H      4.157362    -3.677655     1.506449 
H      1.063269    -4.682449    -0.001051 
H      2.667654    -5.089187    -0.699928 
H      1.422233    -4.248268    -1.702970 
H     -1.196849    -0.289641    -0.581073 
C     -0.140859     2.308476    -1.514575 
C     -0.872869     2.421154    -0.522850 
H      0.662853     1.482577    -1.700632 
H     -0.106443     3.008046    -2.449136 
Si    -2.520624     3.404486    -0.386061 
H     -0.610018     1.792171     0.408122 
C     -2.224434     5.208508    -0.860874 
C     -3.206049     3.257332     1.367228 
C     -3.734273     2.592172    -1.607030 
H     -1.501683     5.676504    -0.162735 
H     -3.168700     5.788983    -0.824121 
H     -1.810002     5.292119    -1.885749 
H     -2.490795     3.663949     2.112151 
H     -3.396432     2.194669     1.627979 
H     -4.160858     3.809176     1.469140 
H     -3.342465     2.623783    -2.644965 
H     -4.716290     3.109205    -1.593958 
H     -3.901806     1.527348    -1.340457 
----------------------------------------
  IMAGE 6 (ANGSTROEM)
----------------------------------------
Pt     0.797285    -1.136759     0.160688 
O      1.426065    -0.100769     1.740257 
O     -2.246639    -0.879889    -0.514626 
P      2.686861     0.883159     1.720523 
P     -1.654342    -2.250059    -1.173945 
O     -2.071777    -3.436012    -0.147104 
O     -0.149010    -2.085723    -1.492451 
O      2.266891     2.173878     0.743078 
O      4.042177     0.350032     1.296285 
C      2.639196     1.614471     3.428957 
C     -2.630080    -2.621671    -2.681503 
C     -2.016047    -3.864309    -3.358130 
C     -2.496922    -1.380576    -3.590964 
C     -4.104282    -2.868402    -2.302891 
C      1.274027     2.280646     3.680279 
C      2.880155     0.470275     4.431934 
C      3.776039     2.650416     3.508003 
H     -1.667582    -3.305041     0.738777 
H      3.028254     2.308705     0.144135 
H     -0.949519    -3.704611    -3.610971 
H     -2.567366    -4.069811    -4.298761 
H     -2.091734    -4.762626    -2.713932 
H     -1.437786    -1.180150    -3.847239 
H     -2.918268    -0.475389    -3.109899 
H     -3.054187    -1.559436    -4.532710 
H     -4.218276    -3.766190    -1.665404 
H     -4.689380    -3.027759    -3.232472 
H     -4.545643    -2.002646    -1.769912 
H      0.450748     1.541966     3.619958 
H      1.076529     3.081309     2.939429 
H      1.258641     2.738418     4.692762 
H      2.074526    -0.287701     4.373244 
H      2.906538     0.874630     5.466292 
H      3.845550    -0.038277     4.235607 
H      3.608239     3.482880     2.795013 
H      4.752778     2.184430     3.269949 
H      3.828178     3.078805     4.531345 
Si     2.549037    -2.638495    -0.111095 
C      3.712354    -1.866776    -1.390500 
C      3.408241    -2.858165     1.552474 
C      1.847316    -4.295893    -0.719541 
H      4.108572    -0.918882    -0.973160 
H      3.197590    -1.661863    -2.350639 
H      4.566016    -2.550621    -1.589129 
H      2.683306    -3.120996     2.347938 
H      3.908459    -1.903665     1.812985 
H      4.166515    -3.666544     1.478023 
H      1.057493    -4.666177    -0.034786 
H      2.659098    -5.053360    -0.749090 
H      1.408631    -4.200126    -1.731539 
H     -1.511624    -0.217018    -0.525627 
C     -0.112108     2.106951    -1.557977 
C     -0.878146     2.432266    -0.403000 
H     -0.460055     1.669178    -2.448296 
H      0.920704     2.316660    -1.627135 
Si    -2.540770     3.303440    -0.395341 
H     -0.275921     2.500761     0.495745 
C     -2.174786     5.128568    -0.847648 
C     -3.244845     3.242464     1.357703 
C     -3.728944     2.562850    -1.658336 
H     -1.456576     5.596141    -0.142311 
H     -3.106655     5.735135    -0.820707 
H     -1.743929     5.220419    -1.866579 
H     -2.517031     3.658775     2.084189 
H     -3.456265     2.194912     1.650083 
H     -4.184461     3.827684     1.442146 
H     -3.293870     2.602307    -2.678786 
H     -4.692693     3.108264    -1.672089 
H     -3.924491     1.501593    -1.401576 
----------------------------------------
  IMAGE 7 (ANGSTROEM)
----------------------------------------
Pt     0.689935    -0.852901     0.007960 
O      1.406769     0.030869     1.675684 
O     -2.442689    -0.857727    -0.433695 
P      2.700317     0.958948     1.727862 
P     -1.794021    -2.075510    -1.115948 
O     -1.940560    -3.427598    -0.164152 
O     -0.272580    -1.852285    -1.523486 
O      2.307400     2.289526     0.774090 
O      4.046103     0.424779     1.296864 
C      2.651540     1.634400     3.459409 
C     -2.675885    -2.616356    -2.651728 
C     -2.013537    -3.858655    -3.277387 
C     -2.591484    -1.419130    -3.620691 
C     -4.142723    -2.907250    -2.276243 
C      1.280442     2.279615     3.730146 
C      2.902039     0.461894     4.427641 
C      3.781979     2.674166     3.566717 
H     -1.718621    -3.205912     0.757742 
H      3.099148     2.438200     0.220217 
H     -0.954133    -3.666784    -3.538793 
H     -2.552762    -4.129599    -4.210798 
H     -2.050595    -4.731063    -2.595806 
H     -1.538451    -1.197281    -3.886371 
H     -3.035752    -0.508586    -3.170599 
H     -3.146466    -1.650676    -4.553012 
H     -4.219943    -3.779703    -1.597908 
H     -4.726223    -3.127378    -3.194833 
H     -4.606208    -2.037461    -1.769247 
H      0.465829     1.532846     3.653704 
H      1.073191     3.094903     3.007606 
H      1.262210     2.714323     4.752233 
H      2.102268    -0.300930     4.350304 
H      2.924588     0.836472     5.473440 
H      3.871760    -0.032573     4.218442 
H      3.609717     3.522889     2.874245 
H      4.761204     2.219349     3.317870 
H      3.831209     3.077124     4.600254 
Si     2.464331    -2.438228    -0.219559 
C      3.677895    -1.699767    -1.460606 
C      3.322732    -2.735391     1.444258 
C      1.766311    -4.097153    -0.829874 
H      4.099027    -0.772175    -1.024107 
H      3.187665    -1.476595    -2.428447 
H      4.507474    -2.416997    -1.641345 
H      2.620180    -3.042741     2.243930 
H      3.857948    -1.814938     1.749585 
H      4.064740    -3.554323     1.307882 
H      1.002387    -4.503951    -0.137112 
H      2.600640    -4.831620    -0.884268 
H      1.303327    -4.004943    -1.830196 
H     -1.555974     0.686615    -0.219068 
C     -0.008457     1.562833    -1.284264 
C     -0.970663     1.747608    -0.252081 
H     -0.348818     1.196633    -2.268492 
H      1.003999     2.007013    -1.267791 
Si    -2.443989     3.116481    -0.451758 
H     -0.460469     2.129848     0.670569 
C     -1.896647     4.899223    -0.859747 
C     -3.251668     3.157055     1.253689 
C     -3.609933     2.483161    -1.778936 
H     -1.204524     5.330434    -0.108342 
H     -2.809036     5.542210    -0.854163 
H     -1.435628     5.008166    -1.861553 
H     -2.557892     3.562902     2.018242 
H     -3.563685     2.141954     1.565805 
H     -4.150790     3.810546     1.239221 
H     -3.136764     2.507060    -2.781463 
H     -4.527004     3.106361    -1.817494 
H     -3.891728     1.437775    -1.544245 
----------------------------------------
  IMAGE 8 (ANGSTROEM)
----------------------------------------
Pt     0.582288    -0.720166     0.024210 
O      1.392651     0.096413     1.682190 
O     -2.645160    -0.936566    -0.316851 
P      2.684562     1.026311     1.762238 
P     -1.907045    -2.068275    -1.034814 
O     -1.881672    -3.444972    -0.122098 
O     -0.405958    -1.730197    -1.468563 
O      2.292398     2.380685     0.855475 
O      4.033490     0.500647     1.303798 
C      2.642069     1.630999     3.514562 
C     -2.747137    -2.661065    -2.575265 
C     -2.028307    -3.888004    -3.161768 
C     -2.718223    -1.493196    -3.581481 
C     -4.199314    -3.001051    -2.186589 
C      1.262614     2.243657     3.815257 
C      2.915815     0.423947     4.431014 
C      3.758477     2.681593     3.656661 
H     -1.870307    -3.188748     0.851890 
H      3.095961     2.574266     0.332631 
H     -0.982868    -3.650007    -3.439581 
H     -2.557623    -4.221740    -4.079909 
H     -2.014493    -4.731791    -2.445349 
H     -1.679432    -1.238903    -3.870004 
H     -3.196324    -0.586106    -3.161622 
H     -3.273200    -1.779939    -4.499078 
H     -4.235917    -3.848429    -1.474200 
H     -4.773897    -3.282431    -3.093589 
H     -4.696185    -2.132914    -1.710248 
H      0.460480     1.486208     3.718653 
H      1.035477     3.079015     3.122740 
H      1.245061     2.642239     4.851749 
H      2.126765    -0.346333     4.324362 
H      2.938120     0.754583     5.490938 
H      3.892124    -0.044498     4.195020 
H      3.571369     3.554360     2.999189 
H      4.743439     2.250670     3.388225 
H      3.806353     3.044235     4.704706 
Si     2.419447    -2.254520    -0.347116 
C      3.615774    -1.433577    -1.539668 
C      3.284138    -2.631393     1.294218 
C      1.725725    -3.873600    -1.038674 
H      4.041306    -0.533070    -1.055027 
H      3.132707    -1.168487    -2.499624 
H      4.440168    -2.150372    -1.743394 
H      2.591316    -2.995074     2.077533 
H      3.816828    -1.727132     1.646522 
H      4.030174    -3.434634     1.097877 
H      0.990358    -4.331637    -0.348225 
H      2.575396    -4.580651    -1.161594 
H      1.229267    -3.725076    -2.014581 
H     -1.667855     0.704161    -0.049567 
C      0.074608     1.256585    -1.078293 
C     -0.983077     1.615501    -0.135914 
H     -0.252706     0.961182    -2.093809 
H      1.019069     1.826097    -1.048765 
Si    -2.307594     3.011596    -0.529057 
H     -0.553921     1.977905     0.822428 
C     -1.563777     4.709638    -0.893285 
C     -3.270205     3.161667     1.082894 
C     -3.411231     2.441057    -1.939274 
H     -0.879352     5.038404    -0.086652 
H     -2.392251     5.448943    -0.938212 
H     -1.027055     4.746589    -1.860075 
H     -2.615086     3.527094     1.899623 
H     -3.686800     2.179126     1.373351 
H     -4.104432     3.884175     0.973331 
H     -2.871060     2.408337    -2.906010 
H     -4.266012     3.138636    -2.046642 
H     -3.800315     1.428039    -1.718818 
----------------------------------------

  PRODUCT (ANGSTROEM)
----------------------------------------
Pt     0.406792    -0.858769     0.194102 
O      1.250555     0.014802     1.801132 
O     -2.869686    -1.287788     0.217566 
P      2.424654     1.077911     1.998944 
P     -2.087886    -2.328979    -0.565629 
O     -1.682686    -3.607839     0.430308 
O     -0.689696    -1.873706    -1.205973 
O      1.818666     2.497673     1.346841 
O      3.795804     0.792928     1.416648 
C      2.425743     1.371346     3.834872 
C     -3.012478    -3.104951    -1.975177 
C     -2.175266    -4.233310    -2.602045 
C     -3.307383    -1.997061    -3.005533 
C     -4.328020    -3.656642    -1.390751 
C      1.023068     1.790822     4.308074 
C      2.868639     0.062252     4.517028 
C      3.452317     2.488980     4.106077 
H     -2.176671    -3.476641     1.264196 
H      2.566333     2.929579     0.887990 
H     -1.228708    -3.846060    -3.027450 
H     -2.750089    -4.717873    -3.420154 
H     -1.923400    -5.009065    -1.851934 
H     -2.372258    -1.593706    -3.441985 
H     -3.863319    -1.157465    -2.541259 
H     -3.926382    -2.407041    -3.831640 
H     -4.133581    -4.456338    -0.647750 
H     -4.948501    -4.089387    -2.203695 
H     -4.910106    -2.855640    -0.893173 
H      0.277359     0.995667     4.112689 
H      0.686600     2.714079     3.795479 
H      1.040313     1.990904     5.400759 
H      2.146752    -0.756238     4.326303 
H      2.935077     0.215682     5.615177 
H      3.864484    -0.262262     4.154053 
H      3.147180     3.441053     3.626191 
H      4.454096     2.212123     3.721946 
H      3.531797     2.669490     5.198822 
Si     2.379077    -1.666706    -0.882930 
C      3.260274    -0.205902    -1.686947 
C      3.406862    -2.416669     0.511856 
C      1.915517    -2.971844    -2.165414 
H      3.597232     0.492950    -0.894843 
H      2.624472     0.318856    -2.427465 
H      4.156525    -0.592311    -2.219164 
H      2.832788    -3.140238     1.124453 
H      3.794171    -1.600426     1.153595 
H      4.264360    -2.959370     0.057392 
H      1.369923    -3.818828    -1.706542 
H      2.855468    -3.357251    -2.617218 
H      1.280808    -2.550190    -2.968050 
H     -2.057953     0.830737    -0.056778 
C     -0.035874     0.872209    -0.845121 
C     -1.178291     1.510648    -0.122071 
H     -0.277002     0.509848    -1.864238 
H      0.901029     1.459722    -0.819049 
Si    -1.784146     3.132822    -0.977464 
H     -0.880441     1.819909     0.902005 
C     -0.334226     4.349309    -1.078945 
C     -3.162974     3.835735     0.111800 
C     -2.446692     2.735346    -2.707547 
H      0.161154     4.437766    -0.090058 
H     -0.673753     5.358655    -1.390768 
H      0.428132     4.010365    -1.810589 
H     -2.789484     4.070955     1.129535 
H     -3.998467     3.113422     0.214657 
H     -3.571301     4.771046    -0.324742 
H     -1.650860     2.335914    -3.369452 
H     -2.858487     3.645292    -3.191611 
H     -3.257953     1.979699    -2.659334 



----------------------
NEB settings
----------------------
Method type                             ....  regular
Free endpoints                          ....  off 
Tangent type                            ....  improved 
Number of intermediate images           ....  7 
Number of images free to move           ....  7 
Spring type for image distribution      ....  distance between adjacent images 
Spring constant                         ....  energy weighted (0.0100 -to- 0.1000) Eh/Bohr^2 
Spring force perp. to the path          ....  none 
Generation of initial path              ....  restart (from my_molecule_MEP.allxyz) 
Initial path via TS guess               ....  off 

Minimization of RMSD: Rotation          ....  always 
Minimization of RMSD: Translation type  ....  centroid 
Center fixed to origin                  ....  true 
Remove external force                   ....  true 

Reparametrization of the path           ....  off 
Convergence thresholds:
Convergence monitored for               ....  all images
Optimization method:
Method                                  ....  L-BFGS
Max. iterations                         ....  400 
Step size                               ....  1.00 
Maximum allowed step size               ....  0.10 Bohr

LBFGS parameters: 
               Memory                   ....  20 
               Initial step size        ....  0.0010 
               Estimate curvature       ....  YES 
               Reset on maxmove         ....  YES 
               Reparam. on reset        ....  NO 
Displacement along initial path:             58.3476 Bohr
Writing initial trajectory to file      ....  my_molecule_initial_path_trj.xyz



----------------------
NEB OPTIMIZATION      
----------------------

Following output files will be written:
Energy profile during opt. written to    ....  my_molecule.interp
Optimization log-file                    ....  my_molecule.NEB.log
Current trajectory will be written to    ....  my_molecule_MEP_trj.xyz
       and to allxyz file                ....  my_molecule_MEP.allxyz
       and individual images to xyz file ....  my_molecule_im{NIm}.xyz
Trajectory history will be written to    ....  my_molecule_MEP_ALL_trj.xyz
Highest energy image will be written to  ....  my_molecule_NEB-HEI_converged.xyz
Converged TS will be written to          ....  my_molecule_NEB-TS_converged.xyz

Single point energy and gradient calculation of reactant and
product configurations (have to be performed only once)


           ************************************************************
           *        Program running with 28 parallel MPI-processes    *
           *              working on a common directory               *
           ************************************************************

------------------------------------------------------------------------------
                         ORCA PROPERTY INTEGRAL CALCULATIONS
------------------------------------------------------------------------------

GBWName                                   ... my_molecule_im0.gbw
Number of atoms                           ...     69
Number of basis functions                 ...    622
Max core memory                           ...   1900 MB

Dipole integrals                          ... YES
Quadrupole integrals                      ...  NO
Linear momentum integrals                 ...  NO
Angular momentum integrals                ...  NO
Higher moments length integrals           ...  NO
Higher moments velocity integrals         ...  NO
Kinetic energy integrals                  ...  NO
GIAO right hand sides                     ...  NO
GIAO dipole derivative integrals          ...  NO
SOC integrals                             ...  NO
EPR diamagnetic integrals (GIAO)          ...  NO
EPR gauge integrals                       ...  NO
Field gradient integrals                  ...  NO (   0 nuclei)
Spin-dipole/Fermi contact integrals       ...  NO (   0 nuclei)
Contact density integrals                 ...  NO (   0 nuclei)
Nucleus-orbit integrals                   ...  NO (   0 nuclei)
Geometric perturbations                   ... YES (  69 nuclei)

Choice of electric origin   ... Center of mass
Position of electric origin ... (  0.8033, -0.9737, -0.2979) 
Choice of magnetic origin   ... GIAO
Position of magnetic origin ... (  0.0000,  0.0000,  0.0000) 

Calculating integrals                     ... Electric Dipole (Length)     done (  0.4 sec)
Calculating integrals                     ... Geometrical perturbation right hand sides

-----------------------
GEOMETRIC PERTURBATIONS (69 nuclei)
-----------------------

MaxCore                            ...   1900 MB
Number of batches                  ...      2

BATCH   0: Atoms    0 -   41 (126 perturbations)
   => H(core) and overlap derivative integrals     ... done (     8.0 sec)
   => Making and storing internal U-coefficients   ... done (     0.3 sec)
   => RI-J derivative integrals                    ... done (    17.1 sec)
   => RI-J response operators                      ... done (     4.3 sec)
   => ECP derivative integrals                     ... done (   216.1 sec)
   => XC derivative integrals                      ... done (    47.3 sec)
   => XC response operators                        ... done (    21.1 sec)
   => Completing and storing right hand sides      ... done (     0.1 sec)
BATCH   1: Atoms   42 -   68 ( 81 perturbations)
   => H(core) and overlap derivative integrals     ... done (     2.7 sec)
   => Making and storing internal U-coefficients   ... done (     0.2 sec)
   => RI-J derivative integrals                    ... done (    10.5 sec)
   => RI-J response operators                      ... done (     3.1 sec)
   => ECP derivative integrals                     ... done (   140.3 sec)
   => XC derivative integrals                      ... done (    25.2 sec)
   => XC response operators                        ... done (    12.9 sec)
   => Completing and storing right hand sides      ... done (     0.1 sec)
   => Total time for right hand sides = 515.1 sec

  geometrical perturbations done (515.2 sec)

Property integrals calculated in 515.7 sec

Maximum memory used throughout the entire PROPINT-calculation: 1662.7 MB


           ************************************************************
           *        Program running with 28 parallel MPI-processes    *
           *              working on a common directory               *
           ************************************************************

------------------------------------------------------------------------------
                         ORCA PROPERTY INTEGRAL CALCULATIONS
------------------------------------------------------------------------------

GBWName                                   ... my_molecule_im8.gbw
Number of atoms                           ...     69
Number of basis functions                 ...    622
Max core memory                           ...   1900 MB

Dipole integrals                          ... YES
Quadrupole integrals                      ...  NO
Linear momentum integrals                 ...  NO
Angular momentum integrals                ...  NO
Higher moments length integrals           ...  NO
Higher moments velocity integrals         ...  NO
Kinetic energy integrals                  ...  NO
GIAO right hand sides                     ...  NO
GIAO dipole derivative integrals          ...  NO
SOC integrals                             ...  NO
EPR diamagnetic integrals (GIAO)          ...  NO
EPR gauge integrals                       ...  NO
Field gradient integrals                  ...  NO (   0 nuclei)
Spin-dipole/Fermi contact integrals       ...  NO (   0 nuclei)
Contact density integrals                 ...  NO (   0 nuclei)
Nucleus-orbit integrals                   ...  NO (   0 nuclei)
Geometric perturbations                   ... YES (  69 nuclei)

Choice of electric origin   ... Center of mass
Position of electric origin ... (  0.3275, -0.6213,  0.2590) 
Choice of magnetic origin   ... GIAO
Position of magnetic origin ... (  0.0000,  0.0000,  0.0000) 

Calculating integrals                     ... Electric Dipole (Length)     done (  0.4 sec)
Calculating integrals                     ... Geometrical perturbation right hand sides

-----------------------
GEOMETRIC PERTURBATIONS (69 nuclei)
-----------------------

MaxCore                            ...   1900 MB
Number of batches                  ...      2

BATCH   0: Atoms    0 -   41 (126 perturbations)
   => H(core) and overlap derivative integrals     ... done (     6.8 sec)
   => Making and storing internal U-coefficients   ... done (     0.2 sec)
   => RI-J derivative integrals                    ... done (    15.9 sec)
   => RI-J response operators                      ... done (     4.3 sec)
   => ECP derivative integrals                     ... done (   220.6 sec)
   => XC derivative integrals                      ... done (    47.9 sec)
   => XC response operators                        ... done (    21.9 sec)
   => Completing and storing right hand sides      ... done (     0.1 sec)
BATCH   1: Atoms   42 -   68 ( 81 perturbations)
   => H(core) and overlap derivative integrals     ... done (     2.8 sec)
   => Making and storing internal U-coefficients   ... done (     0.1 sec)
   => RI-J derivative integrals                    ... done (    10.5 sec)
   => RI-J response operators                      ... done (     2.9 sec)
   => ECP derivative integrals                     ... done (   143.0 sec)
   => XC derivative integrals                      ... done (    28.4 sec)
   => XC response operators                        ... done (    14.1 sec)
   => Completing and storing right hand sides      ... done (     0.1 sec)
   => Total time for right hand sides = 525.5 sec

  geometrical perturbations done (525.5 sec)

Property integrals calculated in 526.0 sec

Maximum memory used throughout the entire PROPINT-calculation: 1666.5 MB
Properties of fixed NEB end points:
               Reactant:
                         E               ....  -2464.517688 Eh
                         RMS(F)          ....      0.000024 Eh/Bohr
                         MAX(|F|)        ....      0.000112 Eh/Bohr
               Product:
                         E               ....  -2464.548126 Eh
                         RMS(F)          ....      0.000073 Eh/Bohr
                         MAX(|F|)        ....      0.000438 Eh/Bohr



Starting iterations:

Optim.  Iteration  HEI  E(HEI)-E(0)  max(|Fp|)   RMS(Fp)    dS
   LBFGS     0      4    0.039392    0.167043   0.007079  58.3476       
   LBFGS     1      3    0.030428    0.034588   0.002001  58.2742       
   LBFGS     2      3    0.030354    0.044773   0.002324  58.3009       
   LBFGS     3      4    0.032472    0.097579   0.005023  58.3747       
   LBFGS     4      6    0.033194    0.035583   0.002200  58.3665       
   LBFGS     5      6    0.035377    0.098891   0.004634  58.4522       
   LBFGS     6      6    0.039189    0.060944   0.003441  58.5738       
   LBFGS     7      6    0.043034    0.031565   0.001827  58.7286       
   LBFGS     8      6    0.047267    0.056315   0.002695  58.9262       
   LBFGS     9      6    0.044510    0.035567   0.001841  58.9387       
   LBFGS    10      6    0.041373    0.050513   0.002319  58.9471       
   LBFGS    11      6    0.037513    0.044870   0.002098  59.0639       
   LBFGS    12      6    0.036279    0.066649   0.002928  59.0507       
   LBFGS    13      6    0.035744    0.024487   0.001509  59.0498       
   LBFGS    14      6    0.034269    0.022711   0.001074  59.0828       
   LBFGS    15      6    0.033517    0.024409   0.001574  59.3067       
   LBFGS    16      6    0.033557    0.013778   0.000897  59.3980       
   LBFGS    17      6    0.033900    0.018944   0.001287  59.6070       
   LBFGS    18      6    0.034496    0.039574   0.001987  59.7442       
   LBFGS    19      6    0.034900    0.026860   0.001465  59.8359       
   LBFGS    20      6    0.036353    0.016180   0.000992  60.1976       
   LBFGS    21      6    0.036024    0.017532   0.000999  60.2909       
   LBFGS    22      6    0.035791    0.016166   0.000831  60.3795       
   LBFGS    23      6    0.035286    0.008950   0.000718  60.7261       
   LBFGS    24      6    0.035302    0.012468   0.001029  60.7718       
   LBFGS    25      6    0.035273    0.007531   0.000573  60.8097       
   LBFGS    26      6    0.035264    0.012263   0.000702  60.9231       
   LBFGS    27      6    0.035390    0.015288   0.000993  61.3018       
   LBFGS    28      6    0.035392    0.010316   0.000664  61.3335       
   LBFGS    29      6    0.035409    0.007867   0.000497  61.3502       
   LBFGS    30      6    0.035544    0.013181   0.000577  61.4375       
   LBFGS    31      6    0.035593    0.009716   0.000641  61.5322       
   LBFGS    32      6    0.035859    0.011375   0.000759  61.8335       
   LBFGS    33      6    0.035926    0.008239   0.000610  62.2437       
   LBFGS    34      6    0.035908    0.023851   0.001372  62.6522       
   LBFGS    35      6    0.035800    0.004819   0.000373  62.6394       
   LBFGS    36      6    0.035738    0.005532   0.000382  62.6247       
   LBFGS    37      6    0.035446    0.006751   0.000407  62.5735       
   LBFGS    38      6    0.035253    0.004773   0.000399  62.5607       
   LBFGS    39      6    0.034853    0.004829   0.000339  62.5439       
   LBFGS    40      6    0.034692    0.006127   0.000527  62.5781       
   LBFGS    41      6    0.034678    0.004836   0.000397  62.6447       
   LBFGS    42      6    0.034874    0.006781   0.000455  62.7495       

Possible intermediate minimum found at image(s): 5 
  => have a look at the .interp file.
  => it is often a good idea to divide the path calculation into smaller fragments. 

   LBFGS    43      6    0.035252    0.011120   0.000658  62.8769       
   LBFGS    44      6    0.035606    0.008328   0.000529  63.0072       
   LBFGS    45      6    0.035663    0.006666   0.000378  63.1393       
   LBFGS    46      6    0.035355    0.009900   0.000585  63.2540       
   LBFGS    47      6    0.035036    0.011243   0.000489  63.3389       
   LBFGS    48      6    0.034545    0.007320   0.000539  63.7749       
   LBFGS    49      6    0.034390    0.007281   0.000666  64.1264       
   LBFGS    50      6    0.034181    0.009756   0.000861  64.7530       
   LBFGS    51      6    0.034131    0.011020   0.000860  64.7289       
   LBFGS    52      6    0.034079    0.007025   0.000383  64.7250       
   LBFGS    53      6    0.034023    0.004407   0.000378  64.7148       
   LBFGS    54      6    0.033974    0.003090   0.000292  64.7245       
   LBFGS    55      6    0.033830    0.007999   0.000324  64.7517       
   LBFGS    56      6    0.033686    0.009459   0.000525  64.7933       
   LBFGS    57      6    0.033616    0.005112   0.000342  64.8190       
   LBFGS    58      6    0.033517    0.007216   0.000335  64.8693       
   LBFGS    59      6    0.033518    0.004536   0.000237  64.8776       
   LBFGS    60      6    0.033503    0.002774   0.000202  64.9347       
   LBFGS    61      6    0.033517    0.006344   0.000367  65.0136       
   LBFGS    62      6    0.033570    0.011037   0.000448  65.1961       
   LBFGS    63      6    0.033698    0.011713   0.000652  65.4200       
   LBFGS    64      6    0.033624    0.004836   0.000351  65.5111       
   LBFGS    65      6    0.033531    0.014570   0.000653  65.4612       
   LBFGS    66      6    0.033455    0.006276   0.000396  65.4149       
   LBFGS    67      6    0.033351    0.001929   0.000181  65.3615       
   LBFGS    68      6    0.033193    0.003815   0.000247  65.3930       
   LBFGS    69      6    0.032661    0.008510   0.000606  65.6495       
   LBFGS    70      6    0.032112    0.010147   0.000645  66.0348       
   LBFGS    71      6    0.031521    0.008279   0.000718  66.4849       
   LBFGS    72      6    0.031410    0.005880   0.000464  66.4924       
   LBFGS    73      6    0.031351    0.003861   0.000351  66.4922       

Possible intermediate minimum found at image(s): 5 
  => have a look at the .interp file.
  => it is often a good idea to divide the path calculation into smaller fragments. 

   LBFGS    74      6    0.031088    0.007022   0.000356  66.4770       
   LBFGS    75      6    0.030945    0.003457   0.000310  66.4684       
   LBFGS    76      6    0.030636    0.003854   0.000290  66.4487       
   LBFGS    77      6    0.029728    0.007392   0.000590  66.4252       
   LBFGS    78      6    0.029390    0.019364   0.000916  66.4680       
   LBFGS    79      6    0.028669    0.009368   0.000490  66.4856       
   LBFGS    80      6    0.027372    0.026790   0.001513  66.5783       
   LBFGS    81      6    0.026542    0.050817   0.002644  66.7060       
   LBFGS    82      6    0.023549    0.037932   0.001966  66.7627       
   LBFGS    83      3    0.022398    0.022418   0.001234  66.7514       
   LBFGS    84      3    0.022933    0.043305   0.002555  66.7342       
   LBFGS    85      3    0.023184    0.092655   0.004157  66.7452       
   LBFGS    86      5    0.033779    0.122659   0.005771  66.7211       
   LBFGS    87      5    0.025352    0.045493   0.002560  66.5821       
   LBFGS    88      5    0.032905    0.058521   0.003717  66.3665       
   LBFGS    89      5    0.043261    0.079900   0.004248  65.9717       
   LBFGS    90      5    0.065310    0.165681   0.007365  65.6288       
   LBFGS    91      5    0.048167    0.045412   0.003201  65.5032       
   LBFGS    92      5    0.054660    0.079473   0.003820  65.3494       
   LBFGS    93      5    0.062578    0.072063   0.003963  65.1621       
   LBFGS    94      5    0.078660    0.137603   0.005774  65.0002       
   LBFGS    95      5    0.072191    0.041021   0.003005  64.9141       
   LBFGS    96      5    0.084980    0.105057   0.004346  64.8028       
   LBFGS    97      5    0.093312    0.087078   0.004265  64.7039       
   LBFGS    98      5    0.112760    0.160061   0.006248  64.6273       
   LBFGS    99      5    0.101827    0.041601   0.002827  64.6069       
   LBFGS   100      5    0.114841    0.105308   0.004167  64.5697       
   LBFGS   101      5    0.120841    0.075245   0.003916  64.5236       
   LBFGS   102      5    0.138252    0.148158   0.005818  64.5004       
   LBFGS   103      5    0.127447    0.055487   0.002813  64.5135       
   LBFGS   104      5    0.136533    0.109883   0.004180  64.5312       
   LBFGS   105      5    0.135793    0.064384   0.003452  64.5234       
   LBFGS   106      5    0.143754    0.110738   0.004868  64.5463       
   LBFGS   107      5    0.135207    0.063224   0.003164  64.5935       
   LBFGS   108      5    0.137821    0.113054   0.004194  64.6514       
   LBFGS   109      5    0.131353    0.063351   0.003027  64.6722       
   LBFGS   110      5    0.132904    0.081665   0.004129  64.7444       
   LBFGS   111      5    0.125342    0.081773   0.003388  64.8565       
   LBFGS   112      5    0.126526    0.129107   0.004536  64.9904       
   LBFGS   113      5    0.115372    0.049049   0.002522  65.0533       
   LBFGS   114      5    0.118850    0.086583   0.004168  65.2434       
   LBFGS   115      5    0.107716    0.049319   0.002857  65.4749       
   LBFGS   116      5    0.129167    0.210431   0.007369  65.8398       
   LBFGS   117      5    0.103478    0.069452   0.003394  65.8472       
   LBFGS   118      5    0.101055    0.053907   0.003201  65.8826       
   LBFGS   119      5    0.094664    0.043797   0.002829  65.9119       
   LBFGS   120      5    0.094664    0.043794   0.002829  65.9119       
   LBFGS   121      5    0.090388    0.044315   0.002870  65.8687       
   LBFGS   122      5    0.090388    0.044315   0.002870  65.8687       
   LBFGS   123      5    0.085945    0.044622   0.002945  65.7941       
   LBFGS   124      5    0.085945    0.044623   0.002945  65.7941       
   LBFGS   125      5    0.081293    0.045126   0.003045  65.7036       
   LBFGS   126      5    0.081293    0.045128   0.003045  65.7036       
   LBFGS   127      5    0.076488    0.045957   0.003171  65.6073       
   LBFGS   128      5    0.076488    0.045963   0.003171  65.6073       
   LBFGS   129      7    0.074532    0.047146   0.003323  65.5122       
   LBFGS   130      7    0.074532    0.047153   0.003323  65.5122       
   LBFGS   131      7    0.080526    0.047950   0.003471  65.4234       
   LBFGS   132      7    0.082686    0.045669   0.003430  65.3259       
   LBFGS   133      7    0.086823    0.047079   0.003501  65.2687       
   LBFGS   134      7    0.087015    0.047217   0.003429  65.1793       
   LBFGS   135      7    0.090442    0.048243   0.003485  65.1483       
   LBFGS   136      7    0.090172    0.048104   0.003426  65.0777       
   LBFGS   137      7    0.093195    0.048845   0.003469  65.0692       
   LBFGS   138      7    0.092869    0.048647   0.003432  65.0203       
   LBFGS   139      7    0.095621    0.049128   0.003445  65.0318       
   LBFGS   140      7    0.095630    0.049038   0.003470  65.0137       
   LBFGS   141      7    0.098113    0.049265   0.003424  65.0463       
   LBFGS   142      7    0.099096    0.049336   0.003534  65.0136       
   LBFGS   143      7    0.101299    0.049479   0.003389  64.9239       
   LBFGS   144      7    0.100729    0.056341   0.003793  64.6684       
   LBFGS   145      7    0.102576    0.049015   0.003153  64.5473       
   LBFGS   146      7    0.103027    0.048830   0.003117  64.4184       
   LBFGS   147      7    0.102930    0.048503   0.003061  64.2835       
   LBFGS   148      7    0.096551    0.052958   0.003568  64.0170       
   LBFGS   149      7    0.095433    0.046128   0.003114  63.8858       
   LBFGS   150      7    0.094157    0.045300   0.003381  63.7848       
   LBFGS   151      7    0.090459    0.044464   0.003054  63.7438       
   LBFGS   152      7    0.086485    0.043156   0.002951  63.7543       
   LBFGS   153      7    0.081704    0.041415   0.002729  63.7801       
   LBFGS   154      7    0.073757    0.040746   0.003041  63.7962       
   LBFGS   155      7    0.067588    0.036801   0.002635  63.8960       
   LBFGS   156      7    0.062335    0.042901   0.002671  63.9651       
   LBFGS   157      7    0.058111    0.048904   0.002777  63.9266       
   LBFGS   158      7    0.058111    0.048903   0.002777  63.9266       
   LBFGS   159      7    0.054536    0.052142   0.002980  63.8226       
   LBFGS   160      7    0.054536    0.052142   0.002980  63.8226       
   LBFGS   161      5    0.058887    0.052648   0.003271  63.6666       
   LBFGS   162      5    0.058887    0.052648   0.003271  63.6666       
   LBFGS   163      5    0.068962    0.051810   0.003594  63.4872       
