69
Coordinates from ORCA-job my_molecule_im5 E -2464.448726123537
  Pt          0.75573616471258     -1.14563185518251      0.18620365435530
  O           1.41772998904243     -0.12186804245487      1.76480259828809
  O          -2.22384636302997     -0.73362786167786     -0.53466786845792
  P           2.67383881130873      0.85905720276853      1.74223721246737
  P          -1.68016987364914     -2.14580970751022     -1.15028073386054
  O          -2.09580966829799     -3.30337081919582     -0.09220017625812
  O          -0.17287101690825     -2.06902429219232     -1.47683726418634
  O           2.25001210612877      2.16011730472577      0.76265359590845
  O           4.03186517329338      0.34109505402546      1.30905620174497
  C           2.63291286438361      1.58787591318774      3.44863670168927
  C          -2.66005354461067     -2.58435492160669     -2.64790258231513
  C          -2.04131233193250     -3.84778829889179     -3.28138959672941
  C          -2.54498648501838     -1.38476306202623     -3.60928954363646
  C          -4.12786732437684     -2.82501310420079     -2.24905549494656
  C           1.26725940240062      2.24985504723168      3.70336376030105
  C           2.87662552961446      0.44202843267950      4.44812764389140
  C           3.77008882062649      2.62171720239701      3.52974702349768
  H          -1.73967463352779     -3.13533637149114      0.80320701471808
  H           3.01659360689781      2.29677003365773      0.17219928614509
  H          -0.98159433965929     -3.68655783312744     -3.55762464646915
  H          -2.60056162308421     -4.10380548114756     -4.20548911425008
  H          -2.09780076000259     -4.71627203049307     -2.59746247420422
  H          -1.49013142449858     -1.17835143533941     -3.87735471108700
  H          -2.98124865027489     -0.47085175177737     -3.16137615291228
  H          -3.10099165408523     -1.60946582033734     -4.54197738942294
  H          -4.23103933472493     -3.69341262937710     -1.57122146422899
  H          -4.72433075034323     -3.02350107897948     -3.16321348160093
  H          -4.55940354884119     -1.93807319020613     -1.74515063867383
  H           0.44531768218541      1.51033436509273      3.63859817805699
  H           1.06862382636875      3.05393474419106      2.96694795141001
  H           1.25209063772134      2.70248175744649      4.71755136829173
  H           2.07100416030813     -0.31552751946472      4.39093752614485
  H           2.90544626531224      0.84725378205830      5.48171140135103
  H           3.84246338359611     -0.06435177564731      4.24966998263546
  H           3.60411802409058      3.45376476064790      2.81643379620604
  H           4.74680937005520      2.15463032220843      3.29440427441012
  H           3.82047174362887      3.04964324031163      4.55296413212719
  Si          2.53818011339094     -2.58733956903747     -0.14958648827546
  C           3.74714984946999     -1.78962266230710     -1.36431046500337
  C           3.35160013241239     -2.86700624701805      1.52287000926618
  C           1.84539213913187     -4.21498151910046     -0.82504150658716
  H           4.14440200497252     -0.86157170446756     -0.90662386858098
  H           3.27623990803559     -1.56136509706576     -2.34071911049323
  H           4.59477341179198     -2.48706162903100     -1.53931329055313
  H           2.59874995450125     -3.15203071665256      2.28310940012502
  H           3.85492094863852     -1.92911862951136      1.83006136942179
  H           4.10127477118616     -3.67966289869834      1.43184459900226
  H           1.05148651412630     -4.60064705126636     -0.15475128681237
  H           2.66519185067532     -4.96129578070440     -0.86690969540546
  H           1.41072366167535     -4.08927200616152     -1.83484264715474
  H          -1.51053846357884      0.00830153621397     -0.47971383283684
  C          -0.12460231947545      1.94240416925421     -1.58177294458643
  C          -0.78696442905639      2.33632487185489     -0.44036343246398
  H          -1.01394315518532      1.87455176078149     -2.63328062334469
  H           1.22159910117994      1.87542265336073     -1.34238318502153
  Si         -2.46774655552059      3.20463545046162     -0.44348364941207
  H          -0.14823008864515      2.73047532645433      0.43619372308836
  C          -2.09137238277676      5.00991544776975     -0.88936419901990
  C          -3.17118630239408      3.20776620370914      1.29905205360632
  C          -3.67551813597976      2.49237434810789     -1.70380792571010
  H          -1.39283787965542      5.50226465426045     -0.18304675786699
  H          -3.03749901606867      5.58367822661942     -0.84080610382658
  H          -1.68527580037350      5.12627189526657     -1.91331513659901
  H          -2.43830022927057      3.64303113712608      2.00917215219570
  H          -3.38425942623525      2.16779479932337      1.60521978914282
  H          -4.10065058478804      3.80532890970689      1.36979975781393
  H          -3.26121173249434      2.54219349400726     -2.73171851584443
  H          -4.62886625233807      3.05917686808144     -1.69101284392452
  H          -3.87799584216176      1.43526347835963     -1.44811531473967
