69
Coordinates from ORCA-job my_molecule_im7 E -2464.468891936895
  Pt          0.33529874308192     -0.91208817166840      0.42209521993714
  O           1.33794154470630      0.30722353110556      1.72766645964636
  O          -3.30083589672744     -1.29498062777775     -0.01528836928465
  P           2.63423513988035      1.23514519714768      1.83194075981541
  P          -2.27959690954709     -2.08246805052361     -0.81709969515271
  O          -1.72459482903596     -3.33328040035343      0.15317469906385
  O          -0.86968518177529     -1.49103303447839     -1.23674789425037
  O           2.29231141731210      2.71157064225111      1.09503423068350
  O           3.96562452273591      0.74105257437808      1.29807684154758
  C           2.59336751978923      1.61867877258145      3.64795799211643
  C          -2.98043133196606     -2.79594809179029     -2.38330464943720
  C          -2.08953200462189     -3.95483064480635     -2.85668451701791
  C          -3.07600263958185     -1.69894695870412     -3.46545773003554
  C          -4.38515482614336     -3.27428898499293     -1.98449927923866
  C           1.19990382089267      2.14435533154541      4.03471083936180
  C           2.90564920618855      0.30886706293767      4.39913295897174
  C           3.68086228609019      2.67326023541858      3.91723164057041
  H          -2.35169014040306     -3.26940920832281      0.89941816738263
  H           3.12017911576400      2.99888570221483      0.65243823601780
  H          -1.08752336876658     -3.59014606372993     -3.15559326103031
  H          -2.54868034167750     -4.46330184589308     -3.72962840755915
  H          -1.94714802306573     -4.70367240540894     -2.05311681361750
  H          -2.07582342607708     -1.36969359139431     -3.80924086242803
  H          -3.62483593633003     -0.80453208850622     -3.10790495190041
  H          -3.62741596633677     -2.09929846491270     -4.34405740014707
  H          -4.31322845853196     -4.04903687959549     -1.19538400943780
  H          -4.91781330388953     -3.70641209944272     -2.85593664968368
  H          -4.96721327764851     -2.42626666103781     -1.57490939221905
  H           0.42287118504582      1.37503801698903      3.85969090994266
  H           0.93218193290111      3.04706337880782      3.44938886677132
  H           1.18730213970075      2.41445884120516      5.11168359141224
  H           2.13295007029404     -0.46314306468734      4.21083379176018
  H           2.93391442477218      0.50737863030456      5.49105215201784
  H           3.88797714681498     -0.10687526908260      4.09827574800634
  H           3.46584893680978      3.61455818451967      3.37272216761424
  H           4.67514317112863      2.30421144513536      3.59585586948810
  H           3.72677921374168      2.90545548425723      5.00193153452050
  Si          2.21788591599219     -1.72052645794535     -0.67857089594943
  C           3.39804350660969     -0.67969833583456     -1.68903909997861
  C           3.10215123121066     -2.31579411024446      0.83626996985574
  C           1.57351921313458     -3.15548090462151     -1.66903211594473
  H           3.87520607404282      0.10211943643409     -1.06981521997628
  H           3.00593840693555     -0.30967215763158     -2.65229153421253
  H           4.18584042944765     -1.43279067088955     -1.91295786918472
  H           2.38703626247468     -2.80672437161691      1.52131937258195
  H           3.60770314565810     -1.46316178520543      1.32956278552066
  H           3.83141856235286     -3.05365654926813      0.45871706759338
  H           0.90228109549211     -3.74683701225175     -1.02113751284644
  H           2.50167647354855     -3.71950077311106     -1.88290351107298
  H           1.03278260874204     -2.91546612183258     -2.60083655030441
  H          -1.96910132390745      0.81509790313254      0.50375678196106
  C           0.14693957053770      0.74660662636299     -0.59984323423401
  C          -1.02490854790261      1.31585667201179      0.16770276121543
  H           0.14244312814909      0.13435085816508     -1.53043158386196
  H           1.03158204382483      1.40115745104368     -0.48404406777603
  Si         -1.85883169494778      2.73609570504071     -0.71448150007987
  H          -0.64858016378544      1.67130854484032      1.14746819433365
  C          -0.57135022199895      4.06777327549363     -1.03153219002663
  C          -3.10541501545764      3.25542833689349      0.59360421468331
  C          -2.82473995478462      2.26896212063640     -2.27027403009884
  H           0.09916617451782      4.16732670443945     -0.15207302330764
  H          -1.10934790713380      5.02107863929684     -1.18515282644998
  H           0.05687854983781      3.85880316414742     -1.92131366753581
  H          -2.57427245220966      3.51608542916545      1.53124091028950
  H          -3.82094540900440      2.43660307335568      0.82583096934524
  H          -3.67237913642882      4.13524500548778      0.23965266526125
  H          -2.22529816548030      2.10878417848806     -3.18576155748864
  H          -3.46827447536947      3.15396572960385     -2.45185682925260
  H          -3.48818359962232      1.38910997272366     -2.13723566726708
