66
Coordinates from ORCA-job my_molecule E -2537.143798096985
  O          -2.41556401152803      0.23246957995353     -0.04031071768013
  Si         -1.54952142260919      1.37879608688913      0.83138578417275
  Si         -2.45438881787438     -1.35894123669598     -0.59219752435818
  C          -2.69123422255030      2.86786643120367      1.07323490872203
  C          -3.90829099078002      3.07469499901487      0.34554063556597
  C          -3.39591926138657     -1.34773666716755     -2.22094029143242
  C          -3.88764313102991     -0.23589573610851     -2.80528359136218
  C          -0.99015751945747      0.67500254730600      2.49255375152847
  C          -0.04674096793506      1.93459632504751     -0.17385993163884
  C          -0.69450608236103     -1.99437924449132     -0.87676689917754
  C          -3.34394710148658     -2.44023935879343      0.67192319596597
  H          -2.19424971481499      3.77931777067730      1.46851402361494
  H          -4.26868791156779      2.32013595949418     -0.37620842429054
  H          -4.29573013376140      4.09411714787569      0.16539956366126
  H          -3.55479270531149     -2.31627789358111     -2.73569539118126
  H          -3.76049087250455      0.75677077880828     -2.33923141345015
  H          -4.43387813623287     -0.26119923935193     -3.76485327711791
  H          -1.85427959672108      0.26455215993030      3.05349828985224
  H          -0.52202550945258      1.46365789160243      3.11783167610619
  H          -0.24419887327873     -0.13541191261950      2.35676641728651
  H          -0.35751535369736      2.31607929986032     -1.16778419085161
  H           0.66003749155492      1.09430400218044     -0.33445098984863
  H           0.50454077227717      2.74573548615564      0.34595825292535
  H          -0.14514072204555     -1.34512801380561     -1.58858535312313
  H          -0.71118763788202     -3.02048880047559     -1.30002852475318
  H          -0.12037897178540     -2.03420845684769      0.07252613232920
  H          -4.34871012423051     -2.01944260669585      0.87992441929092
  H          -2.78012367615974     -2.48737144428955      1.62655436132933
  H          -3.46684290456319     -3.47763663758263      0.29707539595878
  Pt         -4.34699945287233      2.49979340962680      2.29937384545440
  O          -8.00966806458324      1.20287957755546      2.10864256739713
  O          -8.10263857838875      0.02522909537466      3.04137837732521
  P          -7.31047773217949      0.77911096718312      0.61861807839473
  P          -7.89380619443143      0.59577294515870      4.61629732536222
  O          -8.18285976896284     -0.85478756227850      5.33003215526233
  O          -8.76168595515627      1.74392169607036      5.02521854371940
  O          -5.88741766375032      0.07416393256282      0.97150501883567
  O          -7.28245508370448      2.08943951281554     -0.11829901656022
  C          -8.31101456113161     -0.57406536045145     -0.15558173824953
  C          -6.06855878987881      0.81106130827658      4.89559956226415
  C          -5.87340096476750      0.96465498218773      6.42036214980975
  C          -5.64858884859001      2.13465230914279      4.20586948317001
  C          -5.29285049493599     -0.40369147469540      4.36148832600370
  C          -8.07660890776379     -1.94171940934400      0.51178924200067
  C          -9.78967183246214     -0.14825765578918     -0.04679506658619
  C          -7.86721182597203     -0.61044395731841     -1.63554447581641
  H          -9.13273625688183     -0.90886483135322      5.56117574949423
  H          -5.23164856177077      0.78083502675392      1.31883812206446
  H          -6.48173700810379      1.79857675676051      6.82325679492344
  H          -4.80470523333659      1.17131087662248      6.63925778290473
  H          -6.16063388138270      0.03655192538935      6.95171345184399
  H          -6.06672887281032      3.02114656144845      4.71998958476950
  H          -6.08469636370643      2.19452876911548      3.14671124942545
  H          -4.51227309493001      2.23140282791536      4.29085175346322
  H          -5.62263677418422     -1.33176551746734      4.86781928880127
  H          -4.20904705024532     -0.26776153988145      4.56148787917923
  H          -5.43033259331176     -0.53443619403186      3.27210832648194
  H          -8.35979542584765     -1.93307601836851      1.58131659104020
  H          -7.01754188064202     -2.25551403754854      0.43488482966599
  H          -8.69809526178311     -2.70262922154021     -0.00636836003463
  H         -10.13247666209038     -0.13455796457962      1.00615594017224
  H         -10.41927121248910     -0.86861627559571     -0.60962054328699
  H          -9.95200497035268      0.86058539567415     -0.47630709073883
  H          -6.79885043008175     -0.89060597238101     -1.73644114105470
  H          -8.01088876877377      0.37433974833359     -2.12160514984274
  H          -8.47435686856660     -1.36528384883666     -2.17802972510399
