66
Coordinates from ORCA-job my_molecule E -2537.143793297310
  O      -2.417531      0.233185     -0.037261
  Si     -1.550301      1.379182      0.833759
  Si     -2.457963     -1.357215     -0.591131
  C      -2.691753      2.869127      1.072756
  C      -3.907442      3.074988      0.342932
  C      -3.403320     -1.344043     -2.217526
  C      -3.894194     -0.231187     -2.800748
  C      -0.992037      0.676756      2.495624
  C      -0.047206      1.933060     -0.171976
  C      -0.698835     -1.992354     -0.880344
  C      -3.345340     -2.439891      0.673471
  H      -2.195528      3.781046      1.467900
  H      -4.267416      2.319647     -0.378200
  H      -4.295651      4.094012      0.162026
  H      -3.565544     -2.312350     -2.731667
  H      -3.763859      0.761387     -2.335275
  H      -4.443390     -0.255730     -3.758668
  H      -1.856615      0.267983      3.057085
  H      -0.523512      1.465966      3.119953
  H      -0.246540     -0.134317      2.361335
  H      -0.357801      2.314429     -1.166031
  H       0.658496      1.091890     -0.332818
  H       0.505429      2.743968      0.346757
  H      -0.151494     -1.342981     -1.593581
  H      -0.717194     -3.018309     -1.303976
  H      -0.122181     -2.032982      0.067359
  H      -4.348971     -2.018136      0.885025
  H      -2.779497     -2.489018      1.626840
  H      -3.470392     -3.476702      0.297749
  Pt     -4.349894      2.502229      2.297177
  O      -8.011005      1.199530      2.109683
  O      -8.105839      0.023452      3.044245
  P      -7.310087      0.776665      0.620175
  P      -7.892832      0.597695      4.617459
  O      -8.183791     -0.850335      5.335326
  O      -8.757492      1.748734      5.025000
  O      -5.886703      0.072699      0.973976
  O      -7.281572      2.087633     -0.115653
  C      -8.308189     -0.576090     -0.156972
  C      -6.066789      0.810386      4.894184
  C      -5.870000      0.963816      6.418768
  C      -5.645609      2.133500      4.204282
  C      -5.293543     -0.405796      4.359675
  C      -8.076514     -1.943154      0.512518
  C      -9.787135     -0.149809     -0.054538
  C      -7.858370     -0.613541     -1.635240
  H      -9.133489     -0.902349      5.567615
  H      -5.230954      0.780885      1.318664
  H      -6.478030      1.797646      6.822324
  H      -4.801097      1.170231      6.636887
  H      -6.156714      0.035683      6.950352
  H      -6.060200      3.020232      4.720688
  H      -6.084753      2.194461      3.146152
  H      -4.508200      2.225662      4.286354
  H      -5.624700     -1.333107      4.866489
  H      -4.209436     -0.271779      4.559457
  H      -5.431442     -0.536211      3.270340
  H      -8.367463     -1.933871      1.579910
  H      -7.016499     -2.255408      0.443147
  H      -8.693177     -2.705427     -0.009390
  H     -10.133728     -0.134943      0.997177
  H     -10.414614     -0.870647     -0.619051
  H      -9.947402      0.858759     -0.485440
  H      -6.789902     -0.894745     -1.731987
  H      -7.998886      0.371442     -2.121832
  H      -8.464308     -1.367920     -2.179651
66
Coordinates from ORCA-job my_molecule E -2537.143794651815
  O      -2.421389      0.232506     -0.035955
  Si     -1.552883      1.379406      0.832586
  Si     -2.462329     -1.358516     -0.588272
  C      -2.694017      2.869308      1.072955
  C      -3.910528      3.075318      0.344458
  C      -3.412365     -1.347388     -2.212008
  C      -3.906345     -0.235495     -2.794363
  C      -0.991440      0.678090      2.493918
  C      -0.051605      1.932821     -0.176130
  C      -0.703636     -1.992951     -0.881946
  C      -3.345329     -2.440605      0.679836
  H      -2.197314      3.781179      1.467582
  H      -4.270829      2.320143     -0.376674
  H      -4.298539      4.094441      0.163854
  H      -3.574874     -2.316146     -2.725215
  H      -3.775977      0.757403     -2.329697
  H      -4.457874     -0.261099     -3.750895
  H      -1.854914      0.269339      3.057092
  H      -0.521946      1.467725      3.116966
  H      -0.246047     -0.132921      2.358656
  H      -0.364004      2.313342     -1.169933
  H       0.654066      1.091710     -0.337381
  H       0.501630      2.744206      0.341220
  H      -0.158581     -1.343747     -1.597095
  H      -0.722417     -3.019218     -1.304782
  H      -0.124341     -2.032432      0.064201
  H      -4.348765     -2.019520      0.893672
  H      -2.776679     -2.488386      1.631587
  H      -3.470578     -3.477834      0.305329
  Pt     -4.350468      2.502086      2.298886
  O      -8.002759      1.198339      2.107774
  O      -8.098147      0.020886      3.040587
  P      -7.301861      0.776456      0.618035
  P      -7.891496      0.593252      4.615286
  O      -8.180500     -0.856637      5.330276
  O      -8.760472      1.741395      5.021870
  O      -5.879869      0.069482      0.971450
  O      -7.271055      2.088330     -0.116064
  C      -8.302263     -0.573775     -0.160824
  C      -6.066795      0.810471      4.896942
  C      -5.874103      0.965576      6.421905
  C      -5.647188      2.133966      4.206791
  C      -5.289257     -0.404179      4.365243
  C      -8.072939     -1.942252      0.506699
  C      -9.780457     -0.145114     -0.057358
  C      -7.852899     -0.609897     -1.639205
  H      -9.130666     -0.911426      5.560009
  H      -5.223577      0.775535      1.319605
  H      -6.484654      1.798619      6.823275
  H      -4.806131      1.174322      6.642351
  H      -6.160360      0.037352      6.953566
  H      -6.063674      3.020457      4.722197
  H      -6.085767      2.193772      3.148496
  H      -4.510281      2.228520      4.289354
  H      -5.619358     -1.331932      4.871944
  H      -4.205952     -0.267339      4.567394
  H      -5.424355     -0.535890      3.275702
  H      -8.362276     -1.933791      1.574597
  H      -7.013790     -2.257050      0.435480
  H      -8.692279     -2.702281     -0.015308
  H     -10.126853     -0.130952      0.994425
  H     -10.409379     -0.864157     -0.622582
  H      -9.939168      0.864208     -0.487078
  H      -6.784832     -0.892442     -1.736497
  H      -7.992288      0.375812     -2.124643
  H      -8.459921     -1.362778     -2.184506
66
Coordinates from ORCA-job my_molecule E -2537.143788172581
  O      -2.414339      0.232238     -0.037245
  Si     -1.546647      1.378109      0.833438
  Si     -2.455207     -1.359334     -0.588863
  C      -2.686319      2.868724      1.075282
  C      -3.902332      3.077643      0.346427
  C      -3.399437     -1.347786     -2.216145
  C      -3.891632     -0.235872     -2.799754
  C      -0.987402      0.674160      2.494614
  C      -0.043455      1.931457     -0.172525
  C      -0.696287     -1.996468     -0.876126
  C      -3.343687     -2.439813      0.676633
  H      -2.188576      3.779323      1.471481
  H      -4.261967      2.324374     -0.376968
  H      -4.287655      4.097810      0.166411
  H      -3.559768     -2.316283     -2.730545
  H      -3.763388      0.756627     -2.333924
  H      -4.438541     -0.260816     -3.758906
  H      -1.851744      0.264726      3.055954
  H      -0.518136      1.462508      3.119417
  H      -0.242418     -0.137139      2.358727
  H      -0.354201      2.312974     -1.166429
  H       0.662162      1.090163     -0.332976
  H       0.509122      2.741943      0.346937
  H      -0.147442     -1.347845     -1.588934
  H      -0.714395     -3.022657     -1.299119
  H      -0.120639     -2.036431      0.072246
  H      -4.348063     -2.018512      0.885674
  H      -2.778527     -2.487021      1.630451
  H      -3.467622     -3.477209      0.302120
  Pt     -4.342752      2.501561      2.299636
  O      -8.008356      1.200185      2.104912
  O      -8.091450      0.020010      3.035431
  P      -7.314913      0.781845      0.610922
  P      -7.890369      0.589473      4.611734
  O      -8.175564     -0.863178      5.322899
  O      -8.764527      1.733522      5.018910
  O      -5.887831      0.081016      0.955763
  O      -7.295402      2.093653     -0.123631
  C      -8.315014     -0.573737     -0.159813
  C      -6.066915      0.812029      4.897116
  C      -5.877348      0.969078      6.422315
  C      -5.648842      2.135902      4.206424
  C      -5.284932     -0.400771      4.367909
  C      -8.073234     -1.941557      0.504946
  C      -9.794348     -0.152529     -0.042553
  C      -7.879028     -0.606883     -1.642071
  H      -9.125862     -0.921378      5.551299
  H      -5.234878      0.788247      1.307841
  H      -6.489384      1.801991      6.821670
  H      -4.809999      1.179557      6.644111
  H      -6.163568      0.041137      6.954478
  H      -6.069683      3.022273      4.718782
  H      -6.083687      2.193710      3.146880
  H      -4.513418      2.235371      4.292608
  H      -5.613191     -1.329075      4.874805
  H      -4.202312     -0.260588      4.571265
  H      -5.418331     -0.534237      3.278326
  H      -8.349050     -1.934557      1.576583
  H      -7.014086     -2.253288      0.420702
  H      -8.696957     -2.703176     -0.009461
  H     -10.131578     -0.140153      1.012209
  H     -10.424957     -0.874601     -0.602088
  H      -9.962174      0.855862     -0.471017
  H      -6.810188     -0.882994     -1.748870
  H      -8.029066      0.377741     -2.126517
  H      -8.486205     -1.363435     -2.182166
66
Coordinates from ORCA-job my_molecule E -2537.143798258477
  O      -2.417742      0.232512     -0.038379
  Si     -1.550476      1.378792      0.832180
  Si     -2.457472     -1.358680     -0.590887
  C      -2.691200      2.868644      1.074105
  C      -3.907964      3.076221      0.346123
  C      -3.403459     -1.347243     -2.217086
  C      -3.897142     -0.235430     -2.799758
  C      -0.990308      0.675335      2.493201
  C      -0.048062      1.933249     -0.174332
  C      -0.698134     -1.993460     -0.880444
  C      -3.343312     -2.440864      0.675054
  H      -2.193851      3.779831      1.469521
  H      -4.268354      2.321971     -0.375943
  H      -4.294652      4.095909      0.166007
  H      -3.563540     -2.315686     -2.731656
  H      -3.769140      0.757100     -2.333724
  H      -4.445717     -0.260591     -3.757985
  H      -1.854225      0.265505      3.054911
  H      -0.521365      1.464052      3.117796
  H      -0.244821     -0.135481      2.357235
  H      -0.359391      2.314627     -1.168120
  H       0.658018      1.092424     -0.335219
  H       0.504224      2.744139      0.344806
  H      -0.150953     -1.343866     -1.593635
  H      -0.715641     -3.019473     -1.303903
  H      -0.121350     -2.033302      0.067235
  H      -4.347670     -2.020480      0.885843
  H      -2.776945     -2.488235      1.628166
  H      -3.466892     -3.478137      0.300088
  Pt     -4.347153      2.501184      2.299696
  O      -8.007316      1.202932      2.107132
  O      -8.100998      0.024944      3.039422
  P      -7.306994      0.779265      0.617737
  P      -7.893821      0.595001      4.614738
  O      -8.182793     -0.855929      5.327789
  O      -8.762442      1.742745      5.023271
  O      -5.884072      0.074508      0.971636
  O      -7.278841      2.089546     -0.119262
  C      -8.306982     -0.574241     -0.156575
  C      -6.068863      0.810944      4.895291
  C      -5.874393      0.963775      6.420247
  C      -5.648946      2.134979      4.206316
  C      -5.292407     -0.402971      4.360421
  C      -8.074457     -1.941317      0.512758
  C      -9.785556     -0.147479     -0.050387
  C      -7.861027     -0.612467     -1.635808
  H      -9.132805     -0.910497      5.558260
  H      -5.228772      0.781331      1.319498
  H      -6.483185      1.797246      6.823359
  H      -4.805865      1.170818      6.639588
  H      -6.161459      0.035268      6.950993
  H      -6.066918      3.021293      4.720935
  H      -6.085420      2.195291      3.147486
  H      -4.512809      2.231469      4.290943
  H      -5.622215     -1.331663      4.865583
  H      -4.208762     -0.266894      4.561127
  H      -5.429237     -0.532645      3.270766
  H      -8.358701     -1.931105      1.582039
  H      -7.015616     -2.256235      0.437383
  H      -8.696239     -2.702271     -0.004983
  H     -10.129841     -0.131898      1.002053
  H     -10.414836     -0.868371     -0.612904
  H      -9.946744      0.860750     -0.481763
  H      -6.792637     -0.893219     -1.734762
  H      -8.003584      0.371803     -2.123234
  H      -8.467695     -1.367657     -2.178349
66
Coordinates from ORCA-job my_molecule E -2537.143798690161
  O      -2.418655      0.232832     -0.037273
  Si     -1.550000      1.378714      0.832402
  Si     -2.459597     -1.358321     -0.589711
  C      -2.690049      2.868905      1.075252
  C      -3.906884      3.077339      0.347577
  C      -3.409205     -1.346729     -2.213762
  C      -3.904439     -0.234841     -2.795050
  C      -0.988682      0.675140      2.492995
  C      -0.048311      1.932610     -0.175519
  C      -0.700916     -1.993053     -0.883199
  C      -3.342618     -2.440482      0.678243
  H      -2.192151      3.779705      1.470913
  H      -4.267772      2.323622     -0.374807
  H      -4.293290      4.097261      0.168029
  H      -3.570230     -2.315094     -2.728180
  H      -3.775543      0.757654     -2.329072
  H      -4.455541     -0.259946     -3.751843
  H      -1.852287      0.265723      3.055492
  H      -0.518867      1.463678      3.117162
  H      -0.243652     -0.135995      2.356423
  H      -0.360357      2.313981     -1.169090
  H       0.657364      1.091550     -0.336939
  H       0.504657      2.743417      0.343027
  H      -0.155295     -1.343362     -1.597494
  H      -0.719370     -3.019008     -1.306758
  H      -0.122083     -2.033056      0.063221
  H      -4.346384     -2.019950      0.891516
  H      -2.774028     -2.488022      1.630022
  H      -3.467235     -3.477701      0.303470
  Pt     -4.346502      2.501442      2.301228
  O      -8.006239      1.202004      2.105712
  O      -8.100049      0.024680      3.038837
  P      -7.305336      0.777981      0.616555
  P      -7.893792      0.595847      4.613900
  O      -8.183681     -0.854529      5.327666
  O      -8.762507      1.743983      5.021081
  O      -5.882633      0.073122      0.971077
  O      -7.276507      2.088218     -0.120490
  C      -8.304904     -0.575300     -0.158718
  C      -6.069019      0.811521      4.895921
  C      -5.875967      0.964611      6.420987
  C      -5.648396      2.135459      4.207242
  C      -5.292279     -0.402808      4.362314
  C      -8.071814     -1.942845      0.509346
  C      -9.783651     -0.149194     -0.052366
  C      -7.858844     -0.612192     -1.637986
  H      -9.133887     -0.908695      5.557442
  H      -5.226873      0.780159      1.318065
  H      -6.485123      1.798181      6.823361
  H      -4.807637      1.171561      6.641374
  H      -6.163596      0.036213      6.951614
  H      -6.066309      3.021783      4.721832
  H      -6.084339      2.196104      3.148160
  H      -4.512044      2.231603      4.292414
  H      -5.622578     -1.331207      4.867720
  H      -4.208784     -0.266747      4.563892
  H      -5.428192     -0.533054      3.272682
  H      -8.356670     -1.933891      1.578387
  H      -7.012702     -2.256883      0.434192
  H      -8.692659     -2.703749     -0.009597
  H     -10.128086     -0.135016      1.000042
  H     -10.412521     -0.869662     -0.615870
  H      -9.945134      0.859515     -0.482514
  H      -6.790377     -0.892586     -1.737167
  H      -8.001594      0.372483     -2.124544
  H      -8.465298     -1.367061     -2.181198
