69
Coordinates from ORCA-job my_molecule_MEP E -2464.440901473110
  Pt      0.054690     -1.294948      0.986985
  O       0.543422      0.033593      2.336966
  O      -2.828943     -1.812730      0.830656
  P       1.721351      1.142378      2.542184
  P      -2.222054     -2.874051     -0.077342
  O      -2.192057     -4.377177      0.592490
  O      -0.651789     -2.519801     -0.384386
  O       0.977589      2.556561      2.103534
  O       3.022825      0.944992      1.797245
  C       1.866243      1.278925      4.383198
  C      -3.065214     -3.209352     -1.693673
  C      -2.246212     -4.236581     -2.499506
  C      -3.179166     -1.874732     -2.456562
  C      -4.472084     -3.762320     -1.375674
  C       0.543370      1.778496      4.990081
  C       2.230926     -0.114175      4.934246
  C       3.008872      2.277080      4.658957
  H      -2.102209     -4.281616      1.562299
  H       1.414869      2.877158      1.287034
  H      -1.237676     -3.851152     -2.745985
  H      -2.771088     -4.455685     -3.453335
  H      -2.131514     -5.189273     -1.946604
  H      -2.182054     -1.457217     -2.700056
  H      -3.740529     -1.120979     -1.869721
  H      -3.720392     -2.042520     -3.411422
  H      -4.417771     -4.723350     -0.828533
  H      -5.018838     -3.939620     -2.326102
  H      -5.064841     -3.048142     -0.769600
  H      -0.293012      1.086754      4.769411
  H       0.275815      2.780441      4.601958
  H       0.652502      1.850175      6.093046
  H       1.419093     -0.847819      4.761470
  H       2.399089     -0.040114      6.029269
  H       3.159375     -0.506912      4.472521
  H       2.775385      3.281515      4.252519
  H       3.959277      1.934792      4.204745
  H       3.154376      2.374630      5.755410
  Si      2.131197     -0.771651     -1.521528
  C       3.693587     -0.013953     -2.301185
  C       2.800485     -1.636357      0.063084
  C       1.493665     -2.132567     -2.687816
  H       4.139531      0.741787     -1.621456
  H       3.455239      0.485638     -3.263334
  H       4.461189     -0.789594     -2.500943
  H       2.121236     -2.279218      0.687239
  H       3.255693     -0.889757      0.744620
  H       3.579832     -2.348190     -0.299706
  H       0.826011     -2.837212     -2.155564
  H       2.353526     -2.707897     -3.092838
  H       0.936403     -1.714566     -3.550401
  H      -1.175072      0.438661     -1.329365
  C       1.017858      0.828001     -1.463462
  C      -0.409012      1.157663     -0.963839
  H       1.063457      1.063668     -2.552154
  H       1.722919      1.547137     -0.990194
  Si     -1.044109      2.913168     -1.438507
  H      -0.478979      1.130192      0.147312
  C       0.285004      4.233257     -1.096155
  C      -2.569721      3.310549     -0.384306
  C      -1.499979      2.965072     -3.282823
  H       0.492633      4.329148     -0.009477
  H      -0.060734      5.231359     -1.438683
  H       1.239690      4.017770     -1.618026
  H      -2.303867      3.318257      0.692963
  H      -3.372326      2.557504     -0.523145
  H      -2.994155      4.305675     -0.633573
  H      -0.627998      2.741160     -3.931191
  H      -1.883493      3.964878     -3.576188
  H      -2.291335      2.223196     -3.517086