69
Coordinates from ORCA-job my_molecule E -2464.475614889032
  Pt         -0.58141779196271     -0.25629466141923      0.45889040467971
  O           0.72155729072412      0.05940544260952      1.96408667910843
  O          -3.52226576380417     -1.19133260219432      1.26534922598411
  P           0.94311894023756      1.53003595493208      2.56873194739019
  P          -2.88777113868459     -1.82434495131383      0.04195477935176
  O          -1.73870818632675     -2.95969858318269      0.54701336254077
  O          -1.99650020391054     -0.89190140430703     -0.90516326329464
  O          -0.46412473826977      1.94191552255727      3.34567829676158
  O           1.35153634956991      2.60335903015639      1.57139533329693
  C           2.13207033818684      1.26595601537086      3.96716199565557
  C          -4.05593930335456     -2.73815026158064     -1.06722013098931
  C          -3.27964716529061     -3.41928005759569     -2.20753806539359
  C          -5.05527981282069     -1.70065228539908     -1.61861190747464
  C          -4.78717409549640     -3.77798788359160     -0.19602524735739
  C           1.55855667751458      0.24183007856187      4.96366839799275
  C           3.46085029427898      0.76599889098788      3.36750765879691
  C           2.33334926133361      2.63629206100635      4.64445820942392
  H          -1.95168753062974     -3.17919505172654      1.47728724559840
  H          -0.83986840150033      2.71891282643502      2.88741170044411
  H          -2.74329182738468     -2.67539191315865     -2.82862591831239
  H          -3.98487243383494     -3.97541038436552     -2.86134783293100
  H          -2.53300277794541     -4.13794461748188     -1.81466784760696
  H          -4.54531341422816     -0.94395334125067     -2.24787992269619
  H          -5.57551080572492     -1.17134305333606     -0.79551693671291
  H          -5.81868174773161     -2.21028870970583     -2.24399266994478
  H          -4.08293829527110     -4.53457120670564      0.20623074603992
  H          -5.54625677649704     -4.31265003856570     -0.80518061395349
  H          -5.30158750630429     -3.29331257525937      0.65750408844424
  H           1.40767069598401     -0.74575326774416      4.48547043897308
  H           0.58554935453146      0.57947403619948      5.37177602269676
  H           2.26408585761994      0.11341452979128      5.81217503735049
  H           3.34012403031310     -0.22292266889224      2.88258332817754
  H           4.21938781331331      0.66433583534582      4.17232740310547
  H           3.85371520505864      1.47750229589247      2.61321556413632
  H           1.38647868338503      3.00961218402069      5.08271427791466
  H           2.69907900564715      3.38967040270526      3.91872507240413
  H           3.07993054023063      2.54360696664921      5.46122401248631
  Si          2.73722799587897     -0.90261132370506     -1.29201884408189
  C           4.58425745709426     -0.48865131506829     -1.16433948456667
  C           2.27962539872069     -2.18439798483143      0.02074632025205
  C           2.35072231075582     -1.60717286763806     -3.01395097926575
  H           4.82739799849966     -0.06683365071289     -0.16685636239605
  H           4.89160315120214      0.25434137659287     -1.92919199633975
  H           5.20717678529213     -1.39599135549990     -1.30675548070353
  H           1.23201277750472     -2.53575679632241     -0.08602294714366
  H           2.38834728406171     -1.76970233847333      1.04277813779461
  H           2.94370490021455     -3.06905673814648     -0.07674670916583
  H           1.27136630588998     -1.84396916535259     -3.12250392209162
  H           2.91024920028478     -2.54991784096367     -3.18774350758710
  H           2.62942694718140     -0.89848225651600     -3.82164871270589
  H          -0.14237087184038      0.05094070204414     -1.98601005026610
  C           1.80751328234726      0.77280176368700     -1.12721514774800
  C           0.29206497321718      0.75095386861311     -1.24136389444824
  H           2.21757136925666      1.37870520672729     -1.96883659144267
  H           2.09912167822833      1.31799889322172     -0.20420431977084
  Si         -0.53869152597475      2.45650099013567     -1.98214748094214
  H          -0.42732011051072      1.23181719188863     -0.29146415968742
  C          -0.69844198601178      3.78250446231247     -0.65377638185907
  C          -2.21398731150413      1.93731851549962     -2.66891206086384
  C           0.63534079858564      2.99011183215637     -3.36551885833751
  H          -1.62571466470597      3.62752852662848     -0.06362388541804
  H          -0.75966690115626      4.78753505571900     -1.12068102018493
  H           0.16233422182650      3.74956880784894      0.04812443786409
  H          -2.79886917998228      1.39693802851707     -1.89776901305911
  H          -2.10535706018898      1.26197157269516     -3.54159664453591
  H          -2.78649417349267      2.83196457733019     -2.99100950168495
  H           1.58820722823495      3.39635184367582     -2.97224705963115
  H           0.13475691953392      3.79595031540750     -3.94335453352129
  H           0.86166518060071      2.16179954808412     -4.06691421854844
