69
Coordinates from ORCA-job my_molecule E -2464.475342502955
  Pt     -0.609397     -0.161304      0.488731
  O       0.603443      0.246519      2.040002
  O      -3.475242     -1.461821      1.224428
  P       1.116407      1.684438      2.510101
  P      -2.746976     -1.964100     -0.006258
  O      -1.494211     -2.991591      0.483797
  O      -1.945737     -0.900393     -0.893973
  O      -0.264349      2.506755      2.944671
  O       1.932357      2.502008      1.521136
  C       1.996658      1.335775      4.108427
  C      -3.772462     -2.946064     -1.194459
  C      -2.881862     -3.512698     -2.314228
  C      -4.838788     -1.987796     -1.763302
  C      -4.440926     -4.079581     -0.392119
  C       1.073372      0.560806      5.064585
  C       3.262306      0.520599      3.778309
  C       2.385394      2.701968      4.708660
  H      -1.699014     -3.260698      1.402734
  H      -0.136398      3.441268      2.688907
  H      -2.387675     -2.702347     -2.885692
  H      -3.499168     -4.109337     -3.019243
  H      -2.091020     -4.171798     -1.903938
  H      -4.372231     -1.154962     -2.326380
  H      -5.455643     -1.551057     -0.952662
  H      -5.510308     -2.540706     -2.453957
  H      -3.687536     -4.780669      0.021465
  H      -5.116590     -4.661226     -1.054109
  H      -5.037142     -3.674975      0.449630
  H       0.796264     -0.425507      4.644384
  H       0.139458      1.122083      5.266958
  H       1.592473      0.393398      6.032491
  H       3.004571     -0.466974      3.346475
  H       3.850086      0.348040      4.704784
  H       3.905955      1.058574      3.053976
  H       1.487453      3.297806      4.969760
  H       3.000571      3.289364      3.998084
  H       2.973959      2.549644      5.637798
  Si      2.493961     -0.997017     -1.422754
  C       4.345856     -0.723176     -1.734575
  C       2.265196     -2.113354      0.087445
  C       1.690720     -1.817489     -2.935703
  H       4.822905     -0.214846     -0.870974
  H       4.521877     -0.097056     -2.633825
  H       4.870651     -1.688732     -1.888807
  H       1.215374     -2.457878      0.192031
  H       2.547824     -1.592855      1.024313
  H       2.905015     -3.014747     -0.020290
  H       0.609737     -2.002103     -2.760632
  H       2.163389     -2.799673     -3.144843
  H       1.793798     -1.195192     -3.849230
  H      -0.310721      0.214824     -1.980571
  C       1.729389      0.756975     -1.216698
  C       0.212664      0.847452     -1.232941
  H       2.122607      1.321889     -2.094659
  H       2.133746      1.275820     -0.319583
  Si     -0.503733      2.645119     -1.843852
  H      -0.480953      1.324930     -0.250602
  C      -0.235014      3.953628     -0.516137
  C      -2.328516      2.369060     -2.223979
  C       0.473562      3.016726     -3.419584
  H      -1.037256      3.890394      0.248222
  H      -0.260616      4.970977     -0.958427
  H       0.736207      3.797049      0.000581
  H      -2.865397      1.977837     -1.336184
  H      -2.467424      1.640311     -3.047829
  H      -2.805136      3.325716     -2.523355
  H       1.523226      3.297745     -3.203782
  H      -0.011266      3.875325     -3.930790
  H       0.470274      2.158902     -4.121961
69
Coordinates from ORCA-job my_molecule E -2464.475107345852
  Pt     -0.630571     -0.151320      0.498425
  O       0.581299      0.253250      2.051225
  O      -3.457631     -1.528584      1.237893
  P       1.136493      1.684587      2.492581
  P      -2.735873     -1.986893     -0.013611
  O      -1.456653     -3.000285      0.435765
  O      -1.967574     -0.886591     -0.885720
  O      -0.220362      2.559616      2.898525
  O       1.984372      2.453354      1.491410
  C       1.994821      1.344795      4.104667
  C      -3.757424     -2.960896     -1.211743
  C      -2.881417     -3.438311     -2.383393
  C      -4.882387     -2.027122     -1.703103
  C      -4.349317     -4.156733     -0.440323
  C       1.025434      0.668721      5.089799
  C       3.205749      0.438438      3.808840
  C       2.470254      2.706411      4.650417
  H      -1.626322     -3.267637      1.362341
  H      -0.047922      3.489943      2.653922
  H      -2.442385     -2.582757     -2.933578
  H      -3.495759     -4.030968     -3.094332
  H      -2.049382     -4.078455     -2.028268
  H      -4.471161     -1.150743     -2.242730
  H      -5.489927     -1.653795     -0.854628
  H      -5.552300     -2.578796     -2.396304
  H      -3.553071     -4.840988     -0.082607
  H      -5.021192     -4.738500     -1.106050
  H      -4.933803     -3.815920      0.437142
  H       0.685730     -0.313970      4.708893
  H       0.129298      1.295772      5.268485
  H       1.534109      0.507399      6.064253
  H       2.885277     -0.547337      3.416725
  H       3.782829      0.266276      4.742091
  H       3.881074      0.905044      3.064127
  H       1.612276      3.367982      4.886405
  H       3.120568      3.224764      3.917752
  H       3.049147      2.554219      5.585632
  Si      2.475493     -0.998899     -1.402884
  C       4.339258     -0.734129     -1.643737
  C       2.184613     -2.132588      0.083526
  C       1.722502     -1.794534     -2.954433
  H       4.789506     -0.248189     -0.753276
  H       4.551609     -0.090653     -2.522660
  H       4.861735     -1.700593     -1.800132
  H       1.138571     -2.501234      0.124224
  H       2.400340     -1.613776      1.038948
  H       2.849900     -3.018602      0.006990
  H       0.642818     -2.008529     -2.807209
  H       2.222096     -2.759441     -3.180712
  H       1.829560     -1.144598     -3.848038
  H      -0.324415      0.220705     -1.970523
  C       1.715448      0.757678     -1.202092
  C       0.199032      0.852728     -1.222425
  H       2.112635      1.319844     -2.080031
  H       2.119005      1.276964     -0.304872
  Si     -0.510199      2.651759     -1.837726
  H      -0.495463      1.333614     -0.242371
  C      -0.183153      3.975108     -0.538091
  C      -2.349344      2.396774     -2.158761
  C       0.424170      2.986694     -3.447355
  H      -0.940624      3.909743      0.270481
  H      -0.245447      4.988060     -0.986782
  H       0.817217      3.834226     -0.075279
  H      -2.858508      1.994854     -1.259490
  H      -2.522924      1.683232     -2.989320
  H      -2.827823      3.362146     -2.425407
  H       1.473504      3.291997     -3.265630
  H      -0.086978      3.819676     -3.975037
  H       0.419572      2.105999     -4.120826
69
Coordinates from ORCA-job my_molecule E -2464.474574234077
  Pt     -0.633147     -0.127537      0.510104
  O       0.564308      0.296284      2.081615
  O      -3.398234     -1.586836      1.256385
  P       1.089751      1.730115      2.551354
  P      -2.701259     -2.010913     -0.021271
  O      -1.414116     -3.035747      0.375590
  O      -1.955029     -0.884570     -0.879762
  O      -0.285053      2.560009      2.991926
  O       1.906788      2.545844      1.562043
  C       1.974379      1.371583      4.145276
  C      -3.743656     -2.956711     -1.223648
  C      -2.902211     -3.359620     -2.447454
  C      -4.907897     -2.030046     -1.629191
  C      -4.277863     -4.200123     -0.485876
  C       1.018086      0.690607      5.139880
  C       3.176852      0.462970      3.822285
  C       2.464343      2.726005      4.695959
  H      -1.548833     -3.302560      1.308077
  H      -0.126930      3.504717      2.797828
  H      -2.502620     -2.470227     -2.972993
  H      -3.530375     -3.933455     -3.161709
  H      -2.044728     -3.997405     -2.153192
  H      -4.537394     -1.119792     -2.141701
  H      -5.491328     -1.711298     -0.742572
  H      -5.589876     -2.565674     -2.323167
  H      -3.452438     -4.878550     -0.189341
  H      -4.960630     -4.768075     -1.152430
  H      -4.837919     -3.913846      0.426650
  H       0.664616     -0.285647      4.754240
  H       0.129491      1.321246      5.340220
  H       1.542424      0.514664      6.103396
  H       2.847229     -0.518449      3.427479
  H       3.768707      0.281865      4.744595
  H       3.842179      0.933602      3.070965
  H       1.613568      3.389284      4.954190
  H       3.103609      3.249278      3.957401
  H       3.058266      2.562219      5.619724
  Si      2.464848     -1.023694     -1.416451
  C       4.334008     -0.773308     -1.629327
  C       2.143492     -2.149810      0.069582
  C       1.730100     -1.818576     -2.977372
  H       4.776800     -0.305315     -0.725713
  H       4.564326     -0.118495     -2.495297
  H       4.849054     -1.742490     -1.793603
  H       1.104287     -2.538937      0.077048
  H       2.315273     -1.617654      1.026948
  H       2.828721     -3.022956      0.025284
  H       0.654923     -2.056094     -2.833999
  H       2.249736     -2.770660     -3.213052
  H       1.825530     -1.157865     -3.864359
  H      -0.340798      0.213057     -1.968838
  C       1.714428      0.738743     -1.233821
  C       0.198392      0.846414     -1.232586
  H       2.100231      1.282990     -2.128863
  H       2.135997      1.271568     -0.352800
  Si     -0.490978      2.645370     -1.863804
  H      -0.483423      1.348873     -0.250982
  C      -0.080277      3.989511     -0.610317
  C      -2.347632      2.432958     -2.106976
  C       0.388982      2.916205     -3.515690
  H      -0.785978      3.939210      0.244188
  H      -0.168371      4.995003     -1.071413
  H       0.944078      3.852019     -0.205463
  H      -2.827111      2.033296     -1.190511
  H      -2.571502      1.731244     -2.935422
  H      -2.816064      3.410556     -2.345362
  H       1.442635      3.231322     -3.381220
  H      -0.142332      3.725355     -4.060247
  H       0.365563      2.008955     -4.152439
69
Coordinates from ORCA-job my_molecule E -2464.475308760563
  Pt     -0.622629     -0.160078      0.494859
  O       0.575954      0.259817      2.053957
  O      -3.369854     -1.585892      1.266192
  P       1.093349      1.697962      2.518727
  P      -2.708365     -2.021751     -0.026297
  O      -1.443379     -3.084052      0.341404
  O      -1.948521     -0.910493     -0.892464
  O      -0.285188      2.517130      2.967285
  O       1.897678      2.517739      1.522447
  C       1.991179      1.348522      4.107251
  C      -3.799965     -2.931911     -1.212688
  C      -2.987911     -3.377478     -2.441433
  C      -4.929235     -1.961258     -1.614428
  C      -4.377480     -4.147288     -0.461105
  C       1.056314      0.633293      5.098180
  C       3.216115      0.475197      3.772060
  C       2.446727      2.710382      4.668959
  H      -1.583983     -3.373792      1.266090
  H      -0.147634      3.458589      2.744385
  H      -2.560075     -2.508513     -2.978727
  H      -3.645421     -3.932200     -3.144308
  H      -2.152407     -4.045251     -2.150665
  H      -4.526925     -1.070746     -2.137512
  H      -5.490469     -1.612330     -0.724807
  H      -5.639434     -2.473622     -2.297581
  H      -3.577791     -4.857099     -0.167200
  H      -5.089295     -4.691325     -1.117146
  H      -4.916378     -3.832020      0.454521
  H       0.727803     -0.348348      4.704418
  H       0.151873      1.238264      5.307141
  H       1.588173      0.462429      6.058506
  H       2.910926     -0.511393      3.370411
  H       3.816493      0.302365      4.690426
  H       3.865189      0.969576      3.021730
  H       1.579351      3.348399      4.934958
  H       3.069991      3.256959      3.933542
  H       3.047220      2.554142      5.589795
  Si      2.518136     -0.990429     -1.374949
  C       4.379382     -0.700130     -1.605684
  C       2.234036     -2.105331      0.127036
  C       1.789996     -1.819930     -2.920688
  H       4.816975     -0.204522     -0.714304
  H       4.588426     -0.056960     -2.485654
  H       4.916150     -1.659874     -1.754960
  H       1.198825     -2.504038      0.156618
  H       2.417839     -1.562873      1.076340
  H       2.926555     -2.972394      0.078492
  H       0.716370     -2.061435     -2.773573
  H       2.316018     -2.772950     -3.137502
  H       1.881885     -1.175791     -3.820156
  H      -0.303497      0.192650     -1.975769
  C       1.729926      0.757018     -1.206763
  C       0.212222      0.834661     -1.230468
  H       2.119810      1.308823     -2.095069
  H       2.125583      1.297827     -0.318672
  Si     -0.504563      2.621515     -1.867941
  H      -0.490426      1.320023     -0.257607
  C      -0.179399      3.962943     -0.586770
  C      -2.343799      2.360604     -2.185032
  C       0.430674      2.935061     -3.481510
  H      -0.927596      3.897136      0.229821
  H      -0.259064      4.969912     -1.046166
  H       0.824704      3.838642     -0.129743
  H      -2.850242      1.955527     -1.285609
  H      -2.516112      1.647492     -3.016148
  H      -2.826233      3.324390     -2.450151
  H       1.475042      3.259031     -3.303099
  H      -0.090374      3.748984     -4.028854
  H       0.440756      2.040497     -4.136352
69
Coordinates from ORCA-job my_molecule E -2464.475878819953
  Pt     -0.617405     -0.177095      0.489086
  O       0.576281      0.250218      2.047828
  O      -3.249212     -1.679980      1.303270
  P       1.094445      1.691427      2.502071
  P      -2.667271     -2.070105     -0.041421
  O      -1.404343     -3.167083      0.209959
  O      -1.938513     -0.931711     -0.898759
  O      -0.284546      2.515779      2.939629
  O       1.902553      2.501366      1.500934
  C       1.987649      1.354231      4.095914
  C      -3.837622     -2.911711     -1.203075
  C      -3.102396     -3.313371     -2.493665
  C      -4.971921     -1.909075     -1.498110
  C      -4.391572     -4.151364     -0.473742
  C       1.050588      0.644519      5.088757
  C       3.215077      0.480548      3.771127
  C       2.439043      2.720698      4.649627
  H      -1.503984     -3.499953      1.125268
  H      -0.149467      3.453466      2.699984
  H      -2.693404     -2.427039     -3.017036
  H      -3.806240     -3.829558     -3.180888
  H      -2.261387     -4.002822     -2.279378
  H      -4.585113     -1.001963     -2.004108
  H      -5.476912     -1.592018     -0.563967
  H      -5.727269     -2.381091     -2.161600
  H      -3.587925     -4.883949     -0.256655
  H      -5.147460     -4.656061     -1.111674
  H      -4.873696     -3.869986      0.483656
  H       0.723101     -0.339400      4.699835
  H       0.145494      1.250443      5.292118
  H       1.580269      0.479071      6.051233
  H       2.912926     -0.510335      3.377927
  H       3.814052      0.317570      4.692192
  H       3.864571      0.969609      3.017643
  H       1.569745      3.359174      4.908160
  H       3.063886      3.263206      3.912559
  H       3.036373      2.571892      5.573750
  Si      2.550547     -0.979828     -1.345632
  C       4.410780     -0.669716     -1.558075
  C       2.262618     -2.093657      0.156419
  C       1.847090     -1.820602     -2.896577
  H       4.834695     -0.171392     -0.661595
  H       4.621638     -0.022692     -2.434774
  H       4.958790     -1.623608     -1.703929
  H       1.233062     -2.507603      0.172956
  H       2.425107     -1.545250      1.106122
  H       2.968508     -2.950477      0.120504
  H       0.774978     -2.074097     -2.759254
  H       2.386193     -2.767861     -3.106451
  H       1.940377     -1.177222     -3.796448
  H      -0.278257      0.171032     -1.979045
  C       1.741482      0.759309     -1.190759
  C       0.223388      0.820024     -1.230147
  H       2.134576      1.312565     -2.076666
  H       2.121854      1.306735     -0.300064
  Si     -0.505343      2.597549     -1.880188
  H      -0.492535      1.301297     -0.266152
  C      -0.220685      3.943174     -0.593954
  C      -2.335158      2.313950     -2.230806
  C       0.455576      2.922399     -3.476429
  H      -0.982545      3.867512      0.209097
  H      -0.305772      4.948901     -1.055115
  H       0.775687      3.832076     -0.117336
  H      -2.852500      1.900037     -1.341685
  H      -2.483281      1.600830     -3.066604
  H      -2.825028      3.272144     -2.502425
  H       1.491520      3.261866     -3.278847
  H      -0.066843      3.727798     -4.034970
  H       0.491086      2.027262     -4.129622
69
Coordinates from ORCA-job my_molecule E -2464.475400871799
  Pt     -0.619987     -0.192658      0.488427
  O       0.561817      0.234063      2.040891
  O      -3.253798     -1.695567      1.300690
  P       1.113154      1.670476      2.469386
  P      -2.675902     -2.082807     -0.046771
  O      -1.422108     -3.191280      0.197537
  O      -1.943393     -0.942604     -0.898977
  O      -0.247982      2.537695      2.880385
  O       1.947551      2.438402      1.457110
  C       1.988295      1.341795      4.075252
  C      -3.852050     -2.911640     -1.211574
  C      -3.128350     -3.282628     -2.517799
  C      -4.997325     -1.912478     -1.474315
  C      -4.388511     -4.169201     -0.500233
  C       1.018022      0.707523      5.087159
  C       3.174158      0.402281      3.781274
  C       2.501936      2.702272      4.587823
  H      -1.509443     -3.510342      1.118998
  H      -0.076141      3.471635      2.649913
  H      -2.730169     -2.383530     -3.027370
  H      -3.836617     -3.789118     -3.207650
  H      -2.281291     -3.971659     -2.326802
  H      -4.622988     -0.992416     -1.966192
  H      -5.494334     -1.618033     -0.528638
  H      -5.756045     -2.377092     -2.139184
  H      -3.576865     -4.899034     -0.305018
  H      -5.147042     -4.667586     -1.139981
  H      -4.863710     -3.909870      0.466935
  H       0.644200     -0.271056      4.727364
  H       0.142548      1.361484      5.269705
  H       1.538442      0.546007      6.055354
  H       2.827056     -0.584752      3.416770
  H       3.763012      0.239738      4.708979
  H       3.847670      0.837659      3.015980
  H       1.663119      3.388169      4.825329
  H       3.151397      3.192643      3.835789
  H       3.090904      2.554396      5.517488
  Si      2.573789     -0.956315     -1.321082
  C       4.433122     -0.620843     -1.500123
  C       2.275001     -2.074503      0.175545
  C       1.909276     -1.804145     -2.885460
  H       4.836447     -0.128440     -0.590988
  H       4.650147      0.039387     -2.365428
  H       4.994896     -1.566278     -1.648487
  H       1.258925     -2.520316      0.162735
  H       2.392257     -1.518386      1.127779
  H       3.008267     -2.908764      0.164238
  H       0.845080     -2.093850     -2.758843
  H       2.480676     -2.731147     -3.100265
  H       1.988415     -1.149572     -3.778596
  H      -0.273888      0.165077     -1.975083
  C       1.739155      0.771788     -1.179258
  C       0.220335      0.815496     -1.222501
  H       2.126577      1.325044     -2.067880
  H       2.110102      1.329061     -0.290635
  Si     -0.520630      2.587965     -1.870872
  H      -0.501678      1.288213     -0.260549
  C      -0.214513      3.941560     -0.598286
  C      -2.356482      2.302970     -2.188362
  C       0.413581      2.901679     -3.485233
  H      -0.947415      3.855533      0.229985
  H      -0.331126      4.944466     -1.058750
  H       0.797188      3.847658     -0.152715
  H      -2.854608      1.873307     -1.295692
  H      -2.518928      1.602378     -3.032054
  H      -2.855038      3.263289     -2.435360
  H       1.445182      3.264632     -3.307469
  H      -0.131463      3.686388     -4.051496
  H       0.458119      1.995784     -4.122855
69
Coordinates from ORCA-job my_molecule E -2464.475263127220
  Pt     -0.625325     -0.191046      0.490117
  O       0.563623      0.228956      2.033940
  O      -3.294270     -1.664352      1.292641
  P       1.104543      1.668922      2.463558
  P      -2.693255     -2.066366     -0.040201
  O      -1.435581     -3.162518      0.238502
  O      -1.953076     -0.934626     -0.896891
  O      -0.260367      2.521780      2.890895
  O       1.922154      2.448045      1.445912
  C       1.997787      1.343320      4.059842
  C      -3.847119     -2.917803     -1.211062
  C      -3.096935     -3.319049     -2.493176
  C      -4.983967     -1.922280     -1.520096
  C      -4.401180     -4.158465     -0.483673
  C       1.049879      0.675797      5.071492
  C       3.202873      0.434947      3.746802
  C       2.483574      2.709830      4.583400
  H      -1.541275     -3.478077      1.159255
  H      -0.106319      3.455287      2.646608
  H      -2.685948     -2.432139     -3.013936
  H      -3.791669     -3.839153     -3.186653
  H      -2.255684     -4.005110     -2.268972
  H      -4.596968     -1.014145     -2.024115
  H      -5.500343     -1.605989     -0.591960
  H      -5.729668     -2.400001     -2.190367
  H      -3.595473     -4.885806     -0.256829
  H      -5.147949     -4.669077     -1.127589
  H      -4.894413     -3.877307      0.468177
  H       0.697762     -0.307992      4.704299
  H       0.159976      1.306360      5.266791
  H       1.580673      0.517578      6.034601
  H       2.875889     -0.555768      3.373538
  H       3.802110      0.275442      4.668343
  H       3.860123      0.894555      2.981618
  H       1.630659      3.373392      4.833314
  H       3.116566      3.222675      3.832247
  H       3.082355      2.565931      5.507395
  Si      2.560272     -0.963970     -1.320007
  C       4.420847     -0.639168     -1.505940
  C       2.260626     -2.086410      0.173222
  C       1.883772     -1.801926     -2.884371
  H       4.829465     -0.144191     -0.600562
  H       4.638642      0.015434     -2.375318
  H       4.977397     -1.588171     -1.651111
  H       1.235899     -2.512276      0.171438
  H       2.401489     -1.539478      1.127534
  H       2.977086     -2.934749      0.145983
  H       0.813804     -2.070542     -2.759879
  H       2.437526     -2.740345     -3.095622
  H       1.977809     -1.150706     -3.778532
  H      -0.276804      0.173757     -1.972543
  C       1.736483      0.768564     -1.167767
  C       0.218021      0.820023     -1.216870
  H       2.131440      1.326922     -2.049685
  H       2.106571      1.316610     -0.273068
  Si     -0.515719      2.598111     -1.859337
  H      -0.504116      1.291310     -0.254717
  C      -0.228889      3.940850     -0.570737
  C      -2.346434      2.312729     -2.204220
  C       0.439521      2.927922     -3.458015
  H      -0.984630      3.858509      0.237260
  H      -0.322400      4.947689     -1.027912
  H       0.770220      3.832971     -0.099879
  H      -2.858813      1.889540     -1.316542
  H      -2.496511      1.606769     -3.045752
  H      -2.839981      3.271989     -2.465057
  H       1.473562      3.274687     -3.263015
  H      -0.089602      3.729226     -4.016082
  H       0.479688      2.032569     -4.110667
69
Coordinates from ORCA-job my_molecule E -2464.475411713666
  Pt     -0.623461     -0.180202      0.489444
  O       0.577231      0.234070      2.037977
  O      -3.329667     -1.623933      1.283848
  P       1.110244      1.672212      2.484186
  P      -2.706695     -2.042217     -0.033657
  O      -1.448727     -3.128997      0.280077
  O      -1.956047     -0.921542     -0.895719
  O      -0.258648      2.513113      2.921431
  O       1.924508      2.467451      1.476240
  C       2.004858      1.333689      4.076798
  C      -3.840046     -2.914646     -1.209231
  C      -3.067580     -3.338397     -2.470724
  C      -4.971313     -1.925230     -1.555916
  C      -4.406160     -4.142612     -0.469707
  C       1.065637      0.634439      5.074935
  C       3.224770      0.449910      3.750841
  C       2.468176      2.698679      4.624244
  H      -1.570851     -3.436741      1.201481
  H      -0.113997      3.448356      2.677994
  H      -2.647858     -2.460598     -2.999944
  H      -3.749979     -3.871054     -3.166941
  H      -2.230119     -4.019739     -2.219654
  H      -4.575532     -1.026097     -2.069126
  H      -5.504058     -1.592702     -0.642800
  H      -5.705100     -2.415172     -2.230489
  H      -3.604149     -4.865715     -0.217417
  H      -5.142137     -4.664668     -1.116871
  H      -4.914594     -3.845288      0.469107
  H       0.730741     -0.348903      4.690925
  H       0.164982      1.246933      5.278717
  H       1.596903      0.469347      6.036618
  H       2.914309     -0.539156      3.359426
  H       3.824369      0.283506      4.670889
  H       3.876156      0.933414      2.995493
  H       1.604370      3.344551      4.882638
  H       3.095078      3.233548      3.883355
  H       3.067054      2.548726      5.547182
  Si      2.552703     -0.965061     -1.331349
  C       4.412227     -0.646590     -1.537936
  C       2.265169     -2.079072      0.170534
  C       1.858336     -1.809991     -2.883982
  H       4.830180     -0.141648     -0.642362
  H       4.623314     -0.002967     -2.417103
  H       4.965586     -1.598403     -1.676793
  H       1.235745     -2.493199      0.187215
  H       2.427892     -1.530824      1.120520
  H       2.971301     -2.935682      0.134287
  H       0.785983     -2.064787     -2.751206
  H       2.399891     -2.756864     -3.089039
  H       1.955031     -1.168367     -3.784763
  H      -0.281715      0.177545     -1.974536
  C       1.735244      0.770704     -1.180245
  C       0.216648      0.826291     -1.223350
  H       2.128473      1.325371     -2.065172
  H       2.110712      1.320846     -0.289411
  Si     -0.518927      2.602066     -1.872186
  H      -0.501195      1.301847     -0.258693
  C      -0.242757      3.950239     -0.586995
  C      -2.347020      2.309261     -2.224281
  C       0.441667      2.930981     -3.467763
  H      -1.010590      3.876966      0.210528
  H      -0.324298      4.955033     -1.050976
  H       0.749468      3.839017     -0.102182
  H      -2.863847      1.897064     -1.334011
  H      -2.491295      1.592107     -3.057329
  H      -2.840416      3.264339     -2.500363
  H       1.477332      3.270888     -3.269385
  H      -0.081391      3.737256     -4.024396
  H       0.477884      2.037301     -4.122933
69
Coordinates from ORCA-job my_molecule E -2464.475549744958
  Pt     -0.622950     -0.186639      0.490523
  O       0.578830      0.227430      2.029825
  O      -3.309176     -1.634782      1.292347
  P       1.086959      1.674124      2.477309
  P      -2.700427     -2.048626     -0.033358
  O      -1.443283     -3.140967      0.262069
  O      -1.954441     -0.925371     -0.895873
  O      -0.294314      2.486695      2.928173
  O       1.876807      2.488263      1.464771
  C       2.000645      1.349628      4.061848
  C      -3.848293     -2.911109     -1.202254
  C      -3.087857     -3.336430     -2.470492
  C      -4.976319     -1.914306     -1.538151
  C      -4.415443     -4.137616     -0.461140
  C       1.090471      0.611025      5.058471
  C       3.246715      0.509251      3.720531
  C       2.422650      2.723889      4.619470
  H      -1.562735     -3.460518      1.179749
  H      -0.176794      3.422244      2.671777
  H      -2.668652     -2.459523     -3.001650
  H      -3.778045     -3.864944     -3.162180
  H      -2.251219     -4.021480     -2.227015
  H      -4.579161     -1.016522     -2.052621
  H      -5.500041     -1.580547     -0.620247
  H      -5.718338     -2.398476     -2.207871
  H      -3.615481     -4.866173     -0.218056
  H      -5.160081     -4.653559     -1.103263
  H      -4.913659     -3.839984      0.483019
  H       0.785910     -0.379224      4.667177
  H       0.171354      1.191622      5.273329
  H       1.632477      0.454782      6.015652
  H       2.966378     -0.485852      3.321648
  H       3.857043      0.353934      4.635435
  H       3.876949      1.021027      2.965926
  H       1.539677      3.338948      4.887698
  H       3.028185      3.285206      3.880319
  H       3.031024      2.585131      5.537939
  Si      2.553124     -0.979476     -1.330557
  C       4.413832     -0.666313     -1.534645
  C       2.260730     -2.103892      0.162484
  C       1.855892     -1.810626     -2.889149
  H       4.832510     -0.164140     -0.637847
  H       4.627664     -0.021900     -2.412566
  H       4.964488     -1.619534     -1.674581
  H       1.226579     -2.506119      0.180424
  H       2.434333     -1.566561      1.116635
  H       2.956505     -2.968344      0.114388
  H       0.779523     -2.051237     -2.762543
  H       2.385616     -2.764199     -3.093953
  H       1.965882     -1.167790     -3.787547
  H      -0.273669      0.174375     -1.973416
  C       1.741833      0.758334     -1.167799
  C       0.223658      0.819338     -1.218322
  H       2.142311      1.319140     -2.045440
  H       2.114606      1.299590     -0.270216
  Si     -0.503133      2.600360     -1.862191
  H      -0.496237      1.294829     -0.255764
  C      -0.242149      3.937100     -0.561769
  C      -2.326504      2.310460     -2.239638
  C       0.477308      2.942597     -3.442762
  H      -1.028419      3.866995      0.218111
  H      -0.303051      4.945695     -1.020454
  H       0.738595      3.812219     -0.056538
  H      -2.856482      1.901368     -1.355723
  H      -2.460654      1.591778     -3.073063
  H      -2.813916      3.266051     -2.524545
  H       1.514088      3.269256     -3.228623
  H      -0.031891      3.762064     -3.992971
  H       0.511666      2.058033     -4.110263
69
Coordinates from ORCA-job my_molecule E -2464.475265603034
  Pt     -0.625680     -0.179476      0.494882
  O       0.583385      0.229373      2.035769
  O      -3.403199     -1.565016      1.263965
  P       1.097865      1.673957      2.483340
  P      -2.733904     -2.012746     -0.020484
  O      -1.477556     -3.079141      0.363344
  O      -1.962168     -0.911181     -0.888608
  O      -0.280593      2.493599      2.929700
  O       1.894339      2.483215      1.472106
  C       2.005811      1.346702      4.070659
  C      -3.822239     -2.926286     -1.207640
  C      -3.004469     -3.386704     -2.427073
  C      -4.943388     -1.953060     -1.625495
  C      -4.410258     -4.132820     -0.450064
  C       1.089006      0.615003      5.066261
  C       3.247878      0.498588      3.733933
  C       2.434358      2.719398      4.627183
  H      -1.631561     -3.369199      1.285705
  H      -0.156649      3.429023      2.675848
  H      -2.567896     -2.524449     -2.968101
  H      -3.660619     -3.942677     -3.130299
  H      -2.175274     -4.057436     -2.125236
  H      -4.532287     -1.068949     -2.152608
  H      -5.509416     -1.594081     -0.742915
  H      -5.651134     -2.467214     -2.309774
  H      -3.615171     -4.844690     -0.148733
  H      -5.122217     -4.677502     -1.105416
  H      -4.950975     -3.808702      0.461397
  H       0.780444     -0.374515      4.676253
  H       0.172348      1.200844      5.277308
  H       1.627499      0.457993      6.025294
  H       2.962755     -0.495257      3.335355
  H       3.854564      0.340597      4.650789
  H       3.883317      1.005712      2.980529
  H       1.554287      3.339910      4.892370
  H       3.044877      3.276087      3.888629
  H       3.039753      2.578574      5.547298
  Si      2.530659     -0.985612     -1.356531
  C       4.391961     -0.683318     -1.571269
  C       2.241033     -2.117913      0.131120
  C       1.817655     -1.802195     -2.915697
  H       4.819605     -0.187807     -0.674991
  H       4.604189     -0.036362     -2.447699
  H       4.935641     -1.639365     -1.719029
  H       1.203458     -2.510939      0.155790
  H       2.427774     -1.589002      1.087329
  H       2.928449     -2.988256      0.070790
  H       0.740309     -2.035578     -2.783923
  H       2.339050     -2.758381     -3.129556
  H       1.926791     -1.154730     -3.810840
  H      -0.292436      0.188345     -1.970854
  C       1.731932      0.756410     -1.177490
  C       0.214112      0.827421     -1.216838
  H       2.129528      1.319715     -2.054873
  H       2.114687      1.290065     -0.279475
  Si     -0.506285      2.615252     -1.848369
  H      -0.496315      1.303336     -0.246939
  C      -0.224673      3.945713     -0.545758
  C      -2.334752      2.339119     -2.211084
  C       0.463195      2.956080     -3.436010
  H      -1.004947      3.878974      0.240439
  H      -0.281866      4.956160     -1.000737
  H       0.759416      3.812170     -0.049287
  H      -2.860227      1.932104     -1.323559
  H      -2.481035      1.622967     -3.044612
  H      -2.817671      3.298741     -2.490106
  H       1.504348      3.273722     -3.229626
  H      -0.044249      3.781740     -3.978534
  H       0.484834      2.073953     -4.107257
69
Coordinates from ORCA-job my_molecule E -2464.475337448651
  Pt     -0.623794     -0.174157      0.492558
  O       0.596858      0.226620      2.034137
  O      -3.425768     -1.536477      1.257186
  P       1.106950      1.669453      2.492837
  P      -2.745807     -1.995084     -0.017732
  O      -1.490574     -3.055680      0.385820
  O      -1.967621     -0.901284     -0.889779
  O      -0.272699      2.482774      2.946067
  O       1.902278      2.487533      1.487663
  C       2.016015      1.332884      4.077300
  C      -3.824300     -2.920881     -1.204506
  C      -2.995026     -3.399562     -2.409082
  C      -4.938007     -1.950122     -1.647077
  C      -4.423741     -4.115888     -0.437516
  C       1.107054      0.576762      5.061697
  C       3.268925      0.504719      3.731078
  C       2.426652      2.703525      4.652274
  H      -1.655162     -3.343258      1.307161
  H      -0.157421      3.417562      2.685879
  H      -2.550019     -2.545691     -2.956550
  H      -3.645447     -3.962504     -3.112081
  H      -2.171303     -4.068867     -2.089704
  H      -4.518658     -1.074153     -2.181223
  H      -5.512528     -1.578060     -0.775455
  H      -5.639839     -2.471265     -2.332162
  H      -3.633835     -4.826497     -0.119982
  H      -5.131198     -4.666550     -1.092752
  H      -4.971843     -3.778679      0.464699
  H       0.812741     -0.411879      4.658799
  H       0.182229      1.147562      5.278579
  H       1.645861      0.415212      6.019799
  H       2.996444     -0.487303      3.319154
  H       3.876445      0.341980      4.646521
  H       3.898604      1.029529      2.985018
  H       1.538320      3.309429      4.923193
  H       3.031905      3.276985      3.922196
  H       3.032056      2.558353      5.571676
  Si      2.531403     -0.979236     -1.355213
  C       4.391651     -0.677070     -1.579349
  C       2.248208     -2.104816      0.138730
  C       1.812261     -1.803662     -2.907312
  H       4.821729     -0.170872     -0.690228
  H       4.600038     -0.039868     -2.463805
  H       4.936161     -1.633991     -1.718129
  H       1.207351     -2.488099      0.176069
  H       2.450269     -1.575187      1.091503
  H       2.926780     -2.981647      0.073015
  H       0.732554     -2.025278     -2.774374
  H       2.324443     -2.766903     -3.111462
  H       1.928363     -1.165691     -3.808369
  H      -0.290931      0.190069     -1.972425
  C       1.732438      0.763148     -1.180917
  C       0.214479      0.832835     -1.220861
  H       2.130541      1.324513     -2.059204
  H       2.114279      1.299791     -0.284596
  Si     -0.512718      2.616050     -1.861026
  H      -0.495771      1.309928     -0.250741
  C      -0.251252      3.954132     -0.562180
  C      -2.336319      2.324827     -2.235905
  C       0.464821      2.959332     -3.443146
  H      -1.045557      3.894522      0.210555
  H      -0.298716      4.961711     -1.024734
  H       0.724390      3.821697     -0.048609
  H      -2.867218      1.927875     -1.347044
  H      -2.471806      1.596032     -3.060263
  H      -2.821732      3.277870     -2.532607
  H       1.505867      3.273391     -3.230900
  H      -0.037838      3.788294     -3.985083
  H       0.487085      2.079265     -4.117084
69
Coordinates from ORCA-job my_molecule E -2464.475412252517
  Pt     -0.619536     -0.179041      0.491967
  O       0.604070      0.220359      2.029901
  O      -3.419058     -1.525343      1.260884
  P       1.092435      1.668892      2.494791
  P      -2.743690     -1.990995     -0.014014
  O      -1.492190     -3.055642      0.390152
  O      -1.961975     -0.903136     -0.890043
  O      -0.297775      2.458781      2.956118
  O       1.871871      2.503887      1.490851
  C       2.010775      1.340207      4.075422
  C      -3.828915     -2.915339     -1.195788
  C      -3.002232     -3.409138     -2.396052
  C      -4.933772     -1.938212     -1.646349
  C      -4.439315     -4.099997     -0.421349
  C       1.121369      0.553986      5.054037
  C       3.282663      0.545244      3.720675
  C       2.389178      2.715309      4.661822
  H      -1.660308     -3.346162      1.309932
  H      -0.206391      3.392199      2.681981
  H      -2.549772     -2.562679     -2.948937
  H      -3.656402     -3.971623     -3.095926
  H      -2.184238     -4.082683     -2.071012
  H      -4.506365     -1.069394     -2.185742
  H      -5.506357     -1.555557     -0.778035
  H      -5.639112     -2.457976     -2.328892
  H      -3.655887     -4.815679     -0.099100
  H      -5.151489     -4.648560     -1.073231
  H      -4.984491     -3.752040      0.478509
  H       0.851622     -0.438395      4.643360
  H       0.182855      1.099977      5.276148
  H       1.664605      0.398436      6.010651
  H       3.033191     -0.449844      3.301568
  H       3.895484      0.389751      4.633824
  H       3.898015      1.090667      2.977470
  H       1.486671      3.297327      4.937822
  H       2.980355      3.309006      3.936347
  H       2.998576      2.576808      5.579610
  Si      2.536055     -0.986980     -1.365089
  C       4.396158     -0.685170     -1.590982
  C       2.254338     -2.123334      0.120828
  C       1.813087     -1.800032     -2.921306
  H       4.827441     -0.179393     -0.702198
  H       4.603562     -0.047702     -2.475480
  H       4.940375     -1.642099     -1.730830
  H       1.209765     -2.495842      0.163743
  H       2.470152     -1.604982      1.076646
  H       2.922785     -3.006715      0.040702
  H       0.730308     -2.008950     -2.792661
  H       2.314287     -2.769068     -3.125195
  H       1.939947     -1.161782     -3.820709
  H      -0.283797      0.186127     -1.972960
  C       1.739363      0.755279     -1.178012
  C       0.221540      0.827338     -1.220069
  H       2.140200      1.322659     -2.051128
  H       2.120484      1.285231     -0.277422
  Si     -0.503625      2.612533     -1.857215
  H      -0.488496      1.304521     -0.250263
  C      -0.252569      3.945132     -0.550506
  C      -2.324034      2.318977     -2.245144
  C       0.483112      2.965016     -3.431510
  H      -1.059982      3.891096      0.209089
  H      -0.283736      4.954116     -1.011241
  H       0.714424      3.803193     -0.022753
  H      -2.862097      1.928989     -1.357535
  H      -2.453245      1.583981     -3.064957
  H      -2.806598      3.270048     -2.552727
  H       1.526190      3.266878     -3.211648
  H      -0.009726      3.804986     -3.965460
  H       0.499869      2.092549     -4.115384
69
Coordinates from ORCA-job my_molecule E -2464.475417983659
  Pt     -0.613617     -0.178768      0.489578
  O       0.617330      0.214344      2.025060
  O      -3.435650     -1.499721      1.253967
  P       1.095051      1.663565      2.499446
  P      -2.752634     -1.978253     -0.011990
  O      -1.504172     -3.039599      0.410440
  O      -1.962885     -0.900216     -0.892892
  O      -0.299505      2.441859      2.966477
  O       1.869352      2.509517      1.500567
  C       2.014930      1.331666      4.078336
  C      -3.831711     -2.912410     -1.191715
  C      -2.995936     -3.429223     -2.375909
  C      -4.925115     -1.934713     -1.668193
  C      -4.458344     -4.081501     -0.406497
  C       1.131996      0.529352      5.049719
  C       3.294599      0.551444      3.718811
  C       2.379485      2.705787      4.675822
  H      -1.681642     -3.326346      1.329668
  H      -0.223391      3.372803      2.679607
  H      -2.531190     -2.594090     -2.935817
  H      -3.646889     -3.996623     -3.074817
  H      -2.186686     -4.104194     -2.032570
  H      -4.486313     -1.076500     -2.215368
  H      -5.504558     -1.535913     -0.811765
  H      -5.626461     -2.459764     -2.350798
  H      -3.683381     -4.798209     -0.066526
  H      -5.168211     -4.634227     -1.057383
  H      -5.009492     -3.716616      0.482893
  H       0.873660     -0.462976      4.631685
  H       0.187453      1.064082      5.273636
  H       1.674896      0.373231      6.006437
  H       3.054629     -0.442924      3.292400
  H       3.908028      0.394892      4.631357
  H       3.905441      1.107715      2.979942
  H       1.470952      3.276967      4.954361
  H       2.966351      3.310497      3.955925
  H       2.988781      2.565978      5.593474
  Si      2.540875     -0.981689     -1.368745
  C       4.400144     -0.678137     -1.599179
  C       2.262993     -2.117081      0.118562
  C       1.815331     -1.797025     -2.922553
  H       4.831704     -0.164685     -0.714942
  H       4.605032     -0.047122     -2.488872
  H       4.946104     -1.635008     -1.732508
  H       1.215011     -2.478575      0.172094
  H       2.494039     -1.602418      1.072830
  H       2.921191     -3.007306      0.030184
  H       0.730060     -1.994445     -2.796483
  H       2.307365     -2.772307     -3.118744
  H       1.951378     -1.165409     -3.825272
  H      -0.279808      0.187029     -1.974719
  C       1.742865      0.759805     -1.181414
  C       0.225030      0.829958     -1.223033
  H       2.143512      1.327980     -2.054063
  H       2.123233      1.290300     -0.280928
  Si     -0.506498      2.612651     -1.861719
  H      -0.483790      1.306409     -0.251857
  C      -0.265500      3.947639     -0.555485
  C      -2.324374      2.309075     -2.253583
  C       0.481400      2.970203     -3.434099
  H      -1.081705      3.899262      0.195111
  H      -0.287624      4.955415     -1.019404
  H       0.695977      3.803810     -0.017796
  H      -2.864850      1.929412     -1.362992
  H      -2.448448      1.562929     -3.064043
  H      -2.808130      3.254844     -2.575367
  H       1.526474      3.263976     -3.212805
  H      -0.006489      3.817162     -3.961508
  H       0.492350      2.102438     -4.124038
69
Coordinates from ORCA-job my_molecule E -2464.475424664660
  Pt     -0.609039     -0.180661      0.485894
  O       0.625154      0.209443      2.023003
  O      -3.455408     -1.459261      1.244956
  P       1.086062      1.660776      2.508830
  P      -2.759039     -1.959257     -0.005220
  O      -1.517265     -3.015943      0.448431
  O      -1.955396     -0.898064     -0.893716
  O      -0.315605      2.419066      2.986581
  O       1.847848      2.524164      1.515172
  C       2.012196      1.327068      4.083532
  C      -3.827413     -2.909090     -1.182178
  C      -2.977614     -3.459357     -2.341016
  C      -4.903546     -1.932121     -1.697892
  C      -4.478300     -4.054673     -0.382050
  C       1.139493      0.507141      5.049562
  C       3.300104      0.564073      3.716545
  C       2.361674      2.700529      4.691428
  H      -1.709734     -3.293663      1.367426
  H      -0.261387      3.347580      2.687146
  H      -2.494827     -2.641104     -2.910521
  H      -3.622977     -4.034663     -3.038663
  H      -2.181378     -4.135170     -1.970112
  H      -4.447968     -1.089941     -2.256162
  H      -5.493318     -1.509596     -0.860096
  H      -5.598400     -2.465692     -2.380550
  H      -3.716307     -4.771330     -0.013750
  H      -5.183170     -4.614668     -1.032175
  H      -5.039926     -3.664668      0.489877
  H       0.892627     -0.485082      4.624393
  H       0.188970      1.029318      5.277656
  H       1.684696      0.350592      6.004886
  H       3.070684     -0.430033      3.283770
  H       3.916561      0.408142      4.627141
  H       3.903728      1.132009      2.980602
  H       1.446880      3.259232      4.974548
  H       2.941284      3.317412      3.976000
  H       2.973087      2.560334      5.607608
  Si      2.544208     -0.981407     -1.385779
  C       4.403067     -0.675612     -1.616323
  C       2.267734     -2.126343      0.094377
  C       1.817638     -1.787678     -2.943852
  H       4.834365     -0.162364     -0.731842
  H       4.606772     -0.043627     -2.505592
  H       4.950181     -1.631672     -1.750785
  H       1.216497     -2.477364      0.154495
  H       2.512365     -1.622248      1.050767
  H       2.915717     -3.022592     -0.007404
  H       0.730011     -1.975204     -2.822763
  H       2.301100     -2.767342     -3.139500
  H       1.963059     -1.155808     -3.844904
  H      -0.277624      0.186328     -1.978704
  C       1.745913      0.758736     -1.187728
  C       0.228177      0.828860     -1.227337
  H       2.145822      1.331715     -2.057566
  H       2.127162      1.284667     -0.284936
  Si     -0.505965      2.611688     -1.862959
  H      -0.478180      1.304866     -0.254123
  C      -0.267721      3.944504     -0.553742
  C      -2.322973      2.305291     -2.256359
  C       0.481985      2.974948     -3.433970
  H      -1.089690      3.900631      0.190843
  H      -0.280837      4.952547     -1.017368
  H       0.690035      3.795854     -0.010381
  H      -2.865671      1.935400     -1.363055
  H      -2.445641      1.550489     -3.058910
  H      -2.805244      3.248030     -2.589137
  H       1.530009      3.257667     -3.212232
  H       0.000481      3.830948     -3.952578
  H       0.484216      2.113257     -4.131544
69
Coordinates from ORCA-job my_molecule E -2464.475423820695
  Pt     -0.600569     -0.187721      0.481688
  O       0.637017      0.200299      2.017963
  O      -3.458154     -1.438860      1.240971
  P       1.085193      1.653580      2.510665
  P      -2.766469     -1.954749     -0.005408
  O      -1.532181     -3.016740      0.456256
  O      -1.953798     -0.907007     -0.901523
  O      -0.320796      2.398113      2.996637
  O       1.837381      2.528105      1.519366
  C       2.016046      1.320304      4.082500
  C      -3.843104     -2.904935     -1.174398
  C      -2.996553     -3.480430     -2.323242
  C      -4.904456     -1.920350     -1.706183
  C      -4.512129     -4.031539     -0.362395
  C       1.150219      0.489897      5.045891
  C       3.309082      0.568211      3.711240
  C       2.355743      2.693742      4.695908
  H      -1.728935     -3.290014      1.375695
  H      -0.286731      3.321545      2.679152
  H      -2.502018     -2.675410     -2.901542
  H      -3.646712     -4.056601     -3.015684
  H      -2.209473     -4.160754     -1.941297
  H      -4.436117     -1.091247     -2.273368
  H      -5.491503     -1.479710     -0.875820
  H      -5.604074     -2.453289     -2.384478
  H      -3.761513     -4.753738      0.018422
  H      -5.222018     -4.590397     -1.008010
  H      -5.071628     -3.622569      0.502132
  H       0.910659     -0.502510      4.616977
  H       0.195978      1.004234      5.276153
  H       1.697002      0.333947      6.000412
  H       3.086446     -0.426133      3.275473
  H       3.927678      0.413791      4.620649
  H       3.907919      1.142884      2.976591
  H       1.436908      3.244661      4.980989
  H       2.930761      3.317747      3.982960
  H       2.968269      2.554125      5.611446
  Si      2.561559     -0.970851     -1.388119
  C       4.419771     -0.654301     -1.608940
  C       2.283676     -2.123850      0.085404
  C       1.846366     -1.774078     -2.953031
  H       4.843448     -0.137902     -0.722614
  H       4.624172     -0.021686     -2.497597
  H       4.973365     -1.607091     -1.740069
  H       1.230534     -2.468900      0.147239
  H       2.534546     -1.627480      1.044192
  H       2.925911     -3.023235     -0.024581
  H       0.756741     -1.956738     -2.842565
  H       2.326936     -2.756085     -3.143914
  H       2.003032     -1.142804     -3.852596
  H      -0.265527      0.181191     -1.981896
  C       1.753473      0.764226     -1.186292
  C       0.235553      0.826562     -1.229875
  H       2.153432      1.342714     -2.052421
  H       2.129036      1.288803     -0.280391
  Si     -0.508600      2.605018     -1.867361
  H      -0.473195      1.299188     -0.257226
  C      -0.287497      3.938757     -0.555874
  C      -2.321086      2.284730     -2.270281
  C       0.484156      2.978269     -3.432978
  H      -1.119189      3.896077      0.177919
  H      -0.294324      4.946402     -1.020564
  H       0.663674      3.790933     -0.000625
  H      -2.868257      1.923600     -1.376148
  H      -2.434307      1.518951     -3.063743
  H      -2.805455      3.220847     -2.618351
  H       1.532540      3.255894     -3.206579
  H       0.006615      3.840147     -3.945455
  H       0.485532      2.122211     -4.137460
69
Coordinates from ORCA-job my_molecule E -2464.475404860275
  Pt     -0.596627     -0.191326      0.472217
  O       0.642708      0.190559      2.007059
  O      -3.455933     -1.405964      1.239000
  P       1.073183      1.644530      2.514467
  P      -2.765817     -1.938296     -0.001371
  O      -1.537601     -3.002179      0.472361
  O      -1.945253     -0.904534     -0.906108
  O      -0.338538      2.365491      3.018352
  O       1.807900      2.540015      1.528754
  C       2.015341      1.305662      4.078158
  C      -3.847125     -2.893278     -1.162071
  C      -3.001995     -3.492312     -2.299819
  C      -4.896488     -1.905388     -1.711335
  C      -4.530816     -4.001944     -0.337813
  C       1.162682      0.456143      5.036823
  C       3.314715      0.571346      3.693854
  C       2.342505      2.676488      4.704000
  H      -1.739276     -3.269144      1.392579
  H      -0.330289      3.285344      2.689015
  H      -2.497835     -2.699844     -2.887141
  H      -3.655111     -4.071609     -2.986843
  H      -2.222452     -4.174524     -1.906037
  H      -4.417883     -1.088947     -2.288194
  H      -5.482053     -1.447476     -0.889283
  H      -5.599145     -2.440604     -2.384687
  H      -3.789472     -4.726612      0.056399
  H      -5.243738     -4.562420     -0.978684
  H      -5.089434     -3.575240      0.518648
  H       0.932173     -0.534543      4.599023
  H       0.203919      0.957929      5.275691
  H       1.715001      0.296828      5.987574
  H       3.100953     -0.421105      3.249442
  H       3.938856      0.414963      4.599123
  H       3.904426      1.159477      2.962447
  H       1.418792      3.214764      4.997190
  H       2.908329      3.313713      3.995423
  H       2.959551      2.534201      5.616083
  Si      2.574033     -0.962129     -1.387767
  C       4.432154     -0.638095     -1.597818
  C       2.291473     -2.116826      0.083462
  C       1.871039     -1.767535     -2.957098
  H       4.847844     -0.116139     -0.710969
  H       4.639105     -0.008127     -2.487758
  H       4.991059     -1.588750     -1.721736
  H       1.235864     -2.454020      0.147675
  H       2.548539     -1.624714      1.042791
  H       2.926588     -3.020729     -0.030454
  H       0.779398     -1.944444     -2.857514
  H       2.348317     -2.752743     -3.139513
  H       2.039869     -1.140109     -3.857125
  H      -0.256914      0.177109     -1.989054
  C       1.758112      0.769624     -1.189958
  C       0.240144      0.825722     -1.237172
  H       2.158442      1.349326     -2.055083
  H       2.128968      1.296376     -0.283414
  Si     -0.512340      2.599738     -1.878156
  H      -0.470039      1.296593     -0.265118
  C      -0.302675      3.935895     -0.566990
  C      -2.321638      2.268278     -2.286045
  C       0.482393      2.978532     -3.441180
  H      -1.141473      3.896123      0.158871
  H      -0.303787      4.942524     -1.033904
  H       0.643719      3.788882     -0.003193
  H      -2.872174      1.918512     -1.389499
  H      -2.428421      1.490410     -3.068499
  H      -2.806891      3.197853     -2.650064
  H       1.531906      3.250392     -3.213007
  H       0.008680      3.845654     -3.948312
  H       0.480552      2.126652     -4.150698
69
Coordinates from ORCA-job my_molecule E -2464.475397015576
  Pt     -0.589707     -0.200999      0.469332
  O       0.652104      0.181606      2.005651
  O      -3.464183     -1.380935      1.232301
  P       1.064520      1.638508      2.520638
  P      -2.778791     -1.933956     -0.001727
  O      -1.562462     -3.005846      0.484685
  O      -1.944750     -0.918485     -0.914929
  O      -0.352387      2.336948      3.040800
  O       1.779170      2.550364      1.535161
  C       2.020124      1.303148      4.076755
  C      -3.869767     -2.888400     -1.153683
  C      -3.029741     -3.513641     -2.281032
  C      -4.903324     -1.892869     -1.719013
  C      -4.571728     -3.976488     -0.317579
  C       1.182599      0.439010      5.035867
  C       3.325931      0.586037      3.682168
  C       2.334301      2.674645      4.707687
  H      -1.770321     -3.264822      1.405850
  H      -0.372145      3.250241      2.694216
  H      -2.513147     -2.735743     -2.877033
  H      -3.688791     -4.092708     -2.962528
  H      -2.260434     -4.201098     -1.876438
  H      -4.411595     -1.091305     -2.305574
  H      -5.484341     -1.415543     -0.904782
  H      -5.612050     -2.426934     -2.386893
  H      -3.842329     -4.706647      0.088758
  H      -5.290589     -4.535089     -0.953419
  H      -5.126672     -3.530642      0.531495
  H       0.961217     -0.552163      4.594435
  H       0.219432      0.928693      5.281848
  H       1.741723      0.281591      5.982951
  H       3.121699     -0.406995      3.234671
  H       3.956690      0.433384      4.583485
  H       3.904996      1.184258      2.950400
  H       1.405723      3.200898      5.007132
  H       2.889420      3.321794      3.999652
  H       2.957002      2.535076      5.616353
  Si      2.596540     -0.952117     -1.391888
  C       4.454138     -0.613191     -1.581662
  C       2.308325     -2.124035      0.064439
  C       1.913804     -1.746472     -2.975728
  H       4.857422     -0.093992     -0.687501
  H       4.664721      0.024127     -2.465497
  H       5.021410     -1.558755     -1.706513
  H       1.251649     -2.458865      0.123320
  H       2.565175     -1.644395      1.030022
  H       2.941008     -3.028322     -0.059536
  H       0.820761     -1.923009     -2.892088
  H       2.392281     -2.731043     -3.158409
  H       2.094829     -1.113003     -3.869102
  H      -0.241940      0.167800     -1.992065
  C       1.767077      0.772277     -1.185409
  C       0.248899      0.819271     -1.238604
  H       2.167479      1.360678     -2.044599
  H       2.130525      1.295355     -0.273770
  Si     -0.512216      2.588816     -1.882321
  H      -0.465076      1.287170     -0.268253
  C      -0.317603      3.925758     -0.569372
  C      -2.317221      2.245592     -2.299287
  C       0.487379      2.975854     -3.440237
  H      -1.164600      3.886961      0.146937
  H      -0.313176      4.932099     -1.036908
  H       0.622620      3.779591      0.004925
  H      -2.872849      1.905545     -1.402185
  H      -2.415410      1.456891     -3.071899
  H      -2.803052      3.168628     -2.678832
  H       1.537041      3.243505     -3.207776
  H       0.017264      3.847728     -3.942515
  H       0.485399      2.128664     -4.155351
69
Coordinates from ORCA-job my_molecule E -2464.475416068799
  Pt     -0.593266     -0.193419      0.469842
  O       0.646870      0.186232      2.007242
  O      -3.497117     -1.358088      1.216920
  P       1.065669      1.640436      2.524756
  P      -2.788603     -1.918898     -0.000164
  O      -1.571439     -2.975901      0.516801
  O      -1.947563     -0.908461     -0.912721
  O      -0.348249      2.342155      3.048908
  O       1.781823      2.552609      1.540801
  C       2.022371      1.297519      4.078622
  C      -3.855063     -2.894062     -1.157807
  C      -2.994766     -3.522765     -2.267811
  C      -4.889336     -1.912954     -1.746607
  C      -4.559203     -3.980230     -0.321029
  C       1.181886      0.436005      5.037561
  C       3.323897      0.574441      3.680855
  C       2.344609      2.666229      4.711523
  H      -1.789909     -3.223519      1.438650
  H      -0.359699      3.260396      2.715225
  H      -2.475381     -2.746397     -2.863332
  H      -3.640159     -4.112454     -2.953272
  H      -2.226579     -4.201486     -1.846645
  H      -4.396521     -1.112894     -2.334356
  H      -5.485250     -1.432751     -0.944947
  H      -5.584289     -2.459596     -2.418759
  H      -3.829218     -4.699995      0.102373
  H      -5.264286     -4.551082     -0.961408
  H      -5.129918     -3.531297      0.515892
  H       0.953970     -0.552970      4.594448
  H       0.221952      0.930576      5.286229
  H       1.741943      0.273256      5.983175
  H       3.114113     -0.416556      3.231481
  H       3.955026      0.416856      4.581066
  H       3.905256      1.171310      2.949771
  H       1.419404      3.196732      5.014086
  H       2.901414      3.312055      4.003624
  H       2.968315      2.521769      5.618733
  Si      2.583611     -0.954046     -1.394878
  C       4.441856     -0.622442     -1.590749
  C       2.295070     -2.118655      0.067357
  C       1.893851     -1.752123     -2.973887
  H       4.850022     -0.105068     -0.697752
  H       4.652137      0.014277     -2.475075
  H       5.004928     -1.570259     -1.717635
  H       1.238959     -2.455213      0.126783
  H       2.549424     -1.633011      1.030612
  H       2.929740     -3.022367     -0.050414
  H       0.801829     -1.931751     -2.883851
  H       2.374244     -2.735414     -3.158551
  H       2.067882     -1.119086     -3.868945
  H      -0.252671      0.175310     -1.992264
  C       1.760555      0.773751     -1.192781
  C       0.242576      0.825340     -1.240375
  H       2.159308      1.357307     -2.056040
  H       2.129113      1.298870     -0.284326
  Si     -0.514425      2.597201     -1.881880
  H      -0.467080      1.295078     -0.267168
  C      -0.306734      3.934147     -0.570971
  C      -2.323227      2.263038     -2.289736
  C       0.479745      2.977899     -3.444926
  H      -1.145849      3.894023      0.154478
  H      -0.308649      4.940544     -1.038377
  H       0.639313      3.789183     -0.006116
  H      -2.874586      1.918568     -1.391697
  H      -2.428680      1.479979     -3.067119
  H      -2.808226      3.190219     -2.660109
  H       1.529454      3.249308     -3.217110
  H       0.006119      3.845779     -3.950828
  H       0.477685      2.126813     -4.155404
69
Coordinates from ORCA-job my_molecule E -2464.475426811061
  Pt     -0.596479     -0.190508      0.474179
  O       0.640823      0.194089      2.018027
  O      -3.507090     -1.368878      1.213572
  P       1.079299      1.647104      2.522106
  P      -2.789745     -1.924106     -0.000700
  O      -1.567965     -2.973856      0.520798
  O      -1.950926     -0.908367     -0.909557
  O      -0.328548      2.375672      3.026051
  O       1.817177      2.537345      1.534286
  C       2.019151      1.306709      4.086982
  C      -3.844609     -2.905715     -1.163504
  C      -2.976084     -3.522157     -2.273941
  C      -4.887272     -1.932507     -1.750586
  C      -4.539587     -4.001622     -0.331757
  C       1.159218      0.467282      5.048207
  C       3.313343      0.561221      3.707092
  C       2.356080      2.677175      4.708287
  H      -1.786904     -3.220026      1.442962
  H      -0.312699      3.297130      2.701511
  H      -2.465238     -2.738516     -2.867304
  H      -3.613680     -4.118208     -2.961218
  H      -2.200309     -4.192446     -1.853141
  H      -4.401010     -1.125624     -2.334481
  H      -5.489087     -1.460921     -0.948232
  H      -5.575710     -2.483228     -2.426147
  H      -3.803279     -4.715565      0.090547
  H      -5.237843     -4.577116     -0.975456
  H      -5.116367     -3.561304      0.505581
  H       0.919901     -0.522613      4.613238
  H       0.204886      0.978307      5.284903
  H       1.710042      0.305663      5.999421
  H       3.093090     -0.431646      3.267003
  H       3.935562      0.404816      4.613693
  H       3.908399      1.141842      2.973923
  H       1.436401      3.223530      4.999399
  H       2.926579      3.308056      3.997809
  H       2.971439      2.533388      5.621281
  Si      2.570244     -0.961883     -1.406035
  C       4.428538     -0.637441     -1.613112
  C       2.286813     -2.127751      0.056302
  C       1.867219     -1.754342     -2.982020
  H       4.845578     -0.129038     -0.719057
  H       4.635567      0.005220     -2.493897
  H       4.986053     -1.586948     -1.751355
  H       1.233258     -2.472522      0.113029
  H       2.534675     -1.639341      1.019803
  H       2.928823     -3.026627     -0.058974
  H       0.777234     -1.940335     -2.880953
  H       2.351009     -2.733786     -3.178024
  H       2.028227     -1.115205     -3.875214
  H      -0.262968      0.180980     -1.990441
  C       1.755183      0.768844     -1.196096
  C       0.237219      0.826833     -1.238201
  H       2.152616      1.352484     -2.059870
  H       2.129637      1.289956     -0.287708
  Si     -0.511963      2.604047     -1.872632
  H      -0.468978      1.297324     -0.262639
  C      -0.293983      3.935147     -0.557618
  C      -2.323650      2.282226     -2.277613
  C       0.481542      2.983595     -3.436467
  H      -1.126081      3.889321      0.175549
  H      -0.302688      4.943814     -1.020074
  H       0.656679      3.789105     -0.001145
  H      -2.871980      1.922906     -1.383516
  H      -2.434805      1.513857     -3.068819
  H      -2.807769      3.217197     -2.629025
  H       1.529567      3.261508     -3.208770
  H       0.003723      3.846705     -3.946605
  H       0.484502      2.129752     -4.143639
69
Coordinates from ORCA-job my_molecule E -2464.475436406753
  Pt     -0.600103     -0.179364      0.475655
  O       0.627957      0.207961      2.020860
  O      -3.492162     -1.399706      1.217825
  P       1.085358      1.657175      2.517811
  P      -2.774166     -1.933943     -0.005341
  O      -1.539181     -2.976609      0.499256
  O      -1.950580     -0.899523     -0.907087
  O      -0.316607      2.407940      3.006420
  O       1.842569      2.531782      1.530759
  C       2.011852      1.311763      4.089803
  C      -3.822611     -2.914741     -1.174591
  C      -2.952413     -3.502157     -2.299330
  C      -4.883857     -1.948915     -1.740166
  C      -4.495135     -4.032687     -0.353796
  C       1.135844      0.488509      5.050391
  C       3.297651      0.546946      3.720069
  C       2.364338      2.680446      4.706464
  H      -1.749634     -3.231673      1.420964
  H      -0.270288      3.336549      2.706039
  H      -2.462220     -2.702280     -2.888397
  H      -3.584076     -4.103489     -2.987479
  H      -2.159875     -4.161307     -1.892330
  H      -4.413639     -1.126455     -2.315447
  H      -5.486701     -1.498014     -0.926800
  H      -5.568860     -2.499725     -2.419157
  H      -3.745214     -4.741062      0.053583
  H      -5.188971     -4.609575     -1.001002
  H      -5.073020     -3.613109      0.493401
  H       0.884128     -0.499419      4.618023
  H       0.187916      1.013940      5.281399
  H       1.680449      0.322359      6.004398
  H       3.065935     -0.445514      3.284892
  H       3.914068      0.387715      4.630146
  H       3.903358      1.115101      2.985844
  H       1.450864      3.240250      4.991694
  H       2.946178      3.300570      3.995692
  H       2.973744      2.532753      5.622815
  Si      2.546619     -0.973531     -1.401959
  C       4.404890     -0.667653     -1.635812
  C       2.271522     -2.114529      0.081642
  C       1.817709     -1.782603     -2.957663
  H       4.838627     -0.159260     -0.749728
  H       4.606370     -0.030897     -2.522153
  H       4.951326     -1.623162     -1.776909
  H       1.220803     -2.466896      0.143492
  H       2.514219     -1.605988      1.036173
  H       2.921104     -3.010032     -0.016053
  H       0.730744     -1.972768     -2.834380
  H       2.302813     -2.761199     -3.154771
  H       1.959304     -1.150574     -3.859220
  H      -0.277962      0.192703     -1.989761
  C       1.747834      0.766124     -1.205970
  C       0.230147      0.834844     -1.239639
  H       2.144272      1.337461     -2.078342
  H       2.132007      1.292736     -0.304808
  Si     -0.508157      2.618055     -1.868323
  H      -0.470398      1.308350     -0.261031
  C      -0.270499      3.945027     -0.552823
  C      -2.325294      2.313036     -2.261680
  C       0.478640      2.990291     -3.438217
  H      -1.088000      3.891500      0.196253
  H      -0.293557      4.955465     -1.010875
  H       0.690959      3.801027     -0.014670
  H      -2.866165      1.934077     -1.371082
  H      -2.447631      1.564972     -3.070633
  H      -2.809189      3.257994     -2.585526
  H       1.524858      3.278748     -3.215485
  H      -0.007337      3.844304     -3.955970
  H       0.486527      2.129888     -4.137360
69
Coordinates from ORCA-job my_molecule E -2464.475443728462
  Pt     -0.595830     -0.187736      0.469382
  O       0.635386      0.196328      2.013433
  O      -3.484902     -1.375983      1.220361
  P       1.076303      1.647387      2.520619
  P      -2.776613     -1.925571     -0.001889
  O      -1.551566     -2.978439      0.505212
  O      -1.944822     -0.904916     -0.911490
  O      -0.330838      2.376672      3.025909
  O       1.815810      2.539326      1.535625
  C       2.015586      1.300954      4.084589
  C      -3.839757     -2.901484     -1.161876
  C      -2.979577     -3.507316     -2.284531
  C      -4.890359     -1.926708     -1.731997
  C      -4.524045     -4.005231     -0.331748
  C       1.153368      0.462077      5.044282
  C       3.307304      0.552237      3.702787
  C       2.356899      2.669079      4.708679
  H      -1.763629     -3.228723      1.427832
  H      -0.310796      3.300673      2.708907
  H      -2.479562     -2.717639     -2.879108
  H      -3.620680     -4.103826     -2.968123
  H      -2.195315     -4.174842     -1.875201
  H      -4.411539     -1.114868     -2.315175
  H      -5.485083     -1.461853     -0.920486
  H      -5.584381     -2.474167     -2.404506
  H      -3.782051     -4.719960      0.079109
  H      -5.226407     -4.578178     -0.973238
  H      -5.094647     -3.572526      0.513792
  H       0.909745     -0.525587      4.606664
  H       0.201246      0.976085      5.283448
  H       1.704620      0.295486      5.994379
  H       3.083834     -0.439476      3.261678
  H       3.929884      0.393075      4.608662
  H       3.903516      1.131982      2.969843
  H       1.439024      3.217655      5.001364
  H       2.929068      3.299803      3.999395
  H       2.971981      2.521505      5.621247
  Si      2.567979     -0.961257     -1.398693
  C       4.426830     -0.640876     -1.606869
  C       2.281712     -2.114642      0.073066
  C       1.864609     -1.764634     -2.969018
  H       4.845179     -0.132439     -0.713442
  H       4.634955      0.000514     -2.488317
  H       4.982294     -1.591710     -1.744260
  H       1.229437     -2.463787      0.126913
  H       2.521498     -1.615600      1.033291
  H       2.928627     -3.011494     -0.029601
  H       0.775803     -1.955374     -2.864249
  H       2.352721     -2.742579     -3.161822
  H       2.020447     -1.129075     -3.865702
  H      -0.263513      0.182279     -1.993823
  C       1.754755      0.771608     -1.201599
  C       0.236833      0.829530     -1.242883
  H       2.151968      1.348793     -2.069768
  H       2.130003      1.298406     -0.296853
  Si     -0.512911      2.605666     -1.879507
  H      -0.468913      1.300508     -0.267377
  C      -0.295245      3.938176     -0.565995
  C      -2.324693      2.283507     -2.283715
  C       0.480146      2.983569     -3.444084
  H      -1.122251      3.886292      0.172633
  H      -0.314307      4.946774     -1.028300
  H       0.659753      3.798691     -0.015281
  H      -2.870913      1.916073     -1.391597
  H      -2.435613      1.521252     -3.080908
  H      -2.811169      3.220197     -2.627151
  H       1.525448      3.271439     -3.216294
  H      -0.003823      3.839432     -3.960617
  H       0.491179      2.125470     -4.146011
69
Coordinates from ORCA-job my_molecule E -2464.475441555778
  Pt     -0.591573     -0.195484      0.465347
  O       0.643802      0.185557      2.006557
  O      -3.486337     -1.356105      1.217351
  P       1.063578      1.639621      2.523889
  P      -2.785560     -1.920232     -0.002794
  O      -1.569680     -2.981373      0.508812
  O      -1.944965     -0.912654     -0.918889
  O      -0.349337      2.340729      3.051679
  O       1.777208      2.552652      1.539073
  C       2.022158      1.295697      4.076458
  C      -3.860610     -2.892462     -1.154819
  C      -3.008580     -3.516098     -2.273948
  C      -4.900645     -1.910055     -1.731234
  C      -4.556629     -3.982199     -0.316073
  C       1.180691      0.436852      5.037057
  C       3.321648      0.569340      3.678418
  C       2.347922      2.664162      4.708000
  H      -1.784032     -3.226708      1.432254
  H      -0.361023      3.259516      2.719532
  H      -2.497992     -2.736588     -2.872957
  H      -3.657774     -4.107601     -2.954227
  H      -2.233336     -4.191924     -1.861096
  H      -4.413321     -1.108541     -2.321587
  H      -5.488852     -1.431929     -0.922671
  H      -5.601933     -2.454802     -2.398361
  H      -3.822577     -4.702588      0.099207
  H      -5.266383     -4.551661     -0.952512
  H      -5.121007     -3.536776      0.527046
  H       0.948422     -0.551247      4.594226
  H       0.222965      0.934822      5.287326
  H       1.742105      0.271928      5.981478
  H       3.109563     -0.422276      3.231575
  H       3.953806      0.412833      4.578104
  H       3.903410      1.163514      2.945377
  H       1.424194      3.196964      5.011050
  H       2.905241      3.308453      3.999108
  H       2.971963      2.519041      5.614875
  Si      2.588354     -0.951638     -1.392360
  C       4.447428     -0.618710     -1.577018
  C       2.291608     -2.115487      0.068939
  C       1.908450     -1.750193     -2.975418
  H       4.851642     -0.109982     -0.677284
  H       4.661756      0.026449     -2.454218
  H       5.010879     -1.565416     -1.710359
  H       1.237464     -2.459910      0.117052
  H       2.530470     -1.625142      1.033827
  H       2.934555     -3.014603     -0.038698
  H       0.817998     -1.940311     -2.888067
  H       2.398357     -2.728157     -3.163469
  H       2.078223     -1.112147     -3.867767
  H      -0.249537      0.173001     -1.996408
  C       1.762236      0.775190     -1.195785
  C       0.244122      0.824032     -1.244326
  H       2.160555      1.357075     -2.060294
  H       2.129277      1.302495     -0.288000
  Si     -0.514104      2.594867     -1.886117
  H      -0.465599      1.292953     -0.271366
  C      -0.310712      3.930038     -0.572814
  C      -2.321795      2.260453     -2.298434
  C       0.483475      2.978289     -3.446489
  H      -1.145872      3.880607      0.156778
  H      -0.323999      4.937666     -1.037399
  H       0.638337      3.791673     -0.011557
  H      -2.872799      1.904438     -1.404683
  H      -2.424403      1.485723     -3.084572
  H      -2.808948      3.190310     -2.659065
  H       1.528720      3.263444     -3.214977
  H       0.002286      3.837396     -3.960200
  H       0.495048      2.123222     -4.152088
69
Coordinates from ORCA-job my_molecule E -2464.475436493360
  Pt     -0.585727     -0.205810      0.457879
  O       0.653034      0.170408      1.998828
  O      -3.482291     -1.320237      1.218216
  P       1.057153      1.625453      2.526894
  P      -2.789860     -1.905844      0.003213
  O      -1.586941     -2.976815      0.524669
  O      -1.937452     -0.917908     -0.923039
  O      -0.359672      2.306491      3.069436
  O       1.754843      2.553959      1.545161
  C       2.025193      1.280548      4.073168
  C      -3.878954     -2.875832     -1.137390
  C      -3.036973     -3.521073     -2.251814
  C      -4.907479     -1.886071     -1.721876
  C      -4.587199     -3.948222     -0.286720
  C       1.194441      0.408407      5.031339
  C       3.329916      0.568390      3.666858
  C       2.340427      2.648077      4.712004
  H      -1.804953     -3.212490      1.449746
  H      -0.397930      3.218036      2.719819
  H      -2.516110     -2.753998     -2.857999
  H      -3.695230     -4.109130     -2.926349
  H      -2.270776     -4.204154     -1.834061
  H      -4.411180     -1.097672     -2.322311
  H      -5.487166     -1.391385     -0.917122
  H      -5.617694     -2.428773     -2.381180
  H      -3.861666     -4.673780      0.134549
  H      -5.305366     -4.514974     -0.916111
  H      -5.144208     -3.487262      0.552959
  H       0.969540     -0.579105      4.583360
  H       0.233165      0.896572      5.287036
  H       1.760141      0.243011      5.973101
  H       3.125784     -0.422474      3.214761
  H       3.966006      0.412477      4.563858
  H       3.904439      1.172275      2.936008
  H       1.412727      3.171005      5.019935
  H       2.890273      3.301503      4.005644
  H       2.967821      2.502958      5.616551
  Si      2.613742     -0.935911     -1.393087
  C       4.472455     -0.585468     -1.545316
  C       2.303857     -2.117014      0.051441
  C       1.965616     -1.724229     -2.994482
  H       4.858252     -0.082244     -0.634467
  H       4.694547      0.070176     -2.412749
  H       5.046232     -1.525873     -1.679218
  H       1.249224     -2.461620      0.086783
  H       2.534099     -1.637895      1.023996
  H       2.947550     -3.014991     -0.060958
  H       0.874635     -1.919782     -2.928383
  H       2.462854     -2.698580     -3.182036
  H       2.148122     -1.077850     -3.878261
  H      -0.233354      0.160278     -2.001765
  C       1.769783      0.781975     -1.193616
  C       0.251555      0.817445     -1.249318
  H       2.167305      1.371172     -2.053513
  H       2.127076      1.309135     -0.281960
  Si     -0.520935      2.579230     -1.900618
  H      -0.462788      1.283581     -0.279024
  C      -0.340946      3.921068     -0.590626
  C      -2.322001      2.224574     -2.324621
  C       0.483164      2.968887     -3.455318
  H      -1.184660      3.870614      0.128988
  H      -0.354206      4.926617     -1.059769
  H       0.601793      3.790821     -0.017007
  H      -2.878205      1.877313     -1.430698
  H      -2.411198      1.437278     -3.099773
  H      -2.812899      3.145253     -2.703261
  H       1.525465      3.260070     -3.218049
  H      -0.000027      3.825415     -3.971410
  H       0.503817      2.113992     -4.160931
69
Coordinates from ORCA-job my_molecule E -2464.475428452723
  Pt     -0.582948     -0.213441      0.453971
  O       0.661707      0.158476      1.990823
  O      -3.486848     -1.300831      1.213818
  P       1.038832      1.616363      2.531999
  P      -2.802714     -1.899461      0.000233
  O      -1.609650     -2.979939      0.524474
  O      -1.941358     -0.924165     -0.931250
  O      -0.383061      2.258197      3.107307
  O       1.697890      2.572303      1.549827
  C       2.036901      1.276121      4.059878
  C      -3.904488     -2.863271     -1.133325
  C      -3.072478     -3.519310     -2.248922
  C      -4.926175     -1.866041     -1.717197
  C      -4.619089     -3.926537     -0.276672
  C       1.239109      0.375263      5.019707
  C       3.351091      0.597570      3.627659
  C       2.330823      2.643256      4.709637
  H      -1.829318     -3.211111      1.450327
  H      -0.462771      3.162165      2.745266
  H      -2.545999     -2.758680     -2.858363
  H      -3.738722     -4.102158     -2.920102
  H      -2.311637     -4.209025     -1.832293
  H      -4.425054     -1.084954     -2.323170
  H      -5.497484     -1.362600     -0.911873
  H      -5.644474     -2.404551     -2.371142
  H      -3.898520     -4.657307      0.144150
  H      -5.344735     -4.488846     -0.901454
  H      -5.168784     -3.458007      0.563679
  H       1.029883     -0.612112      4.563865
  H       0.270968      0.839279      5.293698
  H       1.821400      0.212370      5.951742
  H       3.162813     -0.392479      3.167006
  H       4.002696      0.445924      4.514205
  H       3.902325      1.222288      2.896350
  H       1.396080      3.142483      5.034906
  H       2.856821      3.316144      4.003398
  H       2.973177      2.502059      5.604268
  Si      2.634460     -0.926886     -1.377527
  C       4.492815     -0.564287     -1.501519
  C       2.310825     -2.114876      0.058222
  C       2.014753     -1.713671     -2.990963
  H       4.862165     -0.062075     -0.583335
  H       4.722991      0.096058     -2.363256
  H       5.074587     -1.500443     -1.630692
  H       1.254990     -2.456573      0.085046
  H       2.535204     -1.640998      1.034737
  H       2.952827     -3.014070     -0.053942
  H       0.923290     -1.911964     -2.943710
  H       2.517031     -2.686607     -3.172343
  H       2.210176     -1.065018     -3.870284
  H      -0.218616      0.148261     -2.002979
  C       1.776694      0.784848     -1.185405
  C       0.258564      0.810460     -1.250021
  H       2.175881      1.376326     -2.042946
  H       2.124268      1.315172     -0.271847
  Si     -0.521672      2.565726     -1.909654
  H      -0.459783      1.275616     -0.283232
  C      -0.358262      3.910967     -0.600803
  C      -2.317613      2.198857     -2.344642
  C       0.489598      2.959662     -3.458710
  H      -1.210175      3.862073      0.109207
  H      -0.366920      4.915344     -1.072487
  H       0.577938      3.783423     -0.015900
  H      -2.879772      1.860270     -1.451179
  H      -2.397015      1.401560     -3.110488
  H      -2.808672      3.113029     -2.738558
  H       1.529904      3.253426     -3.215833
  H       0.006957      3.815499     -3.976453
  H       0.516376      2.105455     -4.164936
69
Coordinates from ORCA-job my_molecule E -2464.475427898766
  Pt     -0.579872     -0.222418      0.449201
  O       0.670918      0.141872      1.983982
  O      -3.487227     -1.267705      1.217139
  P       1.033516      1.600352      2.534743
  P      -2.810471     -1.883562      0.007829
  O      -1.628546     -2.972422      0.539769
  O      -1.939525     -0.924918     -0.931763
  O      -0.390309      2.223682      3.124453
  O       1.676413      2.569051      1.554354
  C       2.041790      1.260989      4.055845
  C      -3.924366     -2.844472     -1.116261
  C      -3.102078     -3.513234     -2.231484
  C      -4.939940     -1.841869     -1.701647
  C      -4.644436     -3.897022     -0.251102
  C       1.257864      0.344233      5.012272
  C       3.362338      0.600993      3.614330
  C       2.322163      2.626919      4.714042
  H      -1.850843     -3.195546      1.466952
  H      -0.497986      3.116810      2.743241
  H      -2.571202     -2.760115     -2.846368
  H      -3.775783     -4.093468     -2.897456
  H      -2.345670     -4.207481     -1.814275
  H      -4.434714     -1.069213     -2.314996
  H      -5.502872     -1.328286     -0.896847
  H      -5.666039     -2.378009     -2.348896
  H      -3.928282     -4.631236      0.171237
  H      -5.376920     -4.456957     -0.870022
  H      -5.187408     -3.419367      0.588521
  H       1.058310     -0.642291      4.550242
  H       0.285510      0.795273      5.292831
  H       1.845408      0.181601      5.941033
  H       3.184620     -0.387709      3.146755
  H       4.018401      0.450533      4.497768
  H       3.904123      1.237861      2.886435
  H       1.382747      3.113610      5.044623
  H       2.838752      3.310372      4.010991
  H       2.968423      2.486715      5.606002
  Si      2.658631     -0.911874     -1.374690
  C       4.515418     -0.532095     -1.464114
  C       2.321789     -2.117597      0.043027
  C       2.072806     -1.687349     -3.006242
  H       4.865577     -0.038448     -0.533828
  H       4.753437      0.141077     -2.313704
  H       5.107403     -1.461493     -1.595666
  H       1.266350     -2.461447      0.055183
  H       2.534395     -1.654432      1.027224
  H       2.966689     -3.014269     -0.072528
  H       0.982171     -1.893940     -2.980453
  H       2.584986     -2.654961     -3.188456
  H       2.278667     -1.028637     -3.875641
  H      -0.203339      0.134228     -2.006272
  C       1.782835      0.790576     -1.181244
  C       0.264925      0.803108     -1.253561
  H       2.181337      1.388611     -2.034504
  H       2.120110      1.321430     -0.264272
  Si     -0.528019      2.548510     -1.926053
  H      -0.457262      1.267446     -0.289827
  C      -0.390000      3.902162     -0.622976
  C      -2.316335      2.161871     -2.374925
  C       0.492097      2.946128     -3.468483
  H      -1.251216      3.852992      0.075639
  H      -0.398203      4.903712     -1.100745
  H       0.538354      3.784002     -0.023952
  H      -2.884567      1.829023     -1.483214
  H      -2.381416      1.354879     -3.131861
  H      -2.810474      3.067519     -2.784376
  H       1.527734      3.250294     -3.218498
  H       0.005906      3.795728     -3.993100
  H       0.532407      2.089683     -4.171366
69
Coordinates from ORCA-job my_molecule E -2464.475438407766
  Pt     -0.581559     -0.225075      0.451014
  O       0.675109      0.135777      1.982379
  O      -3.493957     -1.264336      1.218518
  P       1.021536      1.596428      2.538812
  P      -2.821354     -1.881054      0.007211
  O      -1.642914     -2.975380      0.535504
  O      -1.947939     -0.924261     -0.932093
  O      -0.403017      2.195720      3.150633
  O       1.637277      2.579708      1.555361
  C       2.052609      1.263833      4.045858
  C      -3.941147     -2.835891     -1.116184
  C      -3.124371     -3.500091     -2.238183
  C      -4.958419     -1.829511     -1.692120
  C      -4.658271     -3.891773     -0.252677
  C       1.296361      0.325834      5.004013
  C       3.379462      0.631004      3.583855
  C       2.316761      2.629504      4.711317
  H      -1.864658     -3.199441      1.462623
  H      -0.538847      3.080986      2.760184
  H      -2.596633     -2.744360     -2.852495
  H      -3.801303     -4.077717     -2.903135
  H      -2.365784     -4.195941     -1.827586
  H      -4.455198     -1.054639     -2.304387
  H      -5.516782     -1.318991     -0.882232
  H      -5.688162     -2.361721     -2.338507
  H      -3.940776     -4.628166      0.163488
  H      -5.393568     -4.448595     -0.871075
  H      -5.197905     -3.417582      0.591094
  H       1.108651     -0.660337      4.536323
  H       0.319721      0.757285      5.300179
  H       1.897977      0.166189      5.924251
  H       3.214224     -0.356844      3.109913
  H       4.048231      0.485111      4.458493
  H       3.901340      1.283574      2.855333
  H       1.372887      3.097568      5.055617
  H       2.813792      3.326858      4.007798
  H       2.975344      2.493796      5.594935
  Si      2.666938     -0.910883     -1.361253
  C       4.523656     -0.526298     -1.426447
  C       2.316073     -2.123100      0.047445
  C       2.103090     -1.681163     -3.003205
  H       4.861866     -0.039572     -0.488114
  H       4.769781      0.154442     -2.267658
  H       5.119288     -1.453255     -1.558811
  H       1.260784     -2.467555      0.047576
  H       2.517808     -1.663505      1.035650
  H       2.962789     -3.018849     -0.064887
  H       1.013219     -1.893029     -2.991372
  H       2.621709     -2.645534     -3.184473
  H       2.315902     -1.017307     -3.867014
  H      -0.197074      0.124279     -2.002618
  C       1.784681      0.788491     -1.172434
  C       0.267096      0.796727     -1.250539
  H       2.185111      1.387379     -2.024160
  H       2.116129      1.320946     -0.254277
  Si     -0.527119      2.538265     -1.930922
  H      -0.456159      1.263093     -0.289684
  C      -0.401235      3.894388     -0.629121
  C      -2.311610      2.146913     -2.390772
  C       0.501564      2.936628     -3.467576
  H      -1.268393      3.846051      0.062166
  H      -0.406345      4.895000     -1.108809
  H       0.521881      3.778655     -0.021494
  H      -2.884147      1.811627     -1.502769
  H      -2.369959      1.340508     -3.148846
  H      -2.805553      3.051723     -2.802359
  H       1.533489      3.248202     -3.211377
  H       0.013849      3.781264     -3.998779
  H       0.552167      2.077999     -4.167103
69
Coordinates from ORCA-job my_molecule E -2464.475457590965
  Pt     -0.583061     -0.229198      0.450922
  O       0.680510      0.122431      1.978425
  O      -3.501516     -1.242434      1.224020
  P       1.013089      1.583526      2.543630
  P      -2.832963     -1.866735      0.014277
  O      -1.660935     -2.966701      0.545038
  O      -1.954254     -0.918014     -0.928129
  O      -0.410355      2.162560      3.176050
  O       1.606880      2.579595      1.559443
  C       2.062909      1.253149      4.037831
  C      -3.959726     -2.818029     -1.105219
  C      -3.149319     -3.483973     -2.230771
  C      -4.976469     -1.808306     -1.676276
  C      -4.676542     -3.872206     -0.239425
  C       1.331260      0.293746      4.993898
  C       3.395141      0.646325      3.556446
  C       2.312377      2.616286      4.714012
  H      -1.883409     -3.186831      1.472904
  H      -0.576360      3.035502      2.769811
  H      -2.623018     -2.729353     -2.847594
  H      -3.830328     -4.060667     -2.892369
  H      -2.390132     -4.181173     -1.823497
  H      -4.473541     -1.034690     -2.290438
  H      -5.529500     -1.296460     -0.863620
  H      -5.710613     -2.337808     -2.319898
  H      -3.959482     -4.610440      0.174152
  H      -5.415409     -4.426999     -0.855406
  H      -5.212385     -3.396829      0.606111
  H       1.153575     -0.690281      4.517858
  H       0.351511      0.706852      5.305713
  H       1.945431      0.133816      5.905750
  H       3.241462     -0.338982      3.073431
  H       4.074657      0.502080      4.423021
  H       3.899298      1.315048      2.830101
  H       1.364716      3.067053      5.070528
  H       2.792962      3.327531      4.012938
  H       2.980799      2.481949      5.590425
  Si      2.683148     -0.900789     -1.349580
  C       4.538268     -0.504605     -1.377376
  C       2.314045     -2.125503      0.043499
  C       2.154927     -1.662153     -3.007736
  H       4.857089     -0.029554     -0.426324
  H       4.794761      0.189715     -2.204266
  H       5.141711     -1.426083     -1.512585
  H       1.260328     -2.474271      0.024083
  H       2.496943     -1.671909      1.038137
  H       2.966422     -3.017662     -0.064397
  H       1.067318     -1.885399     -3.017264
  H       2.686427     -2.619534     -3.188876
  H       2.375798     -0.988488     -3.861889
  H      -0.187034      0.110728     -2.001581
  C       1.787232      0.791738     -1.166195
  C       0.270008      0.790066     -1.251236
  H       2.188088      1.392866     -2.016071
  H       2.109754      1.327451     -0.246919
  Si     -0.532276      2.522331     -1.946836
  H      -0.455038      1.259056     -0.293527
  C      -0.431451      3.886914     -0.651777
  C      -2.309069      2.115382     -2.422551
  C       0.507916      2.921753     -3.475619
  H      -1.307313      3.837633      0.028377
  H      -0.437065      4.884476     -1.137870
  H       0.483801      3.781632     -0.030642
  H      -2.886060      1.773441     -1.540045
  H      -2.353777      1.309803     -3.182429
  H      -2.807097      3.016657     -2.836994
  H       1.532231      3.250798     -3.210824
  H       0.013894      3.754306     -4.019916
  H       0.578815      2.057866     -4.166865
69
Coordinates from ORCA-job my_molecule E -2464.475471162900
  Pt     -0.582684     -0.236886      0.451920
  O       0.687779      0.108841      1.976443
  O      -3.508804     -1.226616      1.227536
  P       1.001944      1.572113      2.548276
  P      -2.846361     -1.858245      0.018177
  O      -1.682609     -2.966740      0.549303
  O      -1.960919     -0.918002     -0.926405
  O      -0.420625      2.125685      3.203810
  O       1.566771      2.581939      1.560886
  C       2.075090      1.250633      4.027430
  C      -3.982560     -2.802187     -1.098078
  C      -3.180162     -3.472897     -2.226487
  C      -4.994814     -1.785705     -1.665177
  C      -4.703318     -3.852027     -0.230305
  C       1.373291      0.271470      4.985785
  C       3.411654      0.671223      3.524448
  C       2.309457      2.613206      4.710071
  H      -1.905677     -3.183786      1.477766
  H      -0.621868      2.983546      2.781625
  H      -2.651691     -2.721443     -2.845248
  H      -3.866936     -4.045771     -2.885439
  H      -2.423636     -4.174610     -1.821951
  H      -4.489120     -1.015114     -2.280940
  H      -5.541405     -1.270599     -0.850255
  H      -5.734659     -2.310057     -2.306475
  H      -3.989640     -4.594789      0.180970
  H      -5.447549     -4.402009     -0.844150
  H      -5.233839     -3.373494      0.616831
  H       1.205651     -0.711771      4.504530
  H       0.391316      0.665106      5.315456
  H       2.003243      0.115101      5.887443
  H       3.269674     -0.313218      3.036088
  H       4.104953      0.533077      4.381035
  H       3.894022      1.354224      2.796582
  H       1.358622      3.045709      5.080240
  H       2.770038      3.337047      4.008433
  H       2.990440      2.484093      5.577572
  Si      2.700442     -0.893478     -1.338103
  C       4.553150     -0.485745     -1.325642
  C       2.312396     -2.134384      0.035273
  C       2.209963     -1.641299     -3.014200
  H       4.851260     -0.024662     -0.361070
  H       4.820389      0.223827     -2.136011
  H       5.164818     -1.401201     -1.464778
  H       1.260517     -2.486873     -0.005227
  H       2.476059     -1.689754      1.037290
  H       2.970124     -3.022868     -0.070280
  H       1.124992     -1.874838     -3.047457
  H       2.753869     -2.591555     -3.196180
  H       2.440521     -0.956111     -3.856567
  H      -0.176134      0.094787     -1.998582
  C       1.790582      0.791519     -1.156986
  C       0.273833      0.779976     -1.249231
  H       2.191959      1.396688     -2.003682
  H       2.103920      1.328678     -0.235457
  Si     -0.535626      2.504266     -1.956300
  H      -0.452779      1.250330     -0.294675
  C      -0.460278      3.872745     -0.663570
  C      -2.304217      2.083390     -2.449927
  C       0.517002      2.909511     -3.475156
  H      -1.345349      3.820657      0.004357
  H      -0.465189      4.868829     -1.152691
  H       0.446473      3.775405     -0.028815
  H      -2.885572      1.730814     -1.574560
  H      -2.334954      1.282079     -3.214985
  H      -2.806405      2.982776     -2.863529
  H       1.533478      3.254304     -3.200310
  H       0.017830      3.732074     -4.029875
  H       0.607858      2.043067     -4.160827
69
Coordinates from ORCA-job my_molecule E -2464.475483600766
  Pt     -0.583530     -0.241554      0.453045
  O       0.692776      0.096845      1.973998
  O      -3.513426     -1.214298      1.234076
  P       0.992502      1.561231      2.552371
  P      -2.856351     -1.849554      0.023652
  O      -1.697336     -2.963972      0.552531
  O      -1.967836     -0.913972     -0.922618
  O      -0.427800      2.094209      3.228393
  O       1.533312      2.582093      1.562752
  C       2.085553      1.245882      4.017888
  C      -4.000003     -2.787764     -1.089899
  C      -3.204380     -3.459641     -2.222343
  C      -5.010799     -1.766704     -1.651407
  C      -4.721221     -3.836340     -0.221003
  C       1.406820      0.254765      4.980480
  C       3.422122      0.683331      3.495826
  C       2.313656      2.607980      4.703532
  H      -1.919631     -3.179926      1.481430
  H      -0.660716      2.936339      2.791005
  H      -2.676276     -2.709143     -2.842534
  H      -3.895619     -4.029904     -2.878895
  H      -2.448290     -4.164102     -1.821753
  H      -4.504872     -0.997237     -2.268437
  H      -5.551778     -1.250605     -0.833387
  H      -5.755406     -2.287304     -2.290239
  H      -4.008612     -4.582098      0.186673
  H      -5.469546     -4.382846     -0.832971
  H      -5.247220     -3.357217      0.628634
  H       1.242185     -0.727678      4.496567
  H       0.425920      0.636676      5.326829
  H       2.051248      0.100187      5.872165
  H       3.285093     -0.300870      3.005496
  H       4.127849      0.549806      4.342931
  H       3.887421      1.374349      2.764375
  H       1.362647      3.029588      5.085452
  H       2.759501      3.339159      3.999982
  H       3.005464      2.482036      5.562911
  Si      2.713868     -0.886108     -1.327221
  C       4.563999     -0.469930     -1.276439
  C       2.306397     -2.140106      0.028470
  C       2.259122     -1.622247     -3.018723
  H       4.842582     -0.022171     -0.299797
  H       4.842038      0.253176     -2.071048
  H       5.182559     -1.380312     -1.418402
  H       1.256174     -2.494695     -0.031905
  H       2.452142     -1.703132      1.036622
  H       2.968042     -3.026062     -0.073561
  H       1.176894     -1.864010     -3.074728
  H       2.813739     -2.566514     -3.199696
  H       2.499836     -0.927541     -3.850407
  H      -0.167884      0.082198     -1.996398
  C       1.792590      0.792790     -1.150706
  C       0.276269      0.772926     -1.248604
  H       2.194382      1.400051     -1.995656
  H       2.098283      1.332512     -0.228234
  Si     -0.539792      2.489610     -1.967009
  H      -0.450970      1.245481     -0.296383
  C      -0.491615      3.861282     -0.676335
  C      -2.299373      2.054491     -2.479876
  C       0.526071      2.901903     -3.474814
  H      -1.385707      3.804826     -0.020856
  H      -0.496957      4.856086     -1.168111
  H       0.406540      3.772699     -0.028238
  H      -2.884455      1.687764     -1.612899
  H      -2.315211      1.260059     -3.252545
  H      -2.806760      2.952635     -2.889876
  H       1.533904      3.262922     -3.189155
  H       0.021944      3.714190     -4.040121
  H       0.637924      2.033485     -4.154861
69
Coordinates from ORCA-job my_molecule E -2464.475505083531
  Pt     -0.583352     -0.248397      0.456687
  O       0.700503      0.082244      1.974276
  O      -3.519572     -1.202810      1.243399
  P       0.980699      1.549416      2.557946
  P      -2.869002     -1.841018      0.031004
  O      -1.715678     -2.963049      0.555868
  O      -1.976959     -0.909836     -0.916277
  O      -0.435899      2.056254      3.259734
  O       1.489098      2.581926      1.563072
  C       2.099345      1.247034      4.006323
  C      -4.021383     -2.771238     -1.080407
  C      -3.233238     -3.446514     -2.215979
  C      -5.028094     -1.743759     -1.637550
  C      -4.746003     -3.816629     -0.210475
  C       1.448151      0.248989      4.980580
  C       3.432733      0.697888      3.461880
  C       2.324640      2.611672      4.687690
  H      -1.936656     -3.178397      1.485224
  H      -0.713141      2.872503      2.799554
  H      -2.703117     -2.698516     -2.837439
  H      -3.929748     -4.012688     -2.870506
  H      -2.479758     -4.155508     -1.818455
  H      -4.520060     -0.977194     -2.256497
  H      -5.562512     -1.224724     -0.817083
  H      -5.778512     -2.259449     -2.273555
  H      -4.036420     -4.566687      0.194564
  H      -5.499019     -4.358339     -0.820950
  H      -5.267134     -3.335434      0.641001
  H       1.282330     -0.734492      4.499143
  H       0.471451      0.621924      5.347928
  H       2.112047      0.099324      5.858726
  H       3.297719     -0.289002      2.976400
  H       4.154967      0.574064      4.296438
  H       3.877428      1.391857      2.720378
  H       1.375338      3.024852      5.082704
  H       2.753524      3.346382      3.977360
  H       3.030114      2.492599      5.536907
  Si      2.728855     -0.881251     -1.318479
  C       4.575368     -0.457906     -1.218738
  C       2.296220     -2.156004      0.009719
  C       2.318135     -1.595845     -3.030576
  H       4.830379     -0.032522     -0.225785
  H       4.866985      0.285412     -1.989452
  H       5.201414     -1.361852     -1.368788
  H       1.247936     -2.511021     -0.076442
  H       2.420749     -1.733024      1.026625
  H       2.961210     -3.039506     -0.091681
  H       1.239666     -1.845710     -3.116100
  H       2.884862     -2.532653     -3.212961
  H       2.572351     -0.886801     -3.846017
  H      -0.159051      0.065504     -1.991460
  C       1.795310      0.790501     -1.142528
  C       0.279417      0.762068     -1.245691
  H       2.196977      1.401729     -1.984566
  H       2.093159      1.331191     -0.218177
  Si     -0.544083      2.470788     -1.974959
  H      -0.446495      1.237411     -0.295369
  C      -0.539653      3.839765     -0.680416
  C      -2.288244      2.016370     -2.522122
  C       0.544212      2.902202     -3.461324
  H      -1.446967      3.771184     -0.044487
  H      -0.547196      4.835309     -1.170740
  H       0.345536      3.762226     -0.013254
  H      -2.877613      1.617615     -1.672407
  H      -2.279547      1.241191     -3.314292
  H      -2.805624      2.915449     -2.917409
  H       1.537654      3.285985     -3.155613
  H       0.034189      3.701838     -4.039291
  H       0.689058      2.035113     -4.136834
69
Coordinates from ORCA-job my_molecule E -2464.475534191205
  Pt     -0.582278     -0.255374      0.459234
  O       0.712800      0.061734      1.969333
  O      -3.522671     -1.185627      1.259181
  P       0.960005      1.530325      2.567935
  P      -2.883874     -1.826416      0.041861
  O      -1.737136     -2.959209      0.557208
  O      -1.989516     -0.899816     -0.907715
  O      -0.449450      1.988409      3.314097
  O       1.413073      2.586204      1.570647
  C       2.119621      1.245662      3.986557
  C      -4.050283     -2.744745     -1.065051
  C      -3.274169     -3.425126     -2.205777
  C      -5.051490     -1.708207     -1.615277
  C      -4.778928     -3.785241     -0.192598
  C       1.513862      0.232270      4.974140
  C       3.448096      0.722390      3.405373
  C       2.336811      2.612176      4.666591
  H      -1.953799     -3.174550      1.487575
  H      -0.795735      2.764649      2.831790
  H      -2.741544     -2.680836     -2.829532
  H      -3.978929     -3.985105     -2.856808
  H      -2.524285     -4.140712     -1.813302
  H      -4.541281     -0.946830     -2.238820
  H      -5.574928     -1.183926     -0.791056
  H      -5.811528     -2.217190     -2.245231
  H      -4.073380     -4.541430      0.208070
  H      -5.539276     -4.320128     -0.799987
  H      -5.291997     -3.300892      0.661978
  H       1.349279     -0.751583      4.492940
  H       0.543325      0.587582      5.373684
  H       2.206957      0.089421      5.830586
  H       3.318432     -0.266842      2.923274
  H       4.195283      0.612256      4.219609
  H       3.859356      1.424548      2.652240
  H       1.389749      3.007654      5.084310
  H       2.735907      3.356145      3.948684
  H       3.064027      2.503110      5.498669
  Si      2.748024     -0.875403     -1.301417
  C       4.588951     -0.445642     -1.142765
  C       2.283132     -2.169598     -0.003335
  C       2.392172     -1.569697     -3.034267
  H       4.814875     -0.044426     -0.132853
  H       4.897220      0.318452     -1.886157
  H       5.223657     -1.342579     -1.298411
  H       1.237052     -2.522609     -0.119324
  H       2.383109     -1.760868      1.022130
  H       2.950098     -3.051964     -0.101205
  H       1.318820     -1.826376     -3.156469
  H       2.971474     -2.499587     -3.212703
  H       2.665409     -0.847600     -3.831950
  H      -0.145329      0.044968     -1.987344
  C       1.800543      0.788852     -1.134016
  C       0.285330      0.750034     -1.245031
  H       2.203212      1.401506     -1.974333
  H       2.087624      1.334141     -0.209198
  Si     -0.549035      2.447116     -1.990924
  H      -0.438877      1.229962     -0.297144
  C      -0.621750      3.807246     -0.688989
  C      -2.263423      1.959072     -2.599025
  C       0.577404      2.915799     -3.437053
  H      -1.549184      3.713559     -0.086025
  H      -0.636505      4.805035     -1.174725
  H       0.241865      3.748427      0.007891
  H      -2.857787      1.504883     -1.781221
  H      -2.210417      1.218961     -3.422554
  H      -2.800257      2.857164     -2.969923
  H       1.545637      3.332445     -3.095574
  H       0.061557      3.698548     -4.032764
  H       0.775295      2.055433     -4.107734
69
Coordinates from ORCA-job my_molecule E -2464.475553146391
  Pt     -0.581062     -0.267310      0.459493
  O       0.725824      0.040958      1.964195
  O      -3.524727     -1.172363      1.272262
  P       0.933967      1.511815      2.575960
  P      -2.899479     -1.817162      0.049992
  O      -1.761531     -2.962539      0.556081
  O      -2.001497     -0.896850     -0.902460
  O      -0.464413      1.909017      3.374472
  O       1.316756      2.591712      1.574918
  C       2.141561      1.256953      3.959006
  C      -4.081217     -2.722726     -1.051530
  C      -3.317312     -3.413678     -2.194129
  C      -5.073363     -1.676510     -1.599723
  C      -4.817982     -3.753685     -0.174548
  C       1.590422      0.229386      4.964124
  C       3.464544      0.765030      3.339096
  C       2.344530      2.628681      4.632780
  H      -1.974347     -3.177391      1.487453
  H      -0.888637      2.636904      2.878929
  H      -2.778294     -2.676467     -2.820812
  H      -4.030858     -3.966304     -2.841869
  H      -2.574483     -4.137471     -1.803346
  H      -4.558890     -0.925146     -2.231705
  H      -5.584323     -1.141549     -0.774501
  H      -5.844511     -2.179303     -2.221090
  H      -4.119123     -4.516376      0.225520
  H      -5.585640     -4.281863     -0.778594
  H      -5.323340     -3.262325      0.680613
  H       1.432089     -0.757726      4.487372
  H       0.625840      0.563424      5.394664
  H       2.313977      0.101576      5.797445
  H       3.344105     -0.227497      2.861579
  H       4.237655      0.673924      4.131161
  H       3.837774      1.475825      2.574219
  H       1.400141      3.000915      5.077023
  H       2.703768      3.381805      3.903601
  H       3.097793      2.538181      5.443678
  Si      2.763455     -0.879227     -1.285349
  C       4.598402     -0.449815     -1.067661
  C       2.264267     -2.196833     -0.024208
  C       2.460666     -1.545311     -3.039383
  H       4.796246     -0.073973     -0.042203
  H       4.924601      0.333448     -1.782884
  H       5.239203     -1.341469     -1.228597
  H       1.220304     -2.544240     -0.171757
  H       2.340861     -1.808099      1.010956
  H       2.930980     -3.079294     -0.123044
  H       1.391976     -1.800228     -3.200117
  H       3.046305     -2.471759     -3.215029
  H       2.758278     -0.810025     -3.816048
  H      -0.131148      0.026475     -1.984704
  C       1.806746      0.780080     -1.120733
  C       0.292298      0.736194     -1.242821
  H       2.213586      1.396504     -1.956014
  H       2.083007      1.325214     -0.192775
  Si     -0.547805      2.428217     -1.997521
  H      -0.431295      1.217753     -0.297153
  C      -0.707037      3.765296     -0.679486
  C      -2.224689      1.909596     -2.679565
  C       0.622057      2.949126     -3.390138
  H      -1.652704      3.635817     -0.112736
  H      -0.733494      4.769161     -1.152236
  H       0.133778      3.721486      0.045960
  H      -2.819644      1.386855     -1.904189
  H      -2.120659      1.219746     -3.541312
  H      -2.786135      2.805992     -3.016498
  H       1.562225      3.390068     -3.003751
  H       0.106556      3.724143     -3.996247
  H       0.873093      2.105237     -4.064090
69
Coordinates from ORCA-job my_molecule E -2464.475575220245
  Pt     -0.580976     -0.262457      0.457664
  O       0.723597      0.046422      1.961303
  O      -3.522796     -1.175067      1.270548
  P       0.935294      1.515318      2.575822
  P      -2.895774     -1.817712      0.048083
  O      -1.754594     -2.959975      0.554101
  O      -2.000069     -0.894884     -0.904158
  O      -0.464890      1.913542      3.371241
  O       1.324263      2.596887      1.579177
  C       2.138069      1.253415      3.961959
  C      -4.074418     -2.726524     -1.054049
  C      -3.307637     -3.415503     -2.195974
  C      -5.069138     -1.683339     -1.603280
  C      -4.808824     -3.759448     -0.177380
  C       1.580041      0.223793      4.961351
  C       3.462382      0.760594      3.345999
  C       2.341141      2.622600      4.640974
  H      -1.967037     -3.175587      1.485389
  H      -0.880819      2.651654      2.883912
  H      -2.770037     -2.676785     -2.822113
  H      -4.019106     -3.969937     -2.844446
  H      -2.563197     -4.137243     -1.804492
  H      -4.556512     -0.930989     -2.235607
  H      -5.582078     -1.149247     -0.778713
  H      -5.838575     -2.188707     -2.224682
  H      -4.108001     -4.519927      0.223472
  H      -5.574301     -4.290151     -0.781974
  H      -5.316372     -3.269433      0.677245
  H       1.422991     -0.761650      4.480724
  H       0.613203      0.558185      5.386410
  H       2.298270      0.092212      5.798703
  H       3.341220     -0.229032      2.862578
  H       4.231144      0.663126      4.141542
  H       3.841866      1.474382      2.587030
  H       1.396428      2.993789      5.085469
  H       2.701461      3.378061      3.914754
  H       3.093291      2.528989      5.452540
  Si      2.759078     -0.879781     -1.284777
  C       4.596150     -0.451904     -1.082861
  C       2.266424     -2.187536     -0.010913
  C       2.442820     -1.557679     -3.031829
  H       4.801062     -0.064488     -0.063085
  H       4.919589      0.322139     -1.809301
  H       5.234023     -1.346806     -1.237254
  H       1.221660     -2.535780     -0.150549
  H       2.348890     -1.791494      1.021071
  H       2.932414     -3.070867     -0.106945
  H       1.371882     -1.808347     -3.183977
  H       3.022807     -2.488388     -3.203595
  H       2.739316     -0.829870     -3.815908
  H      -0.133930      0.033497     -1.986485
  C       1.806456      0.782569     -1.124624
  C       0.291630      0.742244     -1.244926
  H       2.213658      1.395394     -1.962462
  H       2.085526      1.329827     -0.198874
  Si     -0.546764      2.436249     -1.998858
  H      -0.431947      1.223777     -0.298509
  C      -0.691627      3.777886     -0.684034
  C      -2.229869      1.919893     -2.667431
  C       0.615406      2.948160     -3.401144
  H      -1.630563      3.650319     -0.105854
  H      -0.723125      4.780099     -1.159987
  H       0.157794      3.735311      0.031257
  H      -2.821081      1.403957     -1.884645
  H      -2.133470      1.224714     -3.525800
  H      -2.790822      2.815857     -3.006157
  H       1.562907      3.380176     -3.022667
  H       0.101464      3.728558     -4.001645
  H       0.852733      2.102944     -4.078359
69
Coordinates from ORCA-job my_molecule E -2464.475339626246
  Pt     -0.594314     -0.264063      0.453692
  O       0.688838      0.084634      1.985260
  O      -3.539700     -1.202361      1.225441
  P       0.967446      1.559301      2.550782
  P      -2.881041     -1.850441      0.022869
  O      -1.734953     -2.971573      0.566375
  O      -1.978345     -0.928631     -0.923557
  O      -0.444833      2.049056      3.275185
  O       1.449314      2.587897      1.540509
  C       2.108015      1.280608      3.987923
  C      -4.023544     -2.787195     -1.093425
  C      -3.221519     -3.480793     -2.208369
  C      -5.016861     -1.763542     -1.679798
  C      -4.766068     -3.817892     -0.220772
  C       1.468631      0.293938      4.983182
  C       3.438189      0.728843      3.440788
  C       2.332539      2.656013      4.647365
  H      -1.962609     -3.176106      1.496563
  H      -0.732620      2.877719      2.845441
  H      -2.673495     -2.743151     -2.826758
  H      -3.911513     -4.045990     -2.870571
  H      -2.481970     -4.192594     -1.790552
  H      -4.497301     -1.010998     -2.306151
  H      -5.559659     -1.227615     -0.875740
  H      -5.762096     -2.286148     -2.316376
  H      -4.065628     -4.564073      0.206768
  H      -5.509810     -4.366697     -0.836301
  H      -5.299553     -3.323336      0.615148
  H       1.313593     -0.700385      4.520508
  H       0.486832      0.664706      5.338189
  H       2.132637      0.167348      5.864577
  H       3.299311     -0.256970      2.954809
  H       4.161176      0.603542      4.274569
  H       3.885654      1.422074      2.700066
  H       1.387662      3.060258      5.061842
  H       2.730638      3.387777      3.916279
  H       3.060407      2.558419      5.480210
  Si      2.713354     -0.910396     -1.322237
  C       4.563457     -0.495124     -1.265349
  C       2.307150     -2.194537      0.004970
  C       2.260753     -1.613834     -3.027856
  H       4.840285     -0.046925     -0.288510
  H       4.844372      0.226413     -2.060333
  H       5.181002     -1.406545     -1.404859
  H       1.257797     -2.549989     -0.066325
  H       2.451987     -1.783644      1.023556
  H       2.970313     -3.076733     -0.119249
  H       1.174264     -1.831828     -3.097840
  H       2.798076     -2.566801     -3.214877
  H       2.523531     -0.912590     -3.847159
  H      -0.163044      0.078467     -1.990872
  C       1.792823      0.768143     -1.119838
  C       0.277003      0.759834     -1.232180
  H       2.202787      1.387922     -1.952106
  H       2.094753      1.292221     -0.187220
  Si     -0.529268      2.489374     -1.941077
  H      -0.455054      1.224176     -0.283085
  C      -0.570631      3.823850     -0.612920
  C      -2.251710      2.024304     -2.547085
  C       0.601690      2.967034     -3.379444
  H      -1.473331      3.708592      0.021802
  H      -0.609229      4.830265     -1.078677
  H       0.317751      3.748723      0.049492
  H      -2.838977      1.564267     -1.727291
  H      -2.206450      1.294038     -3.379575
  H      -2.788934      2.927255     -2.905073
  H       1.598978      3.305015     -3.034477
  H       0.125035      3.812131     -3.920206
  H       0.736020      2.135342     -4.100074
69
Coordinates from ORCA-job my_molecule E -2464.475524825593
  Pt     -0.584167     -0.236545      0.457058
  O       0.697755      0.093205      1.969117
  O      -3.513430     -1.209297      1.249840
  P       0.973972      1.557629      2.561096
  P      -2.864690     -1.838952      0.032131
  O      -1.703370     -2.956751      0.548534
  O      -1.980769     -0.898885     -0.914281
  O      -0.439889      2.041927      3.284910
  O       1.466434      2.602039      1.571775
  C       2.106856      1.251635      3.998245
  C      -4.013746     -2.771865     -1.080601
  C      -3.221348     -3.442772     -2.216060
  C      -5.024936     -1.749682     -1.638656
  C      -4.733717     -3.821273     -0.211486
  C       1.462529      0.250293      4.974464
  C       3.436184      0.703799      3.444111
  C       2.334937      2.614835      4.681741
  H      -1.917904     -3.173797      1.479032
  H      -0.723133      2.875424      2.861235
  H      -2.692083     -2.691532     -2.834405
  H      -3.914950     -4.008828     -2.873741
  H      -2.466721     -4.150294     -1.818331
  H      -4.521180     -0.982792     -2.260578
  H      -5.561782     -1.231115     -0.819385
  H      -5.773697     -2.270225     -2.272711
  H      -4.020259     -4.567002      0.194794
  H      -5.482030     -4.367867     -0.823356
  H      -5.258742     -3.343206      0.639283
  H       1.301134     -0.734045      4.493109
  H       0.483932      0.619352      5.340039
  H       2.128049      0.103463      5.851739
  H       3.294880     -0.276613      2.947507
  H       4.159925      0.567634      4.275476
  H       3.883544      1.403948      2.709890
  H       1.389389      3.019166      5.094798
  H       2.744971      3.355475      3.966485
  H       3.055128      2.498333      5.518841
  Si      2.709844     -0.898933     -1.310782
  C       4.562285     -0.493037     -1.257575
  C       2.291941     -2.150154      0.044132
  C       2.256841     -1.636650     -3.002027
  H       4.840110     -0.032515     -0.286659
  H       4.848438      0.215820     -2.062034
  H       5.175160     -1.409661     -1.383155
  H       1.240855     -2.500955     -0.022535
  H       2.435081     -1.715759      1.053711
  H       2.950629     -3.038500     -0.056546
  H       1.170794     -1.858202     -3.067406
  H       2.795711     -2.592117     -3.171305
  H       2.518150     -0.951161     -3.835088
  H      -0.163213      0.084242     -1.991391
  C       1.797249      0.786178     -1.143674
  C       0.281077      0.776552     -1.245263
  H       2.204632      1.385865     -1.991215
  H       2.104098      1.330337     -0.224956
  Si     -0.538105      2.491139     -1.977169
  H      -0.442633      1.253430     -0.293758
  C      -0.608659      3.841288     -0.666325
  C      -2.250887      2.001501     -2.590734
  C       0.595624      2.968169     -3.413713
  H      -1.518210      3.724344     -0.040723
  H      -0.653619      4.841206     -1.145528
  H       0.273864      3.787024      0.006502
  H      -2.837909      1.535810     -1.773833
  H      -2.192138      1.269333     -3.421053
  H      -2.797015      2.896868     -2.953982
  H       1.580825      3.336330     -3.065308
  H       0.104907      3.791162     -3.975567
  H       0.757201      2.126230     -4.116698
69
Coordinates from ORCA-job my_molecule E -2464.475493254432
  Pt     -0.590328     -0.248913      0.457155
  O       0.728841      0.062398      1.954643
  O      -3.556594     -1.185315      1.258460
  P       0.962255      1.536962      2.545487
  P      -2.898931     -1.814717      0.045764
  O      -1.736738     -2.928591      0.569550
  O      -2.013426     -0.874902     -0.899500
  O      -0.450415      1.979152      3.294421
  O       1.395509      2.591544      1.537905
  C       2.131618      1.275128      3.960741
  C      -4.042173     -2.754149     -1.067983
  C      -3.247270     -3.423761     -2.202135
  C      -5.057346     -1.736261     -1.627212
  C      -4.759571     -3.805039     -0.198510
  C       1.540834      0.264567      4.960322
  C       3.462294      0.758706      3.378117
  C       2.338344      2.649257      4.628055
  H      -1.955602     -3.145856      1.498984
  H      -0.802308      2.757652      2.819815
  H      -2.725586     -2.671920     -2.826126
  H      -3.937870     -3.999533     -2.854594
  H      -2.486155     -4.123653     -1.803008
  H      -4.556619     -0.967394     -2.249080
  H      -5.595873     -1.219746     -0.807841
  H      -5.804005     -2.259920     -2.261157
  H      -4.044681     -4.549598      0.207343
  H      -5.507908     -4.352518     -0.809634
  H      -5.284852     -3.327622      0.652503
  H       1.378655     -0.723820      4.487545
  H       0.571740      0.616553      5.365922
  H       2.242667      0.132143      5.811390
  H       3.340115     -0.239140      2.912291
  H       4.216653      0.669138      4.188287
  H       3.860481      1.453341      2.611170
  H       1.387866      3.041921      5.040875
  H       2.733361      3.389270      3.903954
  H       3.064553      2.552952      5.462595
  Si      2.718450     -0.915370     -1.302648
  C       4.566838     -0.513270     -1.157331
  C       2.241991     -2.197557      0.003149
  C       2.342032     -1.612207     -3.030054
  H       4.804996     -0.107943     -0.151857
  H       4.883153      0.240017     -1.908398
  H       5.186244     -1.421410     -1.309472
  H       1.192555     -2.541124     -0.111010
  H       2.346407     -1.785158      1.026466
  H       2.900490     -3.086819     -0.090935
  H       1.265094     -1.857609     -3.143360
  H       2.910037     -2.548883     -3.208898
  H       2.617200     -0.896005     -3.832405
  H      -0.162703      0.056178     -1.991229
  C       1.797332      0.764477     -1.139107
  C       0.281191      0.749136     -1.245552
  H       2.207147      1.366813     -1.983207
  H       2.094954      1.309905     -0.216874
  Si     -0.536767      2.464915     -1.963393
  H      -0.428761      1.232155     -0.292013
  C      -0.678000      3.768320     -0.609401
  C      -2.219446      1.978843     -2.655210
  C       0.638412      3.008700     -3.342305
  H      -1.617550      3.626933     -0.035622
  H      -0.705495      4.784189     -1.055158
  H       0.171904      3.702732      0.104231
  H      -2.819734      1.446733     -1.890193
  H      -2.122208      1.304628     -3.530011
  H      -2.772939      2.886563     -2.974541
  H       1.583572      3.428742     -2.944665
  H       0.131977      3.805273     -3.927759
  H       0.880092      2.179788     -4.037766
69
Coordinates from ORCA-job my_molecule E -2464.475562835525
  Pt     -0.572347     -0.257549      0.458513
  O       0.737575      0.054137      1.960183
  O      -3.529661     -1.161123      1.269020
  P       0.950626      1.522174      2.575433
  P      -2.896098     -1.807739      0.052520
  O      -1.755270     -2.946456      0.569605
  O      -1.996032     -0.889218     -0.899946
  O      -0.462445      1.930294      3.342921
  O       1.365121      2.600617      1.585536
  C       2.129178      1.252747      3.981023
  C      -4.068311     -2.722821     -1.051422
  C      -3.295556     -3.420136     -2.184215
  C      -5.058383     -1.682037     -1.613575
  C      -4.809912     -3.749001     -0.172791
  C       1.551223      0.222381      4.968075
  C       3.462459      0.757682      3.386369
  C       2.324436      2.619539      4.667021
  H      -1.972613     -3.158265      1.500687
  H      -0.842761      2.697192      2.871382
  H      -2.755062     -2.686156     -2.813412
  H      -4.003730     -3.979675     -2.831889
  H      -2.553050     -4.138910     -1.783614
  H      -4.540677     -0.932918     -2.245639
  H      -5.577575     -1.143687     -0.795747
  H      -5.823033     -2.190379     -2.238438
  H      -4.113382     -4.509458      0.235523
  H      -5.574282     -4.280599     -0.777995
  H      -5.319710     -3.252652      0.676810
  H       1.397202     -0.760713      4.481759
  H       0.579578      0.559536      5.379985
  H       2.256211      0.084830      5.815637
  H       3.348059     -0.233406      2.904231
  H       4.219340      0.662015      4.193414
  H       3.853398      1.468946      2.630874
  H       1.372540      2.994133      5.093074
  H       2.703591      3.374996      3.950428
  H       3.058935      2.520484      5.493941
  Si      2.760390     -0.889438     -1.306649
  C       4.602060     -0.461335     -1.151392
  C       2.297820     -2.186449     -0.010702
  C       2.402704     -1.582095     -3.039755
  H       4.830111     -0.058888     -0.142413
  H       4.910508      0.301059     -1.896457
  H       5.235180     -1.359514     -1.306311
  H       1.254194     -2.545030     -0.131405
  H       2.392074     -1.778564      1.015502
  H       2.969860     -3.065192     -0.107437
  H       1.328967     -1.836850     -3.162331
  H       2.980844     -2.512650     -3.218485
  H       2.677192     -0.859895     -3.836905
  H      -0.133957      0.035670     -1.989991
  C       1.814244      0.776566     -1.140479
  C       0.298421      0.742576     -1.250726
  H       2.216948      1.385524     -1.983230
  H       2.102450      1.325016     -0.218289
  Si     -0.545252      2.437915     -1.997971
  H      -0.418619      1.227341     -0.299966
  C      -0.713158      3.767771     -0.673754
  C      -2.219083      1.907528     -2.678770
  C       0.618307      2.975463     -3.389054
  H      -1.641920      3.611509     -0.085934
  H      -0.777177      4.771254     -1.143948
  H       0.147861      3.745372      0.028732
  H      -2.801004      1.365269     -1.906662
  H      -2.109734      1.231537     -3.550987
  H      -2.795824      2.799659     -3.000372
  H       1.559970      3.411743     -3.001040
  H       0.099855      3.757897     -3.983017
  H       0.866190      2.140429     -4.075089
69
Coordinates from ORCA-job my_molecule E -2464.475538972885
  Pt     -0.562548     -0.291643      0.444330
  O       0.746857      0.018433      1.941232
  O      -3.499184     -1.159100      1.277709
  P       0.913194      1.488483      2.568253
  P      -2.897791     -1.816146      0.050116
  O      -1.776293     -2.981957      0.546585
  O      -1.990510     -0.913961     -0.910956
  O      -0.490738      1.826091      3.385025
  O       1.251269      2.591415      1.576741
  C       2.137966      1.257158      3.940423
  C      -4.105160     -2.701296     -1.040383
  C      -3.361157     -3.418281     -2.180123
  C      -5.075732     -1.637918     -1.594056
  C      -4.861333     -3.708617     -0.152541
  C       1.617046      0.210977      4.943338
  C       3.469381      0.801802      3.311880
  C       2.309121      2.630321      4.620195
  H      -1.984799     -3.192080      1.479970
  H      -0.949822      2.542150      2.903672
  H      -2.805593     -2.698114     -2.812198
  H      -4.089588     -3.956702     -2.823249
  H      -2.635558     -4.157682     -1.786412
  H      -4.549554     -0.909542     -2.243041
  H      -5.565258     -1.078256     -0.772137
  H      -5.865605     -2.130138     -2.200197
  H      -4.177892     -4.483149      0.251467
  H      -5.642022     -4.224955     -0.750054
  H      -5.353068     -3.199608      0.700224
  H       1.485898     -0.778568      4.463294
  H       0.643027      0.517294      5.372853
  H       2.343556      0.100312      5.776518
  H       3.369844     -0.187387      2.822772
  H       4.245791      0.719327      4.101723
  H       3.826370      1.530173      2.555794
  H       1.361298      2.968761      5.083769
  H       2.629678      3.399343      3.889573
  H       3.079261      2.559503      5.417063
  Si      2.789373     -0.878680     -1.276953
  C       4.623475     -0.439115     -1.073461
  C       2.304867     -2.194684     -0.008736
  C       2.478195     -1.551975     -3.026655
  H       4.824268     -0.044080     -0.055771
  H       4.944484      0.331749     -1.804298
  H       5.266296     -1.331705     -1.220533
  H       1.264875     -2.553949     -0.155577
  H       2.377217     -1.800905      1.024907
  H       2.981132     -3.070163     -0.104105
  H       1.406211     -1.793585     -3.185842
  H       3.051718     -2.487211     -3.195464
  H       2.785592     -0.825868     -3.808083
  H      -0.101919      0.017566     -1.992572
  C       1.825381      0.776913     -1.113117
  C       0.312235      0.728569     -1.246916
  H       2.235662      1.397906     -1.943766
  H       2.092868      1.319607     -0.181456
  Si     -0.539804      2.419765     -1.999741
  H      -0.416139      1.200872     -0.301118
  C      -0.744407      3.739700     -0.671036
  C      -2.195140      1.872502     -2.711750
  C       0.642219      2.979165     -3.366152
  H      -1.664197      3.552041     -0.079390
  H      -0.842693      4.741597     -1.138727
  H       0.119244      3.739837      0.027818
  H      -2.763757      1.285920     -1.962862
  H      -2.062319      1.233878     -3.608504
  H      -2.793501      2.760495     -3.004161
  H       1.584350      3.397072     -2.959365
  H       0.135640      3.780765     -3.944638
  H       0.888222      2.159562     -4.071153
69
Coordinates from ORCA-job my_molecule E -2464.475577555590
  Pt     -0.567717     -0.279830      0.447365
  O       0.734790      0.037036      1.948622
  O      -3.502063     -1.175323      1.269361
  P       0.930118      1.508274      2.561951
  P      -2.888093     -1.824699      0.043991
  O      -1.756814     -2.979323      0.544965
  O      -1.986182     -0.912125     -0.912279
  O      -0.479661      1.888139      3.350357
  O       1.311125      2.594243      1.567296
  C       2.130143      1.259576      3.953350
  C      -4.080856     -2.720949     -1.053317
  C      -3.324668     -3.426012     -2.192491
  C      -5.061125     -1.666655     -1.607293
  C      -4.829044     -3.739311     -0.171314
  C       1.576216      0.226144      4.951532
  C       3.462652      0.779246      3.345993
  C       2.315550      2.631748      4.631377
  H      -1.967414     -3.191948      1.477307
  H      -0.888381      2.641608      2.881042
  H      -2.776023     -2.697689     -2.821255
  H      -4.044586     -3.971714     -2.839049
  H      -2.591275     -4.157452     -1.798292
  H      -4.539348     -0.927061     -2.247100
  H      -5.563828     -1.118772     -0.785424
  H      -5.839977     -2.164997     -2.222626
  H      -4.138794     -4.508236      0.231825
  H      -5.602852     -4.261456     -0.772725
  H      -5.328115     -3.238364      0.681959
  H       1.435397     -0.762581      4.472617
  H       0.601240      0.550388      5.365694
  H       2.288192      0.105872      5.795833
  H       3.353558     -0.210701      2.860433
  H       4.226612      0.687739      4.146911
  H       3.841602      1.497538      2.591021
  H       1.366293      2.990288      5.076638
  H       2.664852      3.391654      3.904341
  H       3.069242      2.548919      5.442663
  Si      2.768031     -0.886991     -1.286191
  C       4.608216     -0.456554     -1.121064
  C       2.299050     -2.186096      0.005215
  C       2.419606     -1.577060     -3.022147
  H       4.829574     -0.047394     -0.113288
  H       4.921035      0.300977     -1.869215
  H       5.242731     -1.355421     -1.265948
  H       1.255818     -2.543612     -0.121567
  H       2.388849     -1.780990      1.033079
  H       2.970989     -3.064879     -0.090603
  H       1.344054     -1.818541     -3.155291
  H       2.988023     -2.514907     -3.193624
  H       2.711022     -0.859245     -3.817229
  H      -0.118629      0.033626     -1.992458
  C       1.818146      0.776731     -1.120891
  C       0.304101      0.738602     -1.245874
  H       2.227783      1.392166     -1.955973
  H       2.096113      1.319581     -0.192146
  Si     -0.539407      2.437494     -1.988126
  H      -0.422442      1.211267     -0.298025
  C      -0.707183      3.761441     -0.658253
  C      -2.211609      1.908415     -2.674385
  C       0.628839      2.979670     -3.373179
  H      -1.626720      3.592986     -0.060283
  H      -0.787163      4.765468     -1.124654
  H       0.161020      3.742959      0.035017
  H      -2.788214      1.353861     -1.907361
  H      -2.099388      1.244186     -3.555109
  H      -2.793560      2.801205     -2.984822
  H       1.580119      3.390899     -2.981146
  H       0.122236      3.783034     -3.949163
  H       0.858195      2.153913     -4.076579
69
Coordinates from ORCA-job my_molecule E -2464.475608776401
  Pt     -0.583642     -0.253815      0.458343
  O       0.722302      0.059967      1.963279
  O      -3.528082     -1.187567      1.266131
  P       0.942126      1.528829      2.573181
  P      -2.892294     -1.820891      0.043601
  O      -1.742015     -2.954432      0.550100
  O      -2.001318     -0.888793     -0.904174
  O      -0.464401      1.936009      3.353806
  O       1.347218      2.606358      1.578930
  C       2.133415      1.261623      3.968831
  C      -4.059180     -2.736978     -1.065036
  C      -3.281912     -3.418158     -2.204625
  C      -5.059581     -1.701065     -1.617564
  C      -4.789279     -3.776963     -0.193105
  C       1.561720      0.235299      4.964073
  C       3.461177      0.763132      3.365527
  C       2.335914      2.630391      4.648882
  H      -1.955739     -3.174179      1.480154
  H      -0.843470      2.711789      2.896193
  H      -2.746786     -2.674122     -2.826601
  H      -3.986323     -3.976134     -2.857745
  H      -2.534161     -4.135276     -1.811067
  H      -4.550394     -0.944592     -2.247717
  H      -5.580191     -1.171346     -0.794952
  H      -5.822609     -2.212162     -2.242198
  H      -4.084241     -4.532567      0.209601
  H      -5.547840     -4.312791     -0.801877
  H      -5.304259     -3.292254      0.660085
  H       1.409057     -0.751007      4.483829
  H       0.589968      0.572494      5.375526
  H       2.269228      0.104556      5.810580
  H       3.340075     -0.225433      2.879985
  H       4.221599      0.661279      4.168524
  H       3.851766      1.475722      2.611075
  H       1.389730      3.003150      5.089080
  H       2.701220      3.385271      3.924519
  H       3.083507      2.535477      5.464476
  Si      2.740291     -0.898284     -1.290848
  C       4.586098     -0.481091     -1.156687
  C       2.280732     -2.181642      0.019697
  C       2.361170     -1.602559     -3.014570
  H       4.825176     -0.061440     -0.157338
  H       4.894303      0.264602     -1.918548
  H       5.211286     -1.386802     -1.299525
  H       1.233919     -2.534479     -0.089990
  H       2.386144     -1.767171      1.042142
  H       2.946338     -3.065340     -0.076239
  H       1.282638     -1.841015     -3.127492
  H       2.922957     -2.544246     -3.186846
  H       2.641937     -0.893021     -3.820811
  H      -0.141790      0.048847     -1.987303
  C       1.806742      0.775211     -1.128124
  C       0.291372      0.750845     -1.243739
  H       2.216440      1.381590     -1.969662
  H       2.096297      1.321255     -0.204996
  Si     -0.539362      2.454475     -1.988298
  H      -0.429199      1.233151     -0.294843
  C      -0.696634      3.783853     -0.662785
  C      -2.216003      1.936535     -2.672435
  C       0.633292      2.983360     -3.374713
  H      -1.623514      3.630976     -0.071546
  H      -0.757585      4.787999     -1.131828
  H       0.165001      3.753006      0.037898
  H      -2.802446      1.400223     -1.899733
  H      -2.109440      1.258126     -3.542983
  H      -2.786087      2.831778     -2.997238
  H       1.586130      3.391810     -2.983642
  H       0.131808      3.786307     -3.955742
  H       0.859685      2.152326     -4.072884
69
Coordinates from ORCA-job my_molecule E -2464.475599695952
  Pt     -0.585820     -0.247165      0.462869
  O       0.709887      0.074253      1.969460
  O      -3.519061     -1.209572      1.260260
  P       0.950869      1.544772      2.564456
  P      -2.876938     -1.833349      0.036161
  O      -1.720325     -2.961681      0.540089
  O      -1.991225     -0.890472     -0.905726
  O      -0.458963      1.984046      3.322133
  O       1.386081      2.606174      1.565628
  C       2.124119      1.270902      3.974627
  C      -4.035510     -2.751572     -1.079273
  C      -3.252158     -3.420951     -2.221730
  C      -5.041777     -1.718879     -1.627139
  C      -4.760276     -3.801208     -0.214472
  C       1.531054      0.255012      4.967901
  C       3.453430      0.756594      3.388387
  C       2.333222      2.640468      4.651071
  H      -1.933664     -3.185700      1.469181
  H      -0.791802      2.791154      2.883331
  H      -2.721404     -2.669876     -2.838966
  H      -3.952023     -3.980032     -2.878767
  H      -2.499901     -4.135102     -1.831259
  H      -4.535401     -0.952148     -2.247101
  H      -5.570845     -1.201190     -0.802324
  H      -5.797262     -2.230276     -2.260640
  H      -4.051243     -4.555184      0.184236
  H      -5.515372     -4.337657     -0.827016
  H      -5.278439     -3.324579      0.641310
  H       1.374973     -0.732164      4.490606
  H       0.557641      0.603189      5.366294
  H       2.227314      0.121915      5.823292
  H       3.327811     -0.233175      2.906492
  H       4.204318      0.651047      4.199874
  H       3.858658      1.461281      2.634285
  H       1.385443      3.026337      5.076362
  H       2.717958      3.387524      3.928589
  H       3.067823      2.540742      5.477812
  Si      2.719419     -0.911854     -1.296961
  C       4.570586     -0.506604     -1.205309
  C       2.278218     -2.179557      0.035076
  C       2.298171     -1.629296     -3.005226
  H       4.832959     -0.073207     -0.217723
  H       4.868885      0.224675     -1.984916
  H       5.186175     -1.419120     -1.346469
  H       1.228356     -2.529373     -0.053028
  H       2.403082     -1.755736      1.051485
  H       2.938722     -3.066734     -0.063904
  H       1.216650     -1.866180     -3.089189
  H       2.853422     -2.573815     -3.182953
  H       2.560526     -0.927107     -3.824004
  H      -0.154296      0.062175     -1.983095
  C       1.802325      0.770365     -1.129448
  C       0.286574      0.757378     -1.237750
  H       2.212558      1.372548     -1.973620
  H       2.102033      1.314183     -0.207946
  Si     -0.536488      2.468730     -1.971101
  H      -0.432009      1.238976     -0.287049
  C      -0.668248      3.797602     -0.642393
  C      -2.224196      1.964446     -2.638589
  C       0.627016      2.988717     -3.368454
  H      -1.597378      3.660354     -0.050732
  H      -0.710684      4.803897     -1.108496
  H       0.193164      3.748060      0.058211
  H      -2.817105      1.454796     -1.852749
  H      -2.132146      1.265623     -3.494443
  H      -2.781488      2.861498     -2.980207
  H       1.586300      3.390395     -2.986250
  H       0.126385      3.795213     -3.945292
  H       0.841320      2.155475     -4.067775
69
Coordinates from ORCA-job my_molecule E -2464.475613756223
  Pt     -0.581166     -0.256539      0.458652
  O       0.721552      0.059544      1.963257
  O      -3.520745     -1.191995      1.266176
  P       0.943443      1.530065      2.567915
  P      -2.887121     -1.824981      0.042316
  O      -1.738000     -2.960660      0.546504
  O      -1.996172     -0.892605     -0.905143
  O      -0.464551      1.943059      3.342947
  O       1.353687      2.603092      1.570974
  C       2.130655      1.265385      3.967701
  C      -4.056223     -2.738246     -1.066305
  C      -3.280886     -3.419152     -2.207400
  C      -5.055714     -1.700328     -1.616660
  C      -4.787039     -3.778211     -0.194917
  C       1.555358      0.241888      4.963804
  C       3.459810      0.764482      3.369620
  C       2.332097      2.635704      4.644971
  H      -1.950564     -3.180394      1.476817
  H      -0.837689      2.721687      2.885314
  H      -2.745059     -2.675144     -2.828800
  H      -3.986674     -3.975144     -2.860724
  H      -2.533924     -4.137920     -1.815319
  H      -4.545923     -0.943353     -2.245730
  H      -5.575438     -1.171393     -0.793003
  H      -5.819511     -2.209526     -2.241910
  H      -4.082710     -4.535213      0.206387
  H      -5.546854     -4.312348     -0.803623
  H      -5.300547     -3.293719      0.659261
  H       1.404106     -0.745661      4.485657
  H       0.582259      0.580410      5.370967
  H       2.259961      0.113134      5.813034
  H       3.339171     -0.224748      2.885326
  H       4.217561      0.663104      4.175219
  H       3.853602      1.475323      2.615192
  H       1.384889      3.010001      5.081662
  H       2.699740      3.388591      3.919697
  H       3.077316      2.542484      5.462928
  Si      2.738381     -0.901677     -1.292965
  C       4.585140     -0.486788     -1.164510
  C       2.281108     -2.184550      0.018846
  C       2.352734     -1.605291     -3.015472
  H       4.827762     -0.065855     -0.166526
  H       4.892219      0.257200     -1.928503
  H       5.208633     -1.393608     -1.307709
  H       1.233721     -2.536422     -0.088387
  H       2.389368     -1.770368      1.041126
  H       2.945699     -3.068791     -0.078965
  H       1.273566     -1.842730     -3.124455
  H       2.912961     -2.547522     -3.189787
  H       2.631207     -0.895871     -3.822613
  H      -0.141801      0.050186     -1.986224
  C       1.807673      0.773097     -1.127167
  C       0.292276      0.750464     -1.241615
  H       2.217503      1.379841     -1.968297
  H       2.098876      1.317715     -0.203650
  Si     -0.538442      2.455790     -1.982437
  H      -0.427730      1.231127     -0.291981
  C      -0.695318      3.782562     -0.654396
  C      -2.215097      1.938106     -2.666938
  C       0.634072      2.987519     -3.367843
  H      -1.622615      3.629302     -0.063889
  H      -0.755053      4.787617     -1.121478
  H       0.165725      3.748762      0.047128
  H      -2.801134      1.401186     -1.894266
  H      -2.108371      1.260156     -3.537825
  H      -2.785686      2.833210     -2.991200
  H       1.587404      3.394158     -2.976116
  H       0.132974      3.792580     -3.946302
  H       0.859552      2.158223     -4.068351
69
Coordinates from ORCA-job my_molecule E -2464.475614889032
  Pt     -0.581418     -0.256295      0.458890
  O       0.721557      0.059405      1.964087
  O      -3.522266     -1.191333      1.265349
  P       0.943119      1.530036      2.568732
  P      -2.887771     -1.824345      0.041955
  O      -1.738708     -2.959699      0.547013
  O      -1.996500     -0.891901     -0.905163
  O      -0.464125      1.941916      3.345678
  O       1.351536      2.603359      1.571395
  C       2.132070      1.265956      3.967162
  C      -4.055939     -2.738150     -1.067220
  C      -3.279647     -3.419280     -2.207538
  C      -5.055280     -1.700652     -1.618612
  C      -4.787174     -3.777988     -0.196025
  C       1.558557      0.241830      4.963668
  C       3.460850      0.765999      3.367508
  C       2.333349      2.636292      4.644458
  H      -1.951688     -3.179195      1.477287
  H      -0.839868      2.718913      2.887412
  H      -2.743292     -2.675392     -2.828626
  H      -3.984872     -3.975410     -2.861348
  H      -2.533003     -4.137945     -1.814668
  H      -4.545313     -0.943953     -2.247880
  H      -5.575511     -1.171343     -0.795517
  H      -5.818682     -2.210289     -2.243993
  H      -4.082938     -4.534571      0.206231
  H      -5.546257     -4.312650     -0.805181
  H      -5.301588     -3.293313      0.657504
  H       1.407671     -0.745753      4.485470
  H       0.585549      0.579474      5.371776
  H       2.264086      0.113415      5.812175
  H       3.340124     -0.222923      2.882583
  H       4.219388      0.664336      4.172327
  H       3.853715      1.477502      2.613216
  H       1.386479      3.009612      5.082714
  H       2.699079      3.389670      3.918725
  H       3.079931      2.543607      5.461224
  Si      2.737228     -0.902611     -1.292019
  C       4.584257     -0.488651     -1.164339
  C       2.279625     -2.184398      0.020746
  C       2.350722     -1.607173     -3.013951
  H       4.827398     -0.066834     -0.166856
  H       4.891603      0.254341     -1.929192
  H       5.207177     -1.395991     -1.306755
  H       1.232013     -2.535757     -0.086023
  H       2.388347     -1.769702      1.042778
  H       2.943705     -3.069057     -0.076747
  H       1.271366     -1.843969     -3.122504
  H       2.910249     -2.549918     -3.187744
  H       2.629427     -0.898482     -3.821649
  H      -0.142371      0.050941     -1.986010
  C       1.807513      0.772802     -1.127215
  C       0.292065      0.750954     -1.241364
  H       2.217571      1.378705     -1.968837
  H       2.099122      1.317999     -0.204204
  Si     -0.538692      2.456501     -1.982147
  H      -0.427320      1.231817     -0.291464
  C      -0.698442      3.782504     -0.653776
  C      -2.213987      1.937319     -2.668912
  C       0.635341      2.990112     -3.365519
  H      -1.625715      3.627529     -0.063624
  H      -0.759667      4.787535     -1.120681
  H       0.162334      3.749569      0.048124
  H      -2.798869      1.396938     -1.897769
  H      -2.105357      1.261972     -3.541597
  H      -2.786494      2.831965     -2.991010
  H       1.588207      3.396352     -2.972247
  H       0.134757      3.795950     -3.943355
  H       0.861665      2.161800     -4.066914
