26
.geom to .xyz and scaled by factor of 0.529177
O -1.1527627525 -0.5761598085 2.0643578105
Si -0.2224890069 0.6064680758 2.8536015698
Si -3.0099240898 -0.5176406846 1.9609238984
C 0.7597154318 1.6248385430 1.4686175451
C 1.6260692600 0.8140303797 0.5317387064
H 1.3591344097 2.2416175264 2.1653880869
H 2.1378306624 1.5021955117 -0.1692016052
H 2.4067048995 0.2600442320 1.0807995050
Si 0.7255101327 -0.4017178525 -0.6382460155
O -0.3786066306 0.4867102901 -1.5050507547
O 1.8373825047 -1.1190873737 -1.6537420314
Si 3.2157154312 -0.7917405483 -2.5507747367
Si -1.9489151642 0.4012329329 -2.1108955000
H 0.0351949010 2.2606333702 0.9463209440
H -3.6330615139 0.6335203440 2.6571667515
H -0.8456848157 1.6016946814 3.7774634374
H -3.0403903873 -1.8212486679 2.7378160180
H 0.8673130034 -0.1822326796 3.5104589910
H -1.8377272820 0.7097336084 -3.5685352180
H -2.5437266151 -0.9535406191 -1.9148075771
H -2.7795124092 1.4319857462 -1.4267616499
H 3.2521635987 0.6587522047 -2.9216239501
H 4.4114584454 -1.1267922516 -1.7249039148
H 3.2153717859 -1.6458909231 -3.7768496116
H 0.0833050111 -1.5123814530 0.1099502906
H -3.2354985115 -0.6745156361 0.4968394750
