26
image3
O    -1.2526904352   -0.4837650131    2.1328041033
Si   -0.1596335690    0.5790414901    2.7996880596
Si   -2.9229599747   -0.5946293409    1.9898229092
C     0.7349371525    1.5922763066    1.4627087453
C     1.6623627230    0.8802934494    0.5444995183
H     1.3559760876    2.2532257517    2.1079358255
H     2.0384653484    1.4577038777   -0.3056066739
H     2.4135927197    0.2313663688    1.0039033265
Si    0.4876367994   -0.7021548920   -0.9438276029
O    -0.3942332530    0.6620985872   -1.4062936185
O     1.9738065516   -1.1110129189   -1.5769387923
Si    3.2827831936   -0.7710915202   -2.5604680016
Si   -1.9404804590    0.4462366142   -2.1113458750
H     0.0328374557    2.2365812471    0.9180476983
H    -3.5947563639    0.5781955072    2.6437494323
H    -0.8419103504    1.5229521322    3.7492673211
H    -3.2177677711   -1.8596966471    2.7047314128
H     0.8813973487   -0.2203676636    3.5063580626
H    -1.8378316306    0.7173756423   -3.5768177151
H    -2.5524802308   -0.9024228883   -1.8957758466
H    -2.7801251401    1.4856299554   -1.4355485834
H     3.2547891177    0.6695131121   -2.9669202202
H     4.5021658484   -1.0539402443   -1.7491869855
H     3.2376003418   -1.6536214029   -3.7679696272
H     0.1740533180   -1.4618247650    0.3120344248
H    -3.2562255399   -0.6740026260    0.5315604793
