26
image4
O    -1.2488381837   -0.4888691697    2.1251245328
Si   -0.1773878533    0.5765225709    2.8188827504
Si   -2.9535159859   -0.5768632679    1.9793771161
C     0.7423370914    1.5938851278    1.4518568061
C     1.6377939297    0.8442739396    0.5276412038
H     1.3581019569    2.2380081362    2.1169288353
H     2.0563694172    1.4645703399   -0.2838605752
H     2.4206855370    0.2510206970    1.0208126843
Si    0.6142635735   -0.5334636883   -0.7971505268
O    -0.3843126166    0.6093550284   -1.4778530606
O     1.9240779906   -1.1230134109   -1.6174675846
Si    3.2805931947   -0.7756520410   -2.5632947498
Si   -1.9637399855    0.4347005023   -2.1156859689
H     0.0268880700    2.2309411833    0.9170967936
H    -3.6005176051    0.5939523663    2.6489186559
H    -0.8435751875    1.5356168343    3.7582399731
H    -3.1624731014   -1.8527898694    2.7083721370
H     0.8830141108   -0.2143185511    3.5002656371
H    -1.8406700682    0.7177579665   -3.5753206162
H    -2.5584049212   -0.9182282676   -1.8962989982
H    -2.7788157896    1.4815508949   -1.4269669323
H     3.2519290577    0.6683969981   -2.9539763161
H     4.4860458414   -1.0633031311   -1.7374135150
H     3.2349181460   -1.6570167706   -3.7694380854
H     0.1206616063   -1.4937797501    0.2434268709
H    -3.2497502397   -0.6690456907    0.5152317213
