26
image2
O    -1.2449966310   -0.4829474170    2.1344673138
Si   -0.1387953644    0.5894309353    2.7931611873
Si   -2.9090940021   -0.6169507546    2.0187348953
C     0.7737929800    1.6482512421    1.5209249552
C     1.7419739672    0.9641190836    0.6363726012
H     1.3293695631    2.3317776253    2.1998771944
H     1.9957539992    1.4102275783   -0.3241659444
H     2.4419137782    0.2316283547    1.0390268348
Si    0.3726378197   -0.9884909121   -1.1270901920
O    -0.4128244584    0.5055833442   -1.3500033927
O     1.9625674029   -1.1102995385   -1.6242833150
Si    3.2838222237   -0.7617853616   -2.5854609873
Si   -1.9440488720    0.4616325835   -2.0991721114
H     0.0706574618    2.2723977943    0.9495451049
H    -3.5785576896    0.5576847537    2.6631649151
H    -0.8477040363    1.5036312358    3.7547819904
H    -3.2940694989   -1.8764366928    2.7104646758
H     0.8778440013   -0.2323401964    3.5149493012
H    -1.8188232034    0.7279856777   -3.5634386634
H    -2.5938567685   -0.8709384163   -1.9061426727
H    -2.7670281808    1.5153731132   -1.4381210152
H     3.2544164597    0.6765248498   -2.9986008657
H     4.5062609378   -1.0341558932   -1.7699002009
H     3.2522156937   -1.6485215178   -3.7881823428
H     0.2546263781   -1.4614098968    0.2993610538
H    -3.2722762329   -0.6948667798    0.5746189128
