26
image5
O    -1.2090010885   -0.5263688051    2.0964511335
Si   -0.1985160590    0.5851267002    2.8463835015
Si   -3.0216700927   -0.5506254951    1.9612265710
C     0.7602216106    1.6070367233    1.4415930612
C     1.6224081197    0.8115239658    0.5056052934
H     1.3568720967    2.2411905534    2.1254137817
H     2.0762839864    1.4784470899   -0.2579781845
H     2.4238822716    0.2646017035    1.0287976361
Si    0.6859274574   -0.4710826708   -0.7112510397
O    -0.3796565090    0.4956892200   -1.5083091265
O     1.8744098934   -1.1228878534   -1.6516722696
Si    3.2515337608   -0.7815320975   -2.5546230620
Si   -1.9642914224    0.4286036586   -2.1033230571
H     0.0191801391    2.2247019618    0.9234049614
H    -3.6081901810    0.6172502761    2.6610361867
H    -0.8441261263    1.5509594905    3.7720403535
H    -3.1059108732   -1.8542425311    2.7185171132
H     0.8860120344   -0.2119898989    3.4971667984
H    -1.8362979099    0.7160259086   -3.5627936539
H    -2.5576576241   -0.9194620143   -1.8982455801
H    -2.7776248248    1.4765079829   -1.4253561512
H     3.2518841323    0.6591834876   -2.9464270353
H     4.4637094501   -1.0689731893   -1.7318821521
H     3.2343266742   -1.6541100145   -3.7638962482
H     0.0965488703   -1.5114671121    0.1513998964
H    -3.2411964647   -0.6685658801    0.4917015530
