26
image1
O    -1.2488621519   -0.3263560589    2.1335874105
Si   -0.1379886820    0.7133159902    2.8415956184
Si   -2.8969860104   -0.5792854244    1.9985097742
C     0.8127065902    1.7565110260    1.5808922420
C     1.7952459193    1.0519187090    0.7330124932
H     1.3185197178    2.4931369252    2.2431415346
H     1.9475565824    1.3452647991   -0.3049721223
H     2.5087483459    0.3500206716    1.1617151643
Si    0.3786969089   -1.2804647828   -1.1827542337
O    -0.4630365921    0.1772008588   -1.3400246942
O     1.9716999601   -1.1158451423   -1.6478627552
Si    3.2713430679   -0.7604686563   -2.6344542536
Si   -1.9291870656    0.4830335940   -2.1187267216
H     0.0932997450    2.3251854287    0.9717958763
H    -3.6761328185    0.5635436774    2.5697423687
H    -0.8632058766    1.6367436228    3.7820958953
H    -3.2558550033   -1.8403171485    2.7092031793
H     0.8441081534   -0.1071651535    3.6199392733
H    -1.6741070023    0.8657528370   -3.5380673085
H    -2.7871971471   -0.7341281779   -2.0689449605
H    -2.6036625479    1.6147125528   -1.4160787404
H     3.2367191295    0.6825609239   -3.0267367935
H     4.5192578664   -1.0315847966   -1.8674419597
H     3.2378368981   -1.6447400356   -3.8356346228
H     0.3954779198   -1.6538817868    0.2787943096
H    -3.2410017922   -0.7177617323    0.5522605640
