29
.geom to .xyz and scaled by factor of 0.529177
O -0.9974897555 0.0021098693 0.5165857149
Si -0.5147447401 1.6193120097 0.5594630563
Si -1.0356789410 -1.2966842705 -0.5622520429
C -1.7185115901 2.5496355517 1.6629292378
C -3.0060741716 2.6314065957 1.2942999214
C -2.2135575119 -0.7871798890 -1.9254224827
C -3.6070194747 -0.6165701189 -1.6062170894
C 1.2029436901 1.7425220014 1.2867974098
C -0.5391444945 2.3343603350 -1.1728433953
C 0.6805520407 -1.6953325929 -1.2303518611
C -1.6759046876 -2.6849274771 0.5157775534
H -1.3818415171 3.0660983333 2.5749710059
H -3.3530709126 2.1279995803 0.3859074043
H -3.7970516252 3.1229078052 1.8663093171
H -1.8234678935 -0.3674925540 -2.8620976148
H -3.9028614134 0.1421551133 -0.8816366349
H -4.3491493538 -1.3767200027 -1.8459181111
H 1.1651390725 1.3538752468 2.3168087182
H 1.5907629584 2.7761288106 1.3444159984
H 1.8839876319 1.1294827648 0.6764109429
H -1.5543814004 2.3598896837 -1.6000472649
H 0.1195186890 1.7909370112 -1.8622965914
H -0.1532973808 3.3610077727 -1.1243519175
H 1.0992727694 -0.8849928414 -1.8454542195
H 0.6359157206 -2.6014841031 -1.8512544343
H 1.3664577716 -1.8727258733 -0.3894659189
H -2.5890516418 -2.3720259444 1.0488059264
H -0.9050838416 -2.8702698529 1.2867250643
H -1.8632598129 -3.5977833803 -0.0678901419
