71
Coordinates from ORCA-job my_molecule E -2465.417846651563
  Pt      2.230140     -1.321970     -0.818430
  O       1.294870     -0.237760      0.551600
  O       0.718870     -0.990610     -2.106760
  P       2.198740      1.260950      0.529440
  P      -0.274880     -2.401480     -2.425450
  O       0.300000     -3.772190     -1.549330
  O       0.869040     -2.971960     -3.596200
  O       2.397660      1.122220     -1.188200
  O       3.923360      1.203290      0.735590
  C       1.889170      1.656820      2.358890
  C      -1.619220     -1.204930     -3.029940
  C      -2.602150     -2.035770     -3.873400
  C      -1.065860     -0.071290     -3.929150
  C      -2.357680     -0.609620     -1.823350
  C       0.384150      1.888140      2.565370
  C       2.366390      0.522800      3.281080
  C       2.641500      2.955720      2.718990
  H      -0.187300     -4.546490     -1.930960
  H       1.631050      1.618320     -1.569530
  H      -2.079500     -2.478620     -4.750030
  H      -3.434040     -1.403410     -4.252290
  H      -3.035830     -2.864840     -3.274680
  H      -0.498270     -0.495650     -4.785120
  H      -0.403690      0.625670     -3.375150
  H      -1.898530      0.544910     -4.331350
  H      -2.794180     -1.420300     -1.200560
  H      -3.183390      0.053850     -2.160830
  H      -1.662920     -0.016630     -1.192390
  H      -0.194470      0.972290      2.322310
  H       0.026080      2.712580      1.911510
  H       0.171520      2.162820      3.621320
  H       1.811020     -0.412600      3.067540
  H       2.186610      0.787980      4.345550
  H       3.454240      0.340070      3.157740
  H       2.314610      3.790280      2.061710
  H       3.739180      2.834510      2.603330
  H       2.446360      3.245230      3.774000
  Si      2.326410     -3.272960      0.764890
  C       2.849750     -4.864050     -0.079260
  C       3.619310     -2.958640      2.072450
  C       0.673000     -3.500570      1.617960
  H       3.854740     -4.726670     -0.527120
  H       2.142280     -5.170830     -0.870110
  H       2.900470     -5.672120      0.679560
  H       3.370210     -2.048290      2.643390
  H       4.610170     -2.834120      1.591290
  H       3.651070     -3.823210      2.767610
  H       0.411700     -2.572300      2.165900
  H       0.743560     -4.341690      2.337830
  H      -0.127610     -3.722450      0.886840
  H       3.771420     -0.226670     -3.179830
  C       3.466800     -2.206870     -2.300090
  C       3.465440     -1.246840     -3.489380
  H       4.489930     -2.332130     -1.888080
  H       3.078470     -3.200720     -2.597680
  Si      4.518060     -1.777450     -4.938990
  H       2.433590     -1.168800     -3.869940
  C       4.855200     -3.613390     -4.929450
  C       6.122210     -0.824820     -4.911410
  C       3.574640     -1.335700     -6.489900
  H       5.425100     -3.874290     -4.013680
  H       5.457760     -3.877670     -5.822510
  H       3.897850     -4.172140     -4.945160
  H       6.684230     -1.056220     -3.984770
  H       5.893970      0.261570     -4.943940
  H       6.727980     -1.095450     -5.800110
  H       2.616750     -1.897630     -6.500050
  H       4.170370     -1.609330     -7.383770
  H       3.358630     -0.247850     -6.499670
  H       0.326880     -3.466240     -4.261360
  H       4.141220      0.237930      0.790370
71
Coordinates from ORCA-job my_molecule E -2465.465903938483
  Pt      2.305121     -1.298354     -0.834686
  O       1.388479     -0.156899      0.595838
  O       0.753304     -0.980715     -2.135804
  P       2.188253      1.370643      0.660259
  P      -0.247047     -2.338950     -2.443084
  O       0.258137     -3.682799     -1.472378
  O       0.835274     -2.944066     -3.658500
  O       2.412242      1.431014     -1.066685
  O       3.896172      1.380469      0.883049
  C       1.796834      1.635118      2.513329
  C      -1.594123     -1.154096     -3.108749
  C      -2.588989     -2.019256     -3.909585
  C      -1.037734     -0.070870     -4.062319
  C      -2.312127     -0.502937     -1.918905
  C       0.273183      1.762263      2.676495
  C       2.316261      0.473162      3.374863
  C       2.457742      2.951550      2.973179
  H      -0.247325     -4.457837     -1.814573
  H       1.625105      1.908112     -1.419897
  H      -2.080125     -2.507377     -4.769245
  H      -3.416441     -1.397309     -4.311512
  H      -3.029742     -2.815318     -3.272522
  H      -0.477539     -0.535593     -4.900141
  H      -0.369002      0.642503     -3.544208
  H      -1.874220      0.524231     -4.491118
  H      -2.750097     -1.276668     -1.252645
  H      -3.134320      0.149403     -2.281858
  H      -1.607745      0.113100     -1.323894
  H      -0.238858      0.831548      2.357374
  H      -0.117672      2.602341      2.063600
  H       0.012335      1.956408      3.738620
  H       1.827889     -0.477879      3.085847
  H       2.086843      0.663601      4.445846
  H       3.415613      0.363530      3.279865
  H       2.102224      3.806579      2.359407
  H       3.562143      2.902367      2.886970
  H       2.210723      3.160267      4.035781
  Si      2.435276     -3.210957      0.751344
  C       2.935191     -4.821016     -0.083402
  C       3.769287     -2.877675      2.027290
  C       0.795996     -3.417684      1.647019
  H       3.929677     -4.699016     -0.557783
  H       2.208066     -5.136592     -0.853346
  H       3.001456     -5.619349      0.685821
  H       3.542392     -1.958029      2.595669
  H       4.750035     -2.763094      1.523578
  H       3.818674     -3.732819      2.734049
  H       0.546835     -2.482282      2.188149
  H       0.879094     -4.248742      2.378412
  H      -0.020548     -3.647649      0.936963
  H       3.834784     -0.279811     -3.268468
  C       3.474146     -2.229365     -2.335359
  C       3.483543     -1.294749     -3.550924
  H       4.507329     -2.378222     -1.948521
  H       3.039780     -3.216488     -2.612525
  Si      4.491492     -1.895772     -5.019031
  H       2.446609     -1.181269     -3.914228
  C       4.757246     -3.751230     -4.977752
  C       6.141976     -1.006111     -5.043672
  C       3.534354     -1.446109     -6.570628
  H       5.333091     -4.022168     -4.069407
  H       5.330782     -4.062897     -5.874809
  H       3.780640     -4.275340     -4.962856
  H       6.716193     -1.238787     -4.124559
  H       5.963114      0.088048     -5.094264
  H       6.724983     -1.316200     -5.935177
  H       2.554038     -1.966808     -6.556013
  H       4.097011     -1.758488     -7.473957
  H       3.359243     -0.351461     -6.603050
  H       0.274978     -3.437792     -4.303213
  H       4.166674      0.428354      0.861343
71
Coordinates from ORCA-job my_molecule E -2465.505912625988
  Pt      2.347126     -1.290023     -0.827313
  O       1.446852     -0.132752      0.643974
  O       0.765120     -0.983374     -2.143009
  P       2.172781      1.371466      0.744167
  P      -0.216915     -2.275481     -2.460035
  O       0.221470     -3.591293     -1.418477
  O       0.799930     -2.905782     -3.711601
  O       2.382355      1.564922     -0.976104
  O       3.858752      1.395000      0.964941
  C       1.728394      1.608118      2.606790
  C      -1.575294     -1.109653     -3.172788
  C      -2.574988     -2.001152     -3.943850
  C      -1.011293     -0.065923     -4.158206
  C      -2.281714     -0.423678     -1.996126
  C       0.197918      1.696008      2.730707
  C       2.259647      0.445589      3.456626
  C       2.349623      2.933180      3.094142
  H      -0.295842     -4.365733     -1.733309
  H       1.585039      2.033402     -1.307400
  H      -2.075514     -2.520503     -4.789748
  H      -3.399372     -1.387928     -4.363088
  H      -3.022224     -2.772791     -3.281921
  H      -0.451186     -0.556516     -4.979792
  H      -0.339964      0.656129     -3.659300
  H      -1.850039      0.510690     -4.608814
  H      -2.720154     -1.169726     -1.300303
  H      -3.102627      0.217662     -2.379119
  H      -1.573325      0.208976     -1.425914
  H      -0.282088      0.758426      2.386695
  H      -0.202734      2.533453      2.121473
  H      -0.090659      1.869045      3.788806
  H       1.803354     -0.512448      3.144528
  H       2.000626      0.621252      4.523568
  H       3.362501      0.364160      3.386046
  H       1.990373      3.790676      2.486904
  H       3.455443      2.908560      3.030432
  H       2.072831      3.119308      4.153162
  Si      2.529128     -3.167045      0.749180
  C       3.022103     -4.784242     -0.090583
  C       3.898717     -2.813554      2.000414
  C       0.905049     -3.376998      1.684235
  H       4.004248     -4.664404     -0.589993
  H       2.278734     -5.108348     -0.842839
  H       3.110911     -5.579198      0.680747
  H       3.684676     -1.891882      2.572629
  H       4.869153     -2.695442      1.478004
  H       3.973937     -3.664016      2.712071
  H       0.657279     -2.441794      2.225617
  H       1.008447     -4.202750      2.420248
  H       0.075993     -3.616830      0.992850
  H       3.868705     -0.308174     -3.305025
  C       3.465275     -2.239419     -2.344042
  C       3.483762     -1.316625     -3.573476
  H       4.506297     -2.406351     -1.979076
  H       2.997167     -3.218098     -2.615755
  Si      4.462981     -1.963745     -5.057824
  H       2.446642     -1.172629     -3.929073
  C       4.672015     -3.835613     -4.999375
  C       6.151086     -1.124958     -5.112345
  C       3.500702     -1.498049     -6.614588
  H       5.247642     -4.122255     -4.096155
  H       5.224709     -4.181228     -5.897256
  H       3.682000     -4.333236     -4.967307
  H       6.732442     -1.363530     -4.198845
  H       6.013941     -0.025736     -5.172401
  H       6.721255     -1.459777     -6.003583
  H       2.503504     -1.984687     -6.589588
  H       4.038167     -1.833755     -7.525424
  H       3.356954     -0.399316     -6.661438
  H       0.226982     -3.396448     -4.342275
  H       4.149405      0.452583      0.900231
71
Coordinates from ORCA-job my_molecule E -2465.553397727041
  Pt      2.399766     -1.278811     -0.815033
  O       1.514273     -0.100941      0.716631
  O       0.767670     -0.976644     -2.166349
  P       2.149819      1.355686      0.862133
  P      -0.176895     -2.181769     -2.507723
  O       0.162339     -3.452714     -1.390010
  O       0.752642     -2.851289     -3.787199
  O       2.293980      1.759619     -0.822844
  O       3.806710      1.380351      1.068230
  C       1.647747      1.581630      2.730675
  C      -1.562588     -1.062055     -3.268068
  C      -2.561905     -1.988034     -4.001396
  C      -0.986433     -0.064299     -4.283704
  C      -2.262083     -0.340873     -2.109189
  C       0.113600      1.636207      2.809538
  C       2.189849      0.418570      3.566752
  C       2.235845      2.913084      3.238289
  H      -0.368166     -4.227703     -1.676479
  H       1.476622      2.224911     -1.101245
  H      -2.070232     -2.540071     -4.830142
  H      -3.386920     -1.390221     -4.440974
  H      -3.012221     -2.732364     -3.311431
  H      -0.419890     -0.581822     -5.083053
  H      -0.315780      0.669247     -3.801971
  H      -1.826645      0.487358     -4.761444
  H      -2.696662     -1.056948     -1.381441
  H      -3.086374      0.282175     -2.514569
  H      -1.553483      0.314244     -1.566917
  H      -0.335939      0.692409      2.443876
  H      -0.293793      2.469739      2.200211
  H      -0.203187      1.792215      3.861931
  H       1.764617     -0.546067      3.234926
  H       1.902804      0.583446      4.628343
  H       3.294961      0.362909      3.519757
  H       1.877337      3.773204      2.635215
  H       3.342783      2.905806      3.196499
  H       1.932216      3.081715      4.292739
  Si      2.660215     -3.108738      0.739428
  C       3.145227     -4.730823     -0.113577
  C       4.071956     -2.736649      1.962256
  C       1.059600     -3.335268      1.726371
  H       4.109164     -4.609247     -0.646159
  H       2.380687     -5.063425     -0.842636
  H       3.265592     -5.525521      0.654472
  H       3.871678     -1.816595      2.544207
  H       5.028287     -2.608745      1.416580
  H       4.183601     -3.583829      2.675046
  H       0.811029     -2.404077      2.273326
  H       1.191989     -4.157251      2.462993
  H       0.214552     -3.585674      1.058489
  H       3.914434     -0.345194     -3.344450
  C       3.452382     -2.249655     -2.349398
  C       3.484963     -1.342026     -3.593406
  H       4.498869     -2.445509     -2.013114
  H       2.941183     -3.210637     -2.617745
  Si      4.425745     -2.051414     -5.092480
  H       2.450584     -1.158820     -3.943470
  C       4.555323     -3.940208     -5.007378
  C       6.160517     -1.287392     -5.182443
  C       3.464261     -1.565613     -6.658302
  H       5.126137     -4.247072     -4.107786
  H       5.080591     -4.331319     -5.903375
  H       3.547639     -4.399885     -4.955486
  H       6.747166     -1.534750     -4.274117
  H       6.081044     -0.183512     -5.257790
  H       6.713908     -1.657703     -6.070533
  H       2.445479     -2.004718     -6.622102
  H       3.970018     -1.933185     -7.575407
  H       3.364339     -0.462865     -6.726408
  H       0.165139     -3.340718     -4.401322
  H       4.114530      0.449859      0.935851
71
Coordinates from ORCA-job my_molecule E -2465.606767062750
  Pt      2.452078     -1.277380     -0.779500
  O       1.577242     -0.086631      0.837933
  O       0.744306     -0.939319     -2.209271
  P       2.135618      1.309617      1.033606
  P      -0.152551     -2.057943     -2.619972
  O       0.002336     -3.276484     -1.437038
  O       0.683865     -2.772302     -3.910710
  O       2.136822      2.008477     -0.538370
  O       3.762746      1.303730      1.182320
  C       1.594291      1.589152      2.898675
  C      -1.591682     -1.045945     -3.435726
  C      -2.561441     -2.026277     -4.140266
  C      -0.997912     -0.084075     -4.465193
  C      -2.313060     -0.304356     -2.303633
  C       0.060021      1.642402      2.942074
  C       2.136413      0.424980      3.725294
  C       2.186516      2.922592      3.393977
  H      -0.537889     -4.046907     -1.716102
  H       1.293161      2.476278     -0.709333
  H      -2.056520     -2.599484     -4.945610
  H      -3.394433     -1.463110     -4.610372
  H      -3.008821     -2.751316     -3.428889
  H      -0.399120     -0.615298     -5.230064
  H      -0.350452      0.671052     -3.985417
  H      -1.839258      0.426367     -4.983581
  H      -2.737199     -0.998160     -1.549918
  H      -3.149392      0.281994     -2.738556
  H      -1.624373      0.386908     -1.782228
  H      -0.380604      0.694788      2.576181
  H      -0.343433      2.469532      2.322278
  H      -0.272764      1.805344      3.988223
  H       1.719379     -0.542304      3.393211
  H       1.839535      0.600414      4.782419
  H       3.241235      0.372145      3.686327
  H       1.841383      3.783288      2.784927
  H       3.293562      2.905182      3.360671
  H       1.874624      3.100481      4.444585
  Si      2.834513     -3.045114      0.720825
  C       3.314277     -4.662427     -0.164422
  C       4.290777     -2.663668      1.916650
  C       1.269046     -3.323189      1.769016
  H       4.250578     -4.525681     -0.740083
  H       2.524436     -5.002641     -0.864709
  H       3.481636     -5.464663      0.587592
  H       4.100778     -1.754585      2.521918
  H       5.228129     -2.509957      1.345135
  H       4.453032     -3.513471      2.619042
  H       1.011201     -2.406608      2.334945
  H       1.443396     -4.148199      2.494356
  H       0.406211     -3.585242      1.127381
  H       3.971274     -0.388231     -3.352155
  C       3.423329     -2.261544     -2.331031
  C       3.484147     -1.363514     -3.584016
  H       4.468341     -2.509548     -2.026749
  H       2.855399     -3.189747     -2.607163
  Si      4.379269     -2.141735     -5.095185
  H       2.458194     -1.129403     -3.935515
  C       4.397612     -4.044340     -4.988619
  C       6.169271     -1.487149     -5.209726
  C       3.438222     -1.617140     -6.675545
  H       4.951039     -4.384384     -4.089985
  H       4.890414     -4.486003     -5.879983
  H       3.367071     -4.449419     -4.923757
  H       6.751792     -1.756200     -4.304242
  H       6.169255     -0.381253     -5.298119
  H       6.703327     -1.899640     -6.091408
  H       2.393271     -1.990151     -6.637009
  H       3.909451     -2.019431     -7.596907
  H       3.400079     -0.511534     -6.763759
  H       0.088051     -3.257381     -4.516442
  H       4.063162      0.389480      0.941422
71
Coordinates from ORCA-job my_molecule E -2465.654254093195
  Pt      2.484474     -1.295515     -0.728358
  O       1.609877     -0.113028      0.983830
  O       0.710382     -0.865380     -2.251876
  P       2.156586      1.249158      1.224015
  P      -0.154458     -1.939360     -2.752794
  O      -0.227922     -3.111949     -1.559249
  O       0.625860     -2.688917     -4.028191
  O       2.033886      2.203635     -0.165812
  O       3.761725      1.177335      1.304672
  C       1.600218      1.655257      3.057961
  C      -1.655174     -1.090595     -3.620820
  C      -2.561335     -2.145875     -4.301794
  C      -1.060344     -0.141283     -4.655922
  C      -2.427328     -0.348390     -2.521758
  C       0.068417      1.758024      3.071239
  C       2.105568      0.492399      3.905213
  C       2.242765      2.982467      3.503302
  H      -0.773526     -3.871532     -1.858144
  H       1.181422      2.681786     -0.219625
  H      -2.021042     -2.723015     -5.080846
  H      -3.412459     -1.642133     -4.806353
  H      -2.991563     -2.864294     -3.573582
  H      -0.410608     -0.664794     -5.382591
  H      -0.461187      0.650949     -4.172909
  H      -1.907607      0.310069     -5.215896
  H      -2.828304     -1.031841     -1.746954
  H      -3.286196      0.179309     -2.987371
  H      -1.780612      0.394106     -2.017760
  H      -0.396570      0.811808      2.732959
  H      -0.305211      2.575015      2.420452
  H      -0.271730      1.967014      4.106814
  H       1.660318     -0.470642      3.598880
  H       1.812110      0.712270      4.954705
  H       3.207518      0.402069      3.868787
  H       1.936676      3.836190      2.864981
  H       3.348190      2.917746      3.476903
  H       1.933470      3.210172      4.545207
  Si      2.976585     -3.022008      0.698799
  C       3.452067     -4.624370     -0.231665
  C       4.463899     -2.653074      1.882444
  C       1.443393     -3.368144      1.790614
  H       4.360181     -4.463562     -0.844186
  H       2.641785     -4.964609     -0.909542
  H       3.663601     -5.441364      0.493440
  H       4.279679     -1.763123      2.519793
  H       5.385707     -2.466949      1.294991
  H       4.668139     -3.513147      2.562808
  H       1.173806     -2.473412      2.385128
  H       1.653014     -4.204717      2.493745
  H       0.567826     -3.634760      1.166016
  H       4.016545     -0.414995     -3.323548
  C       3.389425     -2.268714     -2.300718
  C       3.481707     -1.366142     -3.551842
  H       4.425761     -2.572425     -2.022234
  H       2.776057     -3.162056     -2.593336
  Si      4.341905     -2.184896     -5.073752
  H       2.466857     -1.087386     -3.908625
  C       4.260687     -4.092732     -4.970538
  C       6.173070     -1.631263     -5.190631
  C       3.433968     -1.611573     -6.666106
  H       4.790630     -4.470060     -4.072497
  H       4.727641     -4.566406     -5.859757
  H       3.211551     -4.447868     -4.905081
  H       6.743449     -1.930256     -4.286272
  H       6.243802     -0.527323     -5.277981
  H       6.692540     -2.071392     -6.068002
  H       2.369156     -1.925525     -6.636585
  H       3.881101     -2.033252     -7.591134
  H       3.451447     -0.505513     -6.759912
  H       0.035223     -3.167830     -4.641318
  H       4.015724      0.276331      0.960869
71
Coordinates from ORCA-job my_molecule E -2465.688761501522
  Pt      2.473121     -1.354692     -0.676228
  O       1.587595     -0.193567      1.121291
  O       0.653726     -0.801638     -2.288068
  P       2.187601      1.171605      1.385558
  P      -0.187278     -1.869601     -2.907514
  O      -0.489270     -3.014729     -1.771042
  O       0.598562     -2.611380     -4.156051
  O       1.979330      2.300967      0.198438
  O       3.786603      1.022433      1.387038
  C       1.665418      1.754801      3.149093
  C      -1.738257     -1.177505     -3.783847
  C      -2.558078     -2.299687     -4.455384
  C      -1.186468     -0.186489     -4.811293
  C      -2.566161     -0.482054     -2.691105
  C       0.140084      1.932537      3.145365
  C       2.116866      0.616724      4.064842
  C       2.385875      3.071588      3.487872
  H      -1.034610     -3.752716     -2.115688
  H       1.130749      2.782513      0.257649
  H      -1.979981     -2.844627     -5.231816
  H      -3.441074     -1.863360     -4.968281
  H      -2.942515     -3.040229     -3.723337
  H      -0.490527     -0.661537     -5.528263
  H      -0.645532      0.639088     -4.313368
  H      -2.049748      0.216826     -5.382576
  H      -2.919974     -1.188293     -1.913550
  H      -3.460558     -0.014642     -3.155870
  H      -1.972556      0.304975     -2.188107
  H      -0.371215      0.988327      2.873496
  H      -0.194131      2.720436      2.438956
  H      -0.193019      2.230940      4.161750
  H       1.618418     -0.339578      3.821916
  H       1.848876      0.913945      5.101999
  H       3.211697      0.462497      4.022253
  H       2.123297      3.891481      2.788929
  H       3.485784      2.941626      3.462545
  H       2.098557      3.395897      4.510727
  Si      3.053701     -3.065732      0.702044
  C       3.512186     -4.664997     -0.250838
  C       4.566128     -2.697817      1.861846
  C       1.556826     -3.456964      1.838142
  H       4.387516     -4.491776     -0.905697
  H       2.678692     -5.009699     -0.897005
  H       3.765265     -5.484838      0.456783
  H       4.386355     -1.818535      2.517032
  H       5.473526     -2.489785      1.257765
  H       4.802473     -3.559053      2.528145
  H       1.285936     -2.574440      2.451206
  H       1.796257     -4.298445      2.525397
  H       0.667188     -3.729713      1.235002
  H       4.045839     -0.425173     -3.239603
  C       3.351701     -2.283900     -2.265229
  C       3.480168     -1.351254     -3.491600
  H       4.372447     -2.636476     -1.996811
  H       2.719462     -3.149304     -2.583249
  Si      4.329416     -2.160036     -5.027173
  H       2.478694     -1.032253     -3.851773
  C       4.167000     -4.065547     -4.978598
  C       6.185837     -1.689295     -5.107021
  C       3.474903     -1.510259     -6.620709
  H       4.663862     -4.493405     -4.083851
  H       4.624175     -4.539151     -5.872942
  H       3.102941     -4.378240     -4.936329
  H       6.730635     -2.035781     -4.203456
  H       6.313382     -0.588095     -5.163575
  H       6.701457     -2.130116     -5.986317
  H       2.396400     -1.776248     -6.619014
  H       3.917637     -1.924879     -7.550956
  H       3.539749     -0.403788     -6.689245
  H       0.032492     -3.078971     -4.798366
  H       3.972757      0.134801      0.962366
71
Coordinates from ORCA-job my_molecule E -2465.703074327571
  Pt      2.384807     -1.414807     -0.655434
  O       1.454756     -0.250025      1.151159
  O       0.539842     -0.791902     -2.347896
  P       2.116060      1.103299      1.389127
  P      -0.271489     -1.852481     -3.023394
  O      -0.739651     -2.965612     -1.926858
  O       0.578719     -2.599488     -4.216591
  O       1.773706      2.327888      0.365818
  O       3.710254      0.947018      1.191237
  C       1.790146      1.745125      3.136705
  C      -1.817996     -1.228124     -3.914927
  C      -2.582949     -2.384860     -4.579185
  C      -1.309684     -0.211401     -4.952908
  C      -2.684948     -0.551327     -2.837640
  C       0.273274      1.952138      3.269767
  C       2.298230      0.631825      4.067036
  C       2.566169      3.055009      3.343232
  H      -1.270821     -3.693422     -2.304942
  H       0.926870      2.773864      0.555970
  H      -1.984804     -2.911890     -5.354090
  H      -3.481882     -1.989178     -5.097002
  H      -2.938864     -3.135665     -3.842749
  H      -0.599851     -0.662123     -5.672780
  H      -0.793689      0.631465     -4.456298
  H      -2.181203      0.177701     -5.522449
  H      -3.016077     -1.268461     -2.059899
  H      -3.593302     -0.115928     -3.306547
  H      -2.124495      0.258715     -2.332285
  H      -0.278911      1.010139      3.082127
  H      -0.111712      2.724122      2.570398
  H       0.037876      2.294383      4.299727
  H       1.755097     -0.318946      3.909166
  H       2.142162      0.963333      5.116811
  H       3.379305      0.442883      3.923158
  H       2.249574      3.847335      2.635249
  H       3.655679      2.900261      3.216079
  H       2.387802      3.432225      4.372868
  Si      3.049770     -3.094771      0.772776
  C       3.511195     -4.725857     -0.123031
  C       4.568932     -2.660887      1.893079
  C       1.585086     -3.483745      1.950373
  H       4.355602     -4.566287     -0.821742
  H       2.661961     -5.113471     -0.721970
  H       3.806988     -5.507807      0.609064
  H       4.379212     -1.763189      2.519358
  H       5.464674     -2.454233      1.270387
  H       4.828898     -3.493312      2.584037
  H       1.304993     -2.585965      2.537206
  H       1.854441     -4.297247      2.659152
  H       0.690939     -3.796965      1.373579
  H       4.035435     -0.423207     -3.124988
  C       3.316731     -2.304548     -2.224103
  C       3.472989     -1.338035     -3.417917
  H       4.325136     -2.667160     -1.929792
  H       2.708103     -3.176405     -2.558137
  Si      4.356278     -2.096555     -4.954705
  H       2.479664     -0.999475     -3.779578
  C       4.149408     -3.994243     -4.997635
  C       6.221038     -1.673574     -4.946712
  C       3.581156     -1.359295     -6.545113
  H       4.600954     -4.473143     -4.104511
  H       4.628221     -4.438965     -5.895267
  H       3.076849     -4.279658     -5.009117
  H       6.721676     -2.072904     -4.039360
  H       6.378926     -0.574728     -4.949975
  H       6.755860     -2.090750     -5.825847
  H       2.497121     -1.595959     -6.594988
  H       4.051168     -1.746180     -7.473734
  H       3.676434     -0.252998     -6.562907
  H       0.048193     -3.069455     -4.885987
  H       3.822182      0.101605      0.661043
71
Coordinates from ORCA-job my_molecule E -2465.710502629746
  Pt      2.270332     -1.463180     -0.625642
  O       1.284007     -0.282576      1.152825
  O       0.411806     -0.793367     -2.382954
  P       2.052763      1.038209      1.333139
  P      -0.377148     -1.863594     -3.098673
  O      -0.928168     -3.003732     -2.060151
  O       0.550410     -2.615305     -4.233816
  O       1.593580      2.290918      0.389291
  O       3.615791      0.858664      0.929001
  C       1.948257      1.661953      3.078221
  C      -1.892284     -1.275496     -4.029767
  C      -2.602231     -2.456784     -4.707334
  C      -1.416621     -0.239988     -5.073203
  C      -2.811696     -0.613552     -2.985492
  C       0.459927      1.906955      3.385615
  C       2.516495      0.548425      3.984299
  C       2.776266      2.950899      3.194662
  H      -1.412220     -3.735318     -2.487405
  H       0.744154      2.682642      0.666502
  H      -1.971775     -2.965660     -5.469217
  H      -3.502847     -2.093181     -5.245139
  H      -2.948790     -3.217489     -3.976051
  H      -0.690420     -0.674565     -5.788723
  H      -0.925480      0.618508     -4.576364
  H      -2.286530      0.140532     -5.650323
  H      -3.139663     -1.339829     -2.215020
  H      -3.718546     -0.203195     -3.478127
  H      -2.289092      0.213983     -2.467324
  H      -0.137118      0.982323      3.257645
  H       0.020455      2.697418      2.739452
  H       0.347127      2.249595      4.435829
  H       1.931018     -0.386615      3.891329
  H       2.483578      0.878484      5.045011
  H       3.570467      0.323956      3.728651
  H       2.398741      3.747864      2.523813
  H       3.840036      2.771327      2.943649
  H       2.727579      3.332223      4.236852
  Si      3.008030     -3.037129      0.840760
  C       3.507886     -4.692178      0.022162
  C       4.513425     -2.490473      1.907354
  C       1.574826     -3.421223      2.049825
  H       4.341347     -4.548719     -0.695164
  H       2.661583     -5.133131     -0.543219
  H       3.830841     -5.423947      0.792118
  H       4.292370     -1.568047      2.482688
  H       5.395277     -2.283085      1.265536
  H       4.801849     -3.278996      2.635478
  H       1.267576     -2.504038      2.591097
  H       1.883080     -4.188480      2.792554
  H       0.688047     -3.798933      1.501174
  H       4.015961     -0.426820     -2.974116
  C       3.277712     -2.328396     -2.155652
  C       3.459385     -1.328974     -3.311745
  H       4.271006     -2.698841     -1.820687
  H       2.696434     -3.211076     -2.503887
  Si      4.372981     -2.028098     -4.847384
  H       2.469823     -0.970745     -3.665188
  C       4.109619     -3.905832     -5.004848
  C       6.240290     -1.672491     -4.739483
  C       3.689547     -1.180566     -6.414191
  H       4.509526     -4.445172     -4.121593
  H       4.611776     -4.312043     -5.907639
  H       3.029026     -4.149294     -5.075673
  H       6.685546     -2.138662     -3.835376
  H       6.431688     -0.580798     -4.675922
  H       6.791262     -2.061343     -5.621247
  H       2.601283     -1.376487     -6.517440
  H       4.188690     -1.536386     -7.339719
  H       3.824096     -0.079581     -6.363411
  H       0.047678     -3.100633     -4.915571
  H       3.622581      0.032885      0.338049
71
Coordinates from ORCA-job my_molecule E -2465.714247314162
  Pt      2.233372     -1.536145     -0.607538
  O       1.196519     -0.359466      1.168300
  O       0.347710     -0.807530     -2.378143
  P       2.004069      0.945094      1.296942
  P      -0.442153     -1.866894     -3.098630
  O      -1.046684     -2.995074     -2.065687
  O       0.510051     -2.660001     -4.189752
  O       1.543912      2.160962      0.291878
  O       3.561545      0.770994      0.886501
  C       1.942424      1.637886      3.001860
  C      -1.918732     -1.251739     -4.051264
  C      -2.647217     -2.422731     -4.732830
  C      -1.426204     -0.235198     -5.104654
  C      -2.843299     -0.555592     -3.032532
  C       0.462222      1.921745      3.328759
  C       2.499566      0.577871      3.977765
  C       2.789291      2.921949      3.053958
  H      -1.494018     -3.742047     -2.505736
  H       0.646714      2.484917      0.500204
  H      -2.018739     -2.948293     -5.484645
  H      -3.533260     -2.043076     -5.283139
  H      -3.021209     -3.171335     -4.002838
  H      -0.718908     -0.697808     -5.822780
  H      -0.905044      0.611869     -4.617446
  H      -2.283071      0.175633     -5.678523
  H      -3.198581     -1.266962     -2.260401
  H      -3.730183     -0.129478     -3.546177
  H      -2.311962      0.266492     -2.514352
  H      -0.154213      1.005496      3.241394
  H       0.026325      2.700805      2.666050
  H       0.372490      2.301782      4.367895
  H       1.903085     -0.354462      3.939316
  H       2.474638      0.962095      5.019039
  H       3.550311      0.327154      3.732647
  H       2.410475      3.691919      2.353498
  H       3.846489      2.718411      2.793602
  H       2.763612      3.347538      4.079447
  Si      3.069021     -3.094623      0.914959
  C       3.539948     -4.775709      0.140455
  C       4.607563     -2.505243      1.888976
  C       1.689856     -3.450808      2.187596
  H       4.345176     -4.667871     -0.614140
  H       2.669752     -5.239260     -0.368203
  H       3.891636     -5.473367      0.929303
  H       4.404354     -1.562464      2.433340
  H       5.462385     -2.319351      1.206098
  H       4.920538     -3.270520      2.631466
  H       1.391459     -2.517014      2.703545
  H       2.036585     -4.188438      2.943344
  H       0.788155     -3.860527      1.688622
  H       4.014152     -0.431527     -2.907028
  C       3.307747     -2.357832     -2.134473
  C       3.466454     -1.330705     -3.266769
  H       4.303226     -2.709191     -1.785711
  H       2.763096     -3.262044     -2.486940
  Si      4.375319     -1.970437     -4.822152
  H       2.467900     -0.969883     -3.590061
  C       4.063018     -3.824837     -5.081662
  C       6.244665     -1.676257     -4.667702
  C       3.737372     -1.022716     -6.342749
  H       4.439882     -4.418784     -4.223876
  H       4.565025     -4.192547     -6.000748
  H       2.976497     -4.030800     -5.175491
  H       6.659618     -2.201369     -3.781960
  H       6.464870     -0.594985     -4.547016
  H       6.792554     -2.037536     -5.562810
  H       2.645633     -1.182372     -6.468007
  H       4.242238     -1.346593     -7.276757
  H       3.903658      0.068987     -6.229065
  H       0.004697     -3.158637     -4.861258
  H       3.558818     -0.107804      0.339590
71
Coordinates from ORCA-job my_molecule E -2465.716725121440
  Pt      2.216421     -1.598733     -0.597016
  O       1.125849     -0.422582      1.162871
  O       0.337218     -0.818512     -2.367833
  P       1.902933      0.897418      1.226171
  P      -0.459933     -1.866053     -3.077294
  O      -1.075640     -2.972185     -2.024558
  O       0.482581     -2.695562     -4.151167
  O       1.294411      2.066838      0.234380
  O       3.424836      0.797940      0.711626
  C       1.925115      1.603285      2.926993
  C      -1.914307     -1.214222     -4.030063
  C      -2.681365     -2.362850     -4.715341
  C      -1.393634     -0.218830     -5.085847
  C      -2.824117     -0.488087     -3.017890
  C       0.459954      1.836333      3.356307
  C       2.585983      0.587598      3.881075
  C       2.717413      2.925677      2.921629
  H      -1.480429     -3.748072     -2.456670
  H       0.349469      2.230389      0.422585
  H      -2.067521     -2.905206     -5.466970
  H      -3.554053     -1.954015     -5.265753
  H      -3.081810     -3.099869     -3.988082
  H      -0.719116     -0.711134     -5.815626
  H      -0.827608      0.603695     -4.605850
  H      -2.239848      0.230300     -5.645293
  H      -3.203493     -1.184656     -2.243632
  H      -3.693447     -0.039342     -3.541472
  H      -2.272152      0.321751     -2.502186
  H      -0.128687      0.899164      3.307288
  H      -0.045646      2.600898      2.728047
  H       0.428602      2.212079      4.400143
  H       2.037326     -0.374772      3.887701
  H       2.596099      0.986971      4.915972
  H       3.634316      0.386820      3.583900
  H       2.262715      3.671108      2.239600
  H       3.763847      2.764198      2.596042
  H       2.736904      3.357270      3.944426
  Si      3.091839     -3.107216      0.933392
  C       3.542554     -4.807927      0.193689
  C       4.653842     -2.486609      1.837086
  C       1.747322     -3.432722      2.247392
  H       4.343200     -4.736013     -0.569236
  H       2.660966     -5.279239     -0.287580
  H       3.894516     -5.484226      1.001604
  H       4.466691     -1.525164      2.354391
  H       5.489869     -2.324505      1.125871
  H       4.982493     -3.231902      2.593198
  H       1.451650     -2.485341      2.738853
  H       2.118994     -4.144040      3.016665
  H       0.837849     -3.866313      1.784280
  H       4.039551     -0.450213     -2.848307
  C       3.334543     -2.384654     -2.103502
  C       3.491181     -1.343573     -3.222768
  H       4.330674     -2.724023     -1.740884
  H       2.810377     -3.298014     -2.469308
  Si      4.400156     -1.958022     -4.784318
  H       2.493221     -0.974215     -3.537154
  C       4.001402     -3.780233     -5.132149
  C       6.275978     -1.767206     -4.571785
  C       3.844884     -0.912443     -6.270439
  H       4.334840     -4.428805     -4.296407
  H       4.501770     -4.129553     -6.059269
  H       2.907763     -3.925807     -5.251163
  H       6.639992     -2.348822     -3.699304
  H       6.547715     -0.704485     -4.402552
  H       6.824776     -2.121189     -5.469276
  H       2.750092     -1.012051     -6.426525
  H       4.356757     -1.221493     -7.205648
  H       4.062512      0.163051     -6.102762
  H      -0.038988     -3.204641     -4.802426
  H       3.394044     -0.063720      0.112831
71
Coordinates from ORCA-job my_molecule E -2465.718436910691
  Pt      2.256242     -1.702677     -0.601327
  O       1.137911     -0.530553      1.173739
  O       0.371019     -0.816111     -2.317143
  P       1.923314      0.781778      1.225996
  P      -0.461256     -1.843755     -3.010448
  O      -1.052530     -2.950998     -1.946206
  O       0.426024     -2.704224     -4.106156
  O       1.373285      1.856753      0.094234
  O       3.478407      0.681820      0.873740
  C       1.778655      1.611532      2.866308
  C      -1.914832     -1.147715     -3.920364
  C      -2.736664     -2.264299     -4.602083
  C      -1.384140     -0.162510     -4.977157
  C      -2.784865     -0.407421     -2.882887
  C       0.279064      1.869750      3.140474
  C       2.348602      0.684673      3.955298
  C       2.558243      2.943809      2.841798
  H      -1.405238     -3.755659     -2.373248
  H       0.395721      1.840869      0.065927
  H      -2.155515     -2.811825     -5.375603
  H      -3.609319     -1.820334     -5.124575
  H      -3.142119     -2.998819     -3.875396
  H      -0.762037     -0.674715     -5.738725
  H      -0.761449      0.625402     -4.508578
  H      -2.229967      0.331418     -5.497437
  H      -3.168543     -1.098354     -2.105616
  H      -3.648821      0.067978     -3.391410
  H      -2.201122      0.384349     -2.374300
  H      -0.305230      0.928921      3.099495
  H      -0.159578      2.588415      2.416821
  H       0.153493      2.315144      4.149026
  H       1.816905     -0.287217      3.983512
  H       2.240672      1.167184      4.947943
  H       3.426239      0.484879      3.789479
  H       2.169047      3.626307      2.059815
  H       3.633060      2.771349      2.634801
  H       2.470183      3.449978      3.825657
  Si      3.202629     -3.138619      0.881970
  C       3.619671     -4.853434      0.157889
  C       4.807064     -2.478366      1.661848
  C       1.934215     -3.441415      2.271492
  H       4.400495     -4.817333     -0.627278
  H       2.717711     -5.331559     -0.276534
  H       3.989635     -5.509648      0.975236
  H       4.645439     -1.498762      2.155718
  H       5.599401     -2.337699      0.898289
  H       5.179748     -3.200355      2.420181
  H       1.645337     -2.484104      2.746783
  H       2.357998     -4.122857      3.040912
  H       1.009845     -3.904609      1.870799
  H       4.108698     -0.506816     -2.817079
  C       3.385840     -2.445219     -2.108130
  C       3.539779     -1.381534     -3.205979
  H       4.383914     -2.788921     -1.750438
  H       2.862992     -3.352713     -2.495394
  Si      4.417924     -1.970440     -4.790962
  H       2.544222     -0.986024     -3.496488
  C       3.869225     -3.725643     -5.257897
  C       6.297545     -1.958404     -4.535417
  C       3.979990     -0.787789     -6.210281
  H       4.140068     -4.452037     -4.464717
  H       4.348328     -4.054565     -6.203529
  H       2.768417     -3.767974     -5.389500
  H       6.590323     -2.620264     -3.694168
  H       6.658288     -0.935536     -4.300523
  H       6.829138     -2.307914     -5.445043
  H       2.884298     -0.783618     -6.389073
  H       4.483007     -1.081857     -7.155025
  H       4.285193      0.251903     -5.969878
  H      -0.138147     -3.210579     -4.723778
  H       3.503116     -0.246700      0.345290
71
Coordinates from ORCA-job my_molecule E -2465.721179175897
  Pt      2.247378     -1.738309     -0.585417
  O       1.086161     -0.585940      1.184295
  O       0.383815     -0.797077     -2.278099
  P       1.825749      0.752518      1.197044
  P      -0.467601     -1.819798     -2.967375
  O      -1.058065     -2.922328     -1.898982
  O       0.385590     -2.704241     -4.069534
  O       1.240758      1.802545      0.058598
  O       3.373152      0.695406      0.808110
  C       1.732155      1.629472      2.820051
  C      -1.916202     -1.115065     -3.880064
  C      -2.750904     -2.228620     -4.549413
  C      -1.368953     -0.143847     -4.942130
  C      -2.774516     -0.362048     -2.842383
  C       0.240853      1.871983      3.143017
  C       2.365376      0.739852      3.905390
  C       2.485656      2.972879      2.720221
  H      -1.365630     -3.748714     -2.318908
  H       0.281167      1.657030     -0.055021
  H      -2.176767     -2.786283     -5.321095
  H      -3.621488     -1.779883     -5.071372
  H      -3.157757     -2.954192     -3.814490
  H      -0.754126     -0.668832     -5.700667
  H      -0.735127      0.637633     -4.478401
  H      -2.210340      0.354989     -5.466012
  H      -3.160754     -1.043618     -2.058530
  H      -3.636364      0.115734     -3.352563
  H      -2.182298      0.429205     -2.343053
  H      -0.327850      0.920645      3.155865
  H      -0.235068      2.557814      2.411990
  H       0.148991      2.348377      4.140990
  H       1.853389     -0.239701      3.983660
  H       2.289103      1.250428      4.887677
  H       3.438630      0.552433      3.700710
  H       2.054257      3.620173      1.930569
  H       3.555262      2.811925      2.478864
  H       2.423053      3.510029      3.689299
  Si      3.227921     -3.193989      0.894983
  C       3.634874     -4.899536      0.141488
  C       4.847178     -2.532299      1.645222
  C       1.988160     -3.517885      2.305981
  H       4.411300     -4.859252     -0.648190
  H       2.727900     -5.370659     -0.290395
  H       4.008758     -5.566262      0.948861
  H       4.695407     -1.556465      2.150418
  H       5.623939     -2.385255      0.866871
  H       5.238071     -3.258686      2.390326
  H       1.696286     -2.567787      2.793153
  H       2.432804     -4.199628      3.063363
  H       1.061853     -3.988460      1.918599
  H       4.115942     -0.506313     -2.798564
  C       3.403240     -2.453537     -2.100895
  C       3.554042     -1.382796     -3.193669
  H       4.403563     -2.786123     -1.741822
  H       2.890775     -3.361544     -2.500199
  Si      4.445477     -1.959385     -4.777072
  H       2.557675     -0.991828     -3.490572
  C       3.840532     -3.680111     -5.305110
  C       6.319290     -2.027374     -4.478800
  C       4.083353     -0.720328     -6.171235
  H       4.073746     -4.439747     -4.531251
  H       4.321145     -3.998562     -6.253541
  H       2.740926     -3.678870     -5.452320
  H       6.567415     -2.721151     -3.649007
  H       6.715097     -1.026008     -4.210232
  H       6.858569     -2.375237     -5.384631
  H       2.993662     -0.670565     -6.377215
  H       4.598074     -1.005154     -7.112533
  H       4.419535      0.300513     -5.894482
  H      -0.197005     -3.202725     -4.676454
  H       3.394019     -0.205847      0.230781
71
Coordinates from ORCA-job my_molecule E -2465.723073645379
  Pt      2.247399     -1.755729     -0.587575
  O       1.057922     -0.613372      1.167933
  O       0.404216     -0.767393     -2.251651
  P       1.803858      0.725238      1.160559
  P      -0.470192     -1.793243     -2.926252
  O      -1.065491     -2.852923     -1.821384
  O       0.350264     -2.702439     -4.031349
  O       1.169892      1.738952      0.018867
  O       3.362251      0.615985      0.788595
  C       1.659004      1.630467      2.765850
  C      -1.922417     -1.067629     -3.823761
  C      -2.785305     -2.174529     -4.459769
  C      -1.363419     -0.117916     -4.902119
  C      -2.745412     -0.288996     -2.776677
  C       0.157874      1.852482      3.042061
  C       2.286525      0.754940      3.867787
  C       2.396946      2.979133      2.650244
  H      -1.332138     -3.710677     -2.202577
  H       0.254780      1.461154     -0.180565
  H      -2.235036     -2.751413     -5.235034
  H      -3.658492     -1.718448     -4.970967
  H      -3.184116     -2.883224     -3.704687
  H      -0.763687     -0.662024     -5.659061
  H      -0.712532      0.656576     -4.451846
  H      -2.202731      0.385932     -5.426042
  H      -3.127272     -0.955262     -1.978138
  H      -3.610349      0.197337     -3.274142
  H      -2.130181      0.498290     -2.299290
  H      -0.394547      0.891595      3.065088
  H      -0.305704      2.508071      2.276958
  H       0.033112      2.351499      4.025644
  H       1.782643     -0.228581      3.948706
  H       2.189969      1.275703      4.844151
  H       3.363561      0.573769      3.680270
  H       1.972887      3.602404      1.838416
  H       3.474008      2.829367      2.437491
  H       2.302448      3.534870      3.606348
  Si      3.279902     -3.224288      0.903082
  C       3.666811     -4.928832      0.132362
  C       4.920389     -2.553173      1.607503
  C       2.084092     -3.552900      2.352058
  H       4.425901     -4.886742     -0.674017
  H       2.750568     -5.397493     -0.282181
  H       4.057719     -5.599747      0.928412
  H       4.781701     -1.577151      2.115887
  H       5.674134     -2.406768      0.806549
  H       5.339106     -3.273488      2.343737
  H       1.796648     -2.604739      2.846529
  H       2.555177     -4.227662      3.099472
  H       1.151348     -4.032335      1.991376
  H       4.122979     -0.505338     -2.800039
  C       3.415977     -2.456467     -2.102284
  C       3.566665     -1.385005     -3.194888
  H       4.417025     -2.778392     -1.742073
  H       2.911135     -3.364001     -2.507707
  Si      4.469939     -1.960781     -4.774877
  H       2.570241     -0.998981     -3.501434
  C       3.808424     -3.646655     -5.352786
  C       6.335739     -2.107935     -4.442171
  C       4.182333     -0.677269     -6.149056
  H       4.005261     -4.433971     -4.596439
  H       4.286644     -3.960762     -6.303841
  H       2.710994     -3.602460     -5.510674
  H       6.541396     -2.827375     -3.622617
  H       6.766153     -1.128921     -4.145592
  H       6.881254     -2.458881     -5.343158
  H       3.100665     -0.581453     -6.379600
  H       4.706256     -0.958583     -7.086430
  H       4.549262      0.324631     -5.843699
  H      -0.244958     -3.184982     -4.638190
  H       3.356789     -0.257348      0.179404
71
Coordinates from ORCA-job my_molecule E -2465.727122189367
  Pt      2.253189     -1.826307     -0.582974
  O       1.027623     -0.707045      1.157089
  O       0.433859     -0.754002     -2.188943
  P       1.755715      0.647695      1.130106
  P      -0.474045     -1.768730     -2.841363
  O      -1.063008     -2.805090     -1.711959
  O       0.301738     -2.703582     -3.956308
  O       1.190211      1.606218     -0.092427
  O       3.342367      0.551953      0.862636
  C       1.529099      1.634499      2.677590
  C      -1.924695     -1.007326     -3.716862
  C      -2.820480     -2.098342     -4.328774
  C      -1.354586     -0.074331     -4.805477
  C      -2.709661     -0.206911     -2.657307
  C       0.016111      1.850960      2.864460
  C       2.116806      0.813893      3.842728
  C       2.261880      2.980923      2.520052
  H      -1.249397     -3.698774     -2.055438
  H       0.420527      1.158702     -0.495059
  H      -2.297045     -2.688328     -5.112959
  H      -3.695039     -1.627559     -4.824034
  H      -3.211206     -2.795499     -3.559737
  H      -0.775886     -0.634970     -5.566662
  H      -0.681689      0.686319     -4.365073
  H      -2.190261      0.443077     -5.322582
  H      -3.088814     -0.861490     -1.848174
  H      -3.575010      0.293792     -3.140029
  H      -2.069784      0.571579     -2.198440
  H      -0.526352      0.885711      2.918176
  H      -0.408928      2.449763      2.034498
  H      -0.161107      2.405032      3.810081
  H       1.612891     -0.167182      3.949880
  H       1.978635      1.379906      4.789117
  H       3.200401      0.627776      3.706411
  H       1.868520      3.552924      1.657102
  H       3.349144      2.832625      2.366995
  H       2.116084      3.586127      3.439268
  Si      3.354430     -3.275491      0.878828
  C       3.699387     -4.989365      0.105919
  C       5.028334     -2.587268      1.485499
  C       2.237335     -3.586521      2.392686
  H       4.430165     -4.963566     -0.726470
  H       2.765366     -5.455460     -0.269679
  H       4.113304     -5.655747      0.894530
  H       4.914666     -1.604284      1.986293
  H       5.738180     -2.452555      0.643383
  H       5.490334     -3.293535      2.209592
  H       1.965715     -2.633249      2.887352
  H       2.750822     -4.244403      3.126828
  H       1.291896     -4.078915      2.086428
  H       4.144936     -0.526494     -2.767738
  C       3.437847     -2.488592     -2.098489
  C       3.589452     -1.400926     -3.174719
  H       4.440049     -2.803538     -1.738337
  H       2.943174     -3.391962     -2.522864
  Si      4.497391     -1.954941     -4.761046
  H       2.595008     -1.009852     -3.481841
  C       3.737395     -3.560895     -5.441672
  C       6.340528     -2.246529     -4.390879
  C       4.332204     -0.584965     -6.072125
  H       3.872963     -4.400790     -4.729554
  H       4.207537     -3.852759     -6.403741
  H       2.647150     -3.437056     -5.607985
  H       6.474899     -3.017920     -3.604493
  H       6.829234     -1.315677     -4.035319
  H       6.886622     -2.590165     -5.294400
  H       3.267231     -0.404550     -6.328287
  H       4.864032     -0.851620     -7.009457
  H       4.754659      0.373681     -5.705853
  H      -0.314922     -3.154499     -4.565804
  H       3.379082     -0.289877      0.212506
71
Coordinates from ORCA-job my_molecule E -2465.733383374620
  Pt      2.302826     -1.940593     -0.525583
  O       1.060178     -0.861945      1.224903
  O       0.506999     -0.718203     -2.038140
  P       1.701800      0.529204      1.078273
  P      -0.455631     -1.693776     -2.681771
  O      -1.073360     -2.724553     -1.563050
  O       0.263121     -2.658212     -3.808856
  O       1.104175      1.290653     -0.262277
  O       3.307221      0.516420      0.894257
  C       1.341125      1.665131      2.487846
  C      -1.885567     -0.880164     -3.542492
  C      -2.816326     -1.943479     -4.150710
  C      -1.295590      0.040832     -4.631484
  C      -2.639119     -0.061998     -2.473539
  C      -0.190218      1.782513      2.595002
  C       1.939364      1.030594      3.759435
  C       1.979069      3.036921      2.194057
  H      -1.201038     -3.634023     -1.891189
  H       0.590284      0.624997     -0.765866
  H      -2.316631     -2.541359     -4.944437
  H      -3.683914     -1.447911     -4.633726
  H      -3.212307     -2.635006     -3.379684
  H      -0.739544     -0.533617     -5.399290
  H      -0.597702      0.779321     -4.192844
  H      -2.119455      0.584312     -5.140638
  H      -3.028039     -0.708961     -1.662912
  H      -3.495313      0.461885     -2.947452
  H      -1.976534      0.700115     -2.019729
  H      -0.661307      0.791130      2.749297
  H      -0.617570      2.238185      1.680310
  H      -0.448624      2.430806      3.458497
  H       1.501873      0.033164      3.964533
  H       1.723283      1.688306      4.628730
  H       3.037850      0.911261      3.679624
  H       1.580128      3.469778      1.255911
  H       3.079795      2.958841      2.097468
  H       1.748027      3.732139      3.028307
  Si      3.460749     -3.422417      0.857875
  C       3.732651     -5.134670      0.051969
  C       5.175903     -2.759971      1.367504
  C       2.432438     -3.732640      2.432445
  H       4.427162     -5.120711     -0.811093
  H       2.772432     -5.577379     -0.283374
  H       4.165726     -5.816599      0.816900
  H       5.105308     -1.779773      1.881513
  H       5.836289     -2.628715      0.485416
  H       5.670982     -3.477825      2.057412
  H       2.199890     -2.781488      2.950321
  H       2.980806     -4.401599      3.130416
  H       1.465485     -4.212607      2.178102
  H       4.204732     -0.568712     -2.685952
  C       3.489763     -2.547581     -2.072957
  C       3.638388     -1.425594     -3.114723
  H       4.494478     -2.872186     -1.728907
  H       2.993599     -3.437744     -2.524106
  Si      4.525652     -1.934999     -4.726595
  H       2.645315     -1.015368     -3.400124
  C       3.676469     -3.451203     -5.501719
  C       6.345648     -2.355341     -4.366682
  C       4.447045     -0.483310     -5.954572
  H       3.768299     -4.340004     -4.844080
  H       4.126659     -3.707873     -6.483137
  H       2.594157     -3.257267     -5.652142
  H       6.428815     -3.176980     -3.625495
  H       6.886244     -1.476901     -3.957144
  H       6.876625     -2.678529     -5.286624
  H       3.396738     -0.227259     -6.206536
  H       4.970871     -0.725264     -6.903145
  H       4.920455      0.426637     -5.531030
  H      -0.380675     -3.059452     -4.425361
  H       3.415783     -0.347667      0.289543
71
Coordinates from ORCA-job my_molecule E -2465.734947625491
  Pt      2.334333     -1.991877     -0.500851
  O       1.098693     -0.947196      1.241789
  O       0.542776     -0.693976     -1.952621
  P       1.730423      0.444405      1.078376
  P      -0.450344     -1.650165     -2.573748
  O      -1.091367     -2.670718     -1.462872
  O       0.255878     -2.616942     -3.702109
  O       1.293048      1.137065     -0.349825
  O       3.355268      0.434145      1.090126
  C       1.241642      1.666884      2.365009
  C      -1.882226     -0.827271     -3.425436
  C      -2.813295     -1.895362     -4.026766
  C      -1.305599      0.095031     -4.520130
  C      -2.628783     -0.006285     -2.353218
  C      -0.293252      1.783354      2.313591
  C       1.708603      1.114865      3.727067
  C       1.913480      3.017518      2.049795
  H      -1.181235     -3.591013     -1.773314
  H       0.993591      0.405091     -0.949621
  H      -2.320164     -2.491292     -4.825980
  H      -3.687918     -1.405756     -4.502608
  H      -3.195555     -2.589353     -3.251358
  H      -0.751615     -0.477547     -5.291113
  H      -0.610106      0.838395     -4.085916
  H      -2.133371      0.635792     -5.024266
  H      -3.011111     -0.653364     -1.539060
  H      -3.490554      0.514518     -2.819194
  H      -1.968066      0.760810     -1.904817
  H      -0.777437      0.802247      2.486636
  H      -0.627538      2.170307      1.330855
  H      -0.636715      2.485520      3.102215
  H       1.243705      0.132772      3.945338
  H       1.416679      1.821619      4.532379
  H       2.808537      0.988479      3.757826
  H       1.610290      3.391862      1.052146
  H       3.017524      2.935945      2.068082
  H       1.605920      3.765885      2.810758
  Si      3.505410     -3.484741      0.822089
  C       3.733672     -5.203272      0.014228
  C       5.243612     -2.843162      1.285322
  C       2.525991     -3.777513      2.430919
  H       4.404743     -5.196082     -0.867146
  H       2.759647     -5.632916     -0.297212
  H       4.177617     -5.891679      0.766498
  H       5.195852     -1.864017      1.803534
  H       5.878492     -2.717415      0.383731
  H       5.753946     -3.564629      1.959732
  H       2.327204     -2.823027      2.956552
  H       3.086352     -4.453932      3.111985
  H       1.543366     -4.241156      2.208685
  H       4.235536     -0.582635     -2.641626
  C       3.517554     -2.574355     -2.064900
  C       3.664466     -1.430070     -3.083152
  H       4.524335     -2.907350     -1.732254
  H       3.019796     -3.456567     -2.532673
  Si      4.535708     -1.910969     -4.713356
  H       2.670782     -1.009995     -3.352189
  C       3.654381     -3.394418     -5.515621
  C       6.352281     -2.366440     -4.383008
  C       4.467390     -0.430539     -5.907219
  H       3.740723     -4.300477     -4.881337
  H       4.086393     -3.633712     -6.509518
  H       2.573072     -3.181252     -5.646847
  H       6.429993     -3.207204     -3.662882
  H       6.909207     -1.506503     -3.956397
  H       6.871025     -2.673733     -5.315186
  H       3.419058     -0.152659     -6.144154
  H       4.979565     -0.657024     -6.866053
  H       4.957993      0.462364     -5.467027
  H      -0.387290     -2.989916     -4.336836
  H       3.532201     -0.433678      0.550856
71
Coordinates from ORCA-job my_molecule E -2465.729366519636
  Pt      2.338336     -1.900280     -0.582647
  O       1.121821     -0.860817      1.119528
  O       0.530972     -0.678165     -2.083571
  P       1.836496      0.486973      1.173717
  P      -0.459159     -1.651765     -2.624901
  O      -1.113202     -2.645553     -1.509219
  O       0.278726     -2.619643     -3.717579
  O       1.683147      1.412243     -0.154262
  O       3.443862      0.321602      1.431429
  C       1.316750      1.622019      2.517101
  C      -1.935893     -0.930019     -3.498277
  C      -2.809820     -2.077171     -4.045161
  C      -1.432602     -0.026682     -4.639707
  C      -2.713563     -0.094532     -2.460015
  C      -0.185673      1.901514      2.307053
  C       1.548912      0.895981      3.856428
  C       2.151289      2.915507      2.442895
  H      -1.163044     -3.582501     -1.781116
  H       1.387508      0.828482     -0.931714
  H      -2.296754     -2.682420     -4.824216
  H      -3.716024     -1.663946     -4.533698
  H      -3.143470     -2.757332     -3.236019
  H      -0.854919     -0.598151     -5.394783
  H      -0.779220      0.775279     -4.243843
  H      -2.290553      0.450827     -5.152519
  H      -3.058178     -0.723640     -1.614245
  H      -3.606152      0.362187     -2.933266
  H      -2.093522      0.726054     -2.049152
  H      -0.771656      0.963341      2.315825
  H      -0.367287      2.410385      1.338595
  H      -0.564730      2.553453      3.122266
  H       0.962339     -0.042941      3.897443
  H       1.233748      1.537224      4.703664
  H       2.619429      0.646400      3.989592
  H       2.016880      3.429377      1.469643
  H       3.230224      2.712313      2.580702
  H       1.828850      3.615662      3.244098
  Si      3.442914     -3.324645      0.766091
  C       3.661153     -5.089268      0.058419
  C       5.187297     -2.697039      1.250162
  C       2.435024     -3.507679      2.375823
  H       4.341117     -5.117072     -0.815570
  H       2.687542     -5.519658     -0.253972
  H       4.087307     -5.751523      0.841834
  H       5.137012     -1.696697      1.724220
  H       5.841937     -2.620279      0.357007
  H       5.677241     -3.388645      1.968630
  H       2.259536     -2.521939      2.848908
  H       2.967931     -4.159608      3.101442
  H       1.442303     -3.953911      2.163827
  H       4.241355     -0.557479     -2.747595
  C       3.519061     -2.541626     -2.130696
  C       3.672405     -1.416691     -3.170487
  H       4.526129     -2.874156     -1.789529
  H       3.024206     -3.437734     -2.580511
  Si      4.538425     -1.938619     -4.794621
  H       2.678968     -1.002154     -3.446416
  C       3.650934     -3.447786     -5.540026
  C       6.361876     -2.373448     -4.481978
  C       4.448769     -0.498618     -6.036770
  H       3.746342     -4.333758     -4.879505
  H       4.065603     -3.718042     -6.533445
  H       2.566775     -3.243202     -5.663359
  H       6.455246     -3.192197     -3.738279
  H       6.917629     -1.498241     -4.085540
  H       6.872628     -2.702684     -5.410727
  H       3.395624     -0.232784     -6.267695
  H       4.950254     -0.749252     -6.995364
  H       4.939644      0.410569     -5.630513
  H      -0.336826     -3.022906     -4.361565
  H       3.626983     -0.508774      0.932426
71
Coordinates from ORCA-job my_molecule E -2465.737022393096
  Pt      2.349367     -1.904502     -0.588347
  O       1.120066     -0.854426      1.118986
  O       0.565176     -0.669983     -2.091892
  P       1.751014      0.547248      1.113062
  P      -0.434553     -1.652393     -2.642381
  O      -1.062772     -2.612113     -1.478214
  O       0.274765     -2.649101     -3.736509
  O       1.352878      1.425010     -0.207174
  O       3.382564      0.515365      1.199585
  C       1.244876      1.621340      2.522861
  C      -1.886750     -0.864362     -3.495790
  C      -2.821705     -1.958693     -4.043247
  C      -1.339822      0.023221     -4.630965
  C      -2.617068     -0.009780     -2.439914
  C      -0.288834      1.759673      2.458241
  C       1.674971      0.911450      3.822101
  C       1.935348      2.991568      2.386982
  H      -1.093819     -3.558066     -1.715652
  H       1.047481      0.803246     -0.924934
  H      -2.343271     -2.578773     -4.833132
  H      -3.709187     -1.491086     -4.517846
  H      -3.184191     -2.629039     -3.238547
  H      -0.793529     -0.569259     -5.392632
  H      -0.644988      0.788980     -4.233671
  H      -2.179569      0.542002     -5.137391
  H      -2.984108     -0.631145     -1.598870
  H      -3.490438      0.493846     -2.904455
  H      -1.951470      0.772733     -2.025420
  H      -0.782882      0.769134      2.509686
  H      -0.605584      2.256071      1.519718
  H      -0.644240      2.369991      3.315029
  H       1.193610     -0.082742      3.911253
  H       1.375038      1.521634      4.699712
  H       2.772915      0.769421      3.856752
  H       1.657639      3.492032      1.438417
  H       3.038202      2.894513      2.417658
  H       1.622324      3.647469      3.227200
  Si      3.482643     -3.357077      0.792816
  C       3.676168     -5.112012      0.058173
  C       5.237519     -2.745418      1.254134
  C       2.494785     -3.554176      2.413200
  H       4.345385     -5.138362     -0.824919
  H       2.694635     -5.531250     -0.244699
  H       4.107531     -5.784640      0.830754
  H       5.208936     -1.749235      1.740560
  H       5.881101     -2.665481      0.353719
  H       5.728633     -3.451540      1.958217
  H       2.327155     -2.573029      2.899064
  H       3.035452     -4.216341      3.123600
  H       1.497908     -3.995586      2.210441
  H       4.249342     -0.578700     -2.772397
  C       3.520213     -2.548692     -2.130652
  C       3.677098     -1.439843     -3.185478
  H       4.527103     -2.877657     -1.789719
  H       3.024385     -3.445208     -2.572319
  Si      4.546464     -1.987424     -4.797532
  H       2.686725     -1.028044     -3.476481
  C       3.646877     -3.491528     -5.539099
  C       6.360456     -2.444042     -4.459376
  C       4.487737     -0.554578     -6.049545
  H       3.726517     -4.374236     -4.871668
  H       4.068151     -3.773261     -6.526484
  H       2.566630     -3.273526     -5.673031
  H       6.434696     -3.258042     -3.708622
  H       6.924234     -1.573058     -4.064726
  H       6.875160     -2.788295     -5.380584
  H       3.440821     -0.276410     -6.293120
  H       4.994779     -0.820554     -7.000718
  H       4.987380      0.350650     -5.645560
  H      -0.358896     -3.044017     -4.367524
  H       3.601033     -0.296151      0.634019
71
Coordinates from ORCA-job my_molecule E -2465.739344098749
  Pt      2.344259     -1.949575     -0.555391
  O       1.095310     -0.929289      1.158360
  O       0.585882     -0.655733     -2.051012
  P       1.660567      0.497188      1.052348
  P      -0.425985     -1.628195     -2.613700
  O      -1.072159     -2.576158     -1.447593
  O       0.272308     -2.640968     -3.703978
  O       1.111803      1.287390     -0.272446
  O       3.291060      0.542883      1.007069
  C       1.208969      1.607934      2.450735
  C      -1.854036     -0.804549     -3.462960
  C      -2.815051     -1.870647     -4.021136
  C      -1.285016      0.078999     -4.591476
  C      -2.566321      0.055548     -2.398808
  C      -0.330252      1.674917      2.501318
  C       1.768275      0.982131      3.744926
  C       1.815625      3.002744      2.204578
  H      -1.080113     -3.525539     -1.670262
  H       0.782492      0.617052     -0.929224
  H      -2.349286     -2.492551     -4.817078
  H      -3.690321     -1.375620     -4.490414
  H      -3.195123     -2.540489     -3.223982
  H      -0.752080     -0.520645     -5.356794
  H      -0.572997      0.826424     -4.191003
  H      -2.113016      0.619562     -5.095760
  H      -2.950278     -0.565499     -1.565467
  H      -3.425094      0.584516     -2.862138
  H      -1.881425      0.815501     -1.973546
  H      -0.770781      0.666368      2.633543
  H      -0.741792      2.114206      1.571365
  H      -0.646507      2.308196      3.356395
  H       1.347954     -0.028812      3.917165
  H       1.500203      1.621166      4.612615
  H       2.871895      0.895197      3.706396
  H       1.441995      3.444850      1.260251
  H       2.921221      2.958535      2.152584
  H       1.534573      3.678715      3.039628
  Si      3.502951     -3.404931      0.805162
  C       3.706070     -5.149074      0.050138
  C       5.252587     -2.776411      1.250614
  C       2.535056     -3.630198      2.433241
  H       4.365372     -5.163188     -0.840498
  H       2.725084     -5.574908     -0.244725
  H       4.152733     -5.823493      0.812794
  H       5.217120     -1.785426      1.748777
  H       5.887120     -2.677634      0.345736
  H       5.755986     -3.486261      1.942244
  H       2.363062     -2.655806      2.931427
  H       3.090807     -4.295444      3.128951
  H       1.540214     -4.079738      2.238388
  H       4.256269     -0.593845     -2.725218
  C       3.522123     -2.566289     -2.103704
  C       3.683680     -1.448913     -3.149393
  H       4.528333     -2.898325     -1.764423
  H       3.028934     -3.458935     -2.556189
  Si      4.556558     -1.983665     -4.761473
  H       2.695863     -1.032083     -3.441827
  C       3.650477     -3.471824     -5.525043
  C       6.363291     -2.458399     -4.415442
  C       4.517190     -0.536602     -5.996001
  H       3.719848     -4.362664     -4.867514
  H       4.075953     -3.744435     -6.513175
  H       2.573051     -3.242677     -5.662417
  H       6.425051     -3.281819     -3.674088
  H       6.930872     -1.596607     -4.006693
  H       6.880138     -2.795554     -5.338148
  H       3.474266     -0.247041     -6.242526
  H       5.028219     -0.797650     -6.946408
  H       5.022226      0.359245     -5.578417
  H      -0.368553     -3.018478     -4.338284
  H       3.509496     -0.292958      0.463726
71
Coordinates from ORCA-job my_molecule E -2465.740952065599
  Pt      2.343517     -1.948788     -0.569518
  O       1.077731     -0.935644      1.133217
  O       0.605856     -0.632454     -2.071455
  P       1.623865      0.498515      1.040580
  P      -0.420523     -1.605710     -2.604804
  O      -1.063441     -2.533155     -1.422293
  O       0.255397     -2.646160     -3.679553
  O       1.048464      1.294046     -0.265294
  O       3.253245      0.563906      0.994381
  C       1.168361      1.585077      2.457619
  C      -1.846768     -0.785387     -3.456830
  C      -2.817620     -1.853088     -3.995388
  C      -1.275970      0.078910     -4.598570
  C      -2.547550      0.091837     -2.398561
  C      -0.371016      1.631111      2.523300
  C       1.749522      0.952507      3.738392
  C       1.752147      2.991553      2.222598
  H      -0.985213     -3.491762     -1.587787
  H       0.809508      0.625250     -0.968185
  H      -2.359982     -2.485432     -4.787695
  H      -3.694073     -1.358840     -4.463284
  H      -3.193215     -2.512328     -3.187546
  H      -0.751235     -0.534485     -5.358746
  H      -0.556768      0.826791     -4.211966
  H      -2.103247      0.617415     -5.105803
  H      -2.933476     -0.516929     -1.557115
  H      -3.403584      0.621541     -2.865639
  H      -1.855839      0.851431     -1.983961
  H      -0.796787      0.615417      2.648353
  H      -0.796602      2.075015      1.602059
  H      -0.686702      2.250245      3.388974
  H       1.346621     -0.066731      3.903212
  H       1.478975      1.577917      4.615163
  H       2.853900      0.883017      3.689002
  H       1.362184      3.439047      1.287472
  H       2.857659      2.963891      2.158615
  H       1.469802      3.652436      3.069294
  Si      3.520928     -3.389154      0.799625
  C       3.704639     -5.142546      0.061384
  C       5.278782     -2.755135      1.200948
  C       2.583879     -3.589683      2.448873
  H       4.347028     -5.169078     -0.841228
  H       2.716985     -5.569012     -0.209570
  H       4.164002     -5.809164      0.823312
  H       5.251652     -1.758253      1.687754
  H       5.896160     -2.666773      0.283222
  H       5.795467     -3.456407      1.891652
  H       2.424215     -2.608310      2.937408
  H       3.151500     -4.247254      3.142246
  H       1.583972     -4.038562      2.280256
  H       4.267591     -0.601464     -2.741303
  C       3.524884     -2.567955     -2.111678
  C       3.692666     -1.456264     -3.162966
  H       4.529772     -2.899540     -1.769090
  H       3.032934     -3.462034     -2.562131
  Si      4.566588     -2.003932     -4.769972
  H       2.707735     -1.036610     -3.461618
  C       3.622374     -3.458229     -5.553286
  C       6.354315     -2.536011     -4.408706
  C       4.583712     -0.546959     -5.993531
  H       3.661267     -4.356847     -4.903929
  H       4.045785     -3.734339     -6.541333
  H       2.553059     -3.196016     -5.695296
  H       6.382984     -3.366544     -3.673318
  H       6.943557     -1.695021     -3.987473
  H       6.870378     -2.881805     -5.328645
  H       3.553000     -0.223540     -6.249207
  H       5.096606     -0.816757     -6.940514
  H       5.111584      0.329895     -5.564070
  H      -0.395726     -3.022326     -4.304772
  H       3.482793     -0.244636      0.419415
71
Coordinates from ORCA-job my_molecule E -2465.743462176139
  Pt      2.368850     -1.949998     -0.593712
  O       1.099371     -0.957021      1.097029
  O       0.661866     -0.593301     -2.116701
  P       1.565255      0.507319      1.012251
  P      -0.394599     -1.565568     -2.594578
  O      -1.039510     -2.451060     -1.386560
  O       0.256191     -2.639557     -3.644250
  O       0.943369      1.297855     -0.260748
  O       3.193504      0.646557      0.968781
  C       1.087948      1.549520      2.453852
  C      -1.823480     -0.738610     -3.429680
  C      -2.814670     -1.802220     -3.940420
  C      -1.263617      0.107564     -4.588826
  C      -2.496946      0.157673     -2.367579
  C      -0.450835      1.524386      2.555042
  C       1.723315      0.928340      3.713493
  C       1.601745      2.985332      2.231782
  H      -0.809461     -3.399755     -1.433855
  H       0.802747      0.645922     -1.022334
  H      -2.378843     -2.442655     -4.738345
  H      -3.697128     -1.303923     -4.392353
  H      -3.175048     -2.454037     -3.120218
  H      -0.757880     -0.519193     -5.351497
  H      -0.531379      0.853953     -4.223270
  H      -2.093371      0.648712     -5.087569
  H      -2.882953     -0.440955     -1.518634
  H      -3.350487      0.696820     -2.827670
  H      -1.791507      0.910338     -1.963169
  H      -0.826738      0.488782      2.673107
  H      -0.919931      1.962000      1.651724
  H      -0.774660      2.113827      3.438580
  H       1.372013     -0.111194      3.869270
  H       1.441765      1.526326      4.605260
  H       2.828275      0.912391      3.639669
  H       1.170242      3.430943      1.314004
  H       2.705458      3.009408      2.141683
  H       1.310781      3.618485      3.096964
  Si      3.546084     -3.375449      0.787378
  C       3.694558     -5.142388      0.075257
  C       5.316147     -2.750049      1.144303
  C       2.640815     -3.530360      2.459173
  H       4.311541     -5.183233     -0.844504
  H       2.696482     -5.563190     -0.164957
  H       4.168688     -5.803312      0.832452
  H       5.300088     -1.746837      1.617288
  H       5.918171     -2.677373      0.215240
  H       5.840759     -3.443244      1.837007
  H       2.511155     -2.537648      2.933419
  H       3.212263     -4.185654      3.151425
  H       1.628909     -3.962623      2.322220
  H       4.307542     -0.627531     -2.769349
  C       3.541028     -2.582582     -2.132692
  C       3.723601     -1.477510     -3.188758
  H       4.541988     -2.924907     -1.789813
  H       3.043464     -3.475465     -2.578755
  Si      4.590068     -2.047388     -4.791618
  H       2.744510     -1.047189     -3.491746
  C       3.597584     -3.464360     -5.583162
  C       6.355347     -2.642658     -4.423619
  C       4.665759     -0.589196     -6.010941
  H       3.601845     -4.366098     -4.936989
  H       4.012844     -3.752050     -6.571365
  H       2.538827     -3.163222     -5.728227
  H       6.350066     -3.477349     -3.692416
  H       6.970240     -1.824458     -3.993957
  H       6.864790     -3.000789     -5.342385
  H       3.648848     -0.227277     -6.270769
  H       5.173246     -0.875270     -6.956056
  H       5.223569      0.266359     -5.576168
  H      -0.406532     -3.016432     -4.257587
  H       3.470266     -0.132954      0.394848
71
Coordinates from ORCA-job my_molecule E -2465.746865128771
  Pt      2.393952     -1.946755     -0.622365
  O       1.116830     -0.987584      1.057168
  O       0.734767     -0.524900     -2.185250
  P       1.490262      0.503750      0.980129
  P      -0.360374     -1.498883     -2.579238
  O      -1.010976     -2.327292     -1.339968
  O       0.254196     -2.627447     -3.585757
  O       0.812070      1.278012     -0.257349
  O       3.112673      0.720150      0.932887
  C       0.993078      1.495170      2.448746
  C      -1.796309     -0.679394     -3.397389
  C      -2.806903     -1.744447     -3.868329
  C      -1.254889      0.140587     -4.582510
  C      -2.443042      0.241287     -2.336643
  C      -0.540417      1.392766      2.590359
  C       1.685663      0.890387      3.685543
  C       1.428175      2.960013      2.243936
  H      -0.594458     -3.203402     -1.209378
  H       0.788995      0.665837     -1.079458
  H      -2.394045     -2.396032     -4.669302
  H      -3.698155     -1.246393     -4.302699
  H      -3.145481     -2.385058     -3.030742
  H      -0.769932     -0.504490     -5.343809
  H      -0.510751      0.890284     -4.248749
  H      -2.091099      0.677540     -5.074089
  H      -2.827284     -0.342624     -1.476618
  H      -3.295180      0.784298     -2.794198
  H      -1.726375      0.991173     -1.946754
  H      -0.861592      0.338176      2.700289
  H      -1.058728      1.821538      1.709647
  H      -0.868582      1.949769      3.493225
  H       1.392736     -0.168596      3.831024
  H       1.391854      1.458438      4.592348
  H       2.787914      0.934010      3.588011
  H       0.952236      3.401097      1.346023
  H       2.526574      3.041551      2.126250
  H       1.129510      3.561024      3.129229
  Si      3.575116     -3.352741      0.774539
  C       3.688443     -5.133132      0.092316
  C       5.354181     -2.730042      1.077082
  C       2.710411     -3.459834      2.470931
  H       4.273194     -5.188586     -0.847512
  H       2.680237     -5.549942     -0.109515
  H       4.183498     -5.786851      0.841984
  H       5.344613     -1.719422      1.533896
  H       5.938798     -2.671770      0.136340
  H       5.889907     -3.412029      1.772257
  H       2.613360     -2.455741      2.928510
  H       3.289571     -4.112126      3.159556
  H       1.686959     -3.874738      2.372574
  H       4.357099     -0.654763     -2.810944
  C       3.562362     -2.593956     -2.162391
  C       3.763070     -1.499597     -3.226752
  H       4.558238     -2.948725     -1.817574
  H       3.058995     -3.487024     -2.602229
  Si      4.621293     -2.100120     -4.821327
  H       2.791126     -1.057562     -3.536636
  C       3.572553     -3.470214     -5.621728
  C       6.354209     -2.772739     -4.439851
  C       4.772598     -0.646783     -6.038054
  H       3.532117     -4.372205     -4.977187
  H       3.979877     -3.774441     -6.608309
  H       2.529516     -3.121283     -5.774039
  H       6.304570     -3.608982     -3.712223
  H       6.999266     -1.983350     -4.000519
  H       6.855957     -3.148415     -5.355721
  H       3.775665     -0.237969     -6.305596
  H       5.274034     -0.956390     -6.978971
  H       5.366334      0.181303     -5.597629
  H      -0.430150     -3.020051     -4.165214
  H       3.440277     -0.029620      0.360421
71
Coordinates from ORCA-job my_molecule E -2465.750198820496
  Pt      2.421988     -1.937160     -0.659705
  O       1.141402     -1.018165      1.010307
  O       0.819999     -0.439003     -2.279214
  P       1.419984      0.494833      0.941419
  P      -0.311369     -1.420065     -2.565966
  O      -0.952795     -2.186422     -1.288606
  O       0.266548     -2.600380     -3.528773
  O       0.702245      1.245932     -0.271814
  O       3.033211      0.784268      0.897602
  C       0.898267      1.437092      2.431294
  C      -1.772576     -0.623226     -3.346488
  C      -2.798968     -1.696976     -3.764048
  C      -1.273474      0.173776     -4.564448
  C      -2.388898      0.317351     -2.281788
  C      -0.627182      1.264096      2.600316
  C       1.632877      0.848952      3.651641
  C       1.262376      2.925218      2.248942
  H      -0.378172     -2.919922     -0.979624
  H       0.776055      0.682365     -1.139725
  H      -2.413433     -2.357242     -4.571400
  H      -3.706697     -1.205177     -4.170236
  H      -3.101042     -2.328041     -2.905959
  H      -0.812719     -0.486249     -5.328267
  H      -0.521601      0.933542     -4.273752
  H      -2.127330      0.697982     -5.038795
  H      -2.756017     -0.254391     -1.406374
  H      -3.249570      0.855620     -2.728595
  H      -1.664552      1.071403     -1.914709
  H      -0.898971      0.194601      2.699119
  H      -1.186333      1.683620      1.739933
  H      -0.961989      1.790713      3.518755
  H       1.393167     -0.225126      3.784028
  H       1.322578      1.388254      4.570003
  H       2.730356      0.947259      3.541836
  H       0.752671      3.361717      1.367320
  H       2.353748      3.058823      2.113862
  H       0.953681      3.495230      3.150931
  Si      3.593680     -3.330625      0.755713
  C       3.668349     -5.122188      0.101467
  C       5.379687     -2.716772      1.013984
  C       2.763484     -3.389677      2.470669
  H       4.223915     -5.191055     -0.854974
  H       2.650324     -5.529360     -0.067551
  H       4.178032     -5.773922      0.842808
  H       5.374274     -1.699501      1.455962
  H       5.953495     -2.672222      0.066438
  H       5.919730     -3.389804      1.714348
  H       2.702407     -2.375421      2.911517
  H       3.345259     -4.043083      3.155985
  H       1.728426     -3.781517      2.407150
  H       4.417371     -0.680600     -2.853852
  C       3.587791     -2.601634     -2.198157
  C       3.813035     -1.518422     -3.268949
  H       4.575643     -2.973512     -1.847773
  H       3.076905     -3.493415     -2.633088
  Si      4.665035     -2.150772     -4.852279
  H       2.850079     -1.062652     -3.587591
  C       3.567233     -3.476558     -5.659554
  C       6.363657     -2.893522     -4.454585
  C       4.888777     -0.708921     -6.069403
  H       3.483729     -4.375125     -5.014393
  H       3.968480     -3.798464     -6.643065
  H       2.541379     -3.083879     -5.821782
  H       6.271452     -3.727972     -3.729244
  H       7.034718     -2.131109     -4.006607
  H       6.858549     -3.286822     -5.366666
  H       3.912942     -0.257745     -6.346133
  H       5.384532     -1.043751     -7.004650
  H       5.514769      0.092701     -5.624684
  H      -0.445519     -3.024387     -4.050179
  H       3.415124      0.060325      0.334795
71
Coordinates from ORCA-job my_molecule E -2465.753077062111
  Pt      2.430773     -1.931182     -0.686317
  O       1.140598     -1.034111      0.971258
  O       0.868868     -0.373239     -2.353136
  P       1.391807      0.485337      0.903578
  P      -0.265843     -1.380178     -2.569857
  O      -0.857605     -2.139555     -1.267559
  O       0.297220     -2.563081     -3.537921
  O       0.691397      1.223719     -0.321969
  O       3.003447      0.784789      0.880126
  C       0.851114      1.418759      2.390844
  C      -1.774097     -0.616376     -3.283882
  C      -2.794106     -1.709497     -3.667757
  C      -1.342250      0.195871     -4.517784
  C      -2.374154      0.306281     -2.192856
  C      -0.674146      1.233733      2.553341
  C       1.580907      0.835926      3.616761
  C       1.202215      2.911858      2.215610
  H      -0.165249     -2.710872     -0.858299
  H       0.825425      0.680842     -1.202341
  H      -2.425954     -2.353700     -4.495928
  H      -3.727647     -1.233246     -4.031541
  H      -3.045591     -2.354294     -2.803645
  H      -0.896041     -0.451628     -5.300709
  H      -0.598610      0.973645     -4.256092
  H      -2.227032      0.699364     -4.957328
  H      -2.701887     -0.278814     -1.311146
  H      -3.259179      0.827798     -2.611445
  H      -1.656957      1.074145     -1.841241
  H      -0.938800      0.162064      2.650136
  H      -1.236347      1.651148      1.693740
  H      -1.016184      1.756723      3.470967
  H       1.351967     -0.240880      3.746143
  H       1.255531      1.370873      4.532351
  H       2.678281      0.946235      3.517746
  H       0.693672      3.346683      1.332396
  H       2.292988      3.055826      2.085755
  H       0.884255      3.475599      3.117879
  Si      3.582317     -3.326340      0.743055
  C       3.620628     -5.121909      0.101053
  C       5.373431     -2.727305      0.978324
  C       2.771652     -3.354398      2.466780
  H       4.159297     -5.199501     -0.864373
  H       2.594289     -5.514275     -0.050511
  H       4.132977     -5.779347      0.835645
  H       5.373114     -1.706574      1.412999
  H       5.944405     -2.691785      0.029193
  H       5.909708     -3.398993      1.682753
  H       2.739277     -2.335056      2.898813
  H       3.350752     -4.013911      3.148461
  H       1.727992     -3.725135      2.423622
  H       4.476534     -0.696611     -2.856750
  C       3.606771     -2.604749     -2.219940
  C       3.860416     -1.520320     -3.282422
  H       4.583670     -2.995714     -1.859289
  H       3.090100     -3.489352     -2.662018
  Si      4.706673     -2.161735     -4.863036
  H       2.907450     -1.044317     -3.602907
  C       3.566916     -3.433104     -5.697574
  C       6.370278     -2.974562     -4.458262
  C       4.999149     -0.715781     -6.058732
  H       3.443838     -4.336575     -5.065772
  H       3.964123     -3.756165     -6.682389
  H       2.558545     -2.998938     -5.863044
  H       6.237776     -3.815865     -3.747386
  H       7.064197     -2.244764     -3.991236
  H       6.859340     -3.371689     -5.371797
  H       4.044895     -0.222866     -6.338889
  H       5.490492     -1.060546     -6.992659
  H       5.652575      0.054006     -5.597625
  H      -0.433622     -3.018742     -4.003535
  H       3.411468      0.060071      0.334267
71
Coordinates from ORCA-job my_molecule E -2465.756443056423
  Pt      2.424518     -1.914816     -0.714985
  O       1.113110     -1.018946      0.934822
  O       0.892567     -0.314156     -2.421357
  P       1.395195      0.496150      0.870104
  P      -0.214703     -1.364241     -2.591721
  O      -0.707442     -2.145072     -1.261716
  O       0.337692     -2.519030     -3.605773
  O       0.707591      1.240909     -0.368971
  O       3.009571      0.750256      0.824837
  C       0.867211      1.441989      2.355634
  C      -1.794508     -0.666450     -3.222673
  C      -2.785234     -1.799123     -3.564377
  C      -1.456501      0.166865     -4.473939
  C      -2.385351      0.227043     -2.104821
  C      -0.660919      1.285897      2.510007
  C       1.583893      0.841144      3.581135
  C       1.246724      2.928111      2.178205
  H       0.080872     -2.577856     -0.832815
  H       0.825550      0.689670     -1.238331
  H      -2.428968     -2.423071     -4.413138
  H      -3.753328     -1.358808     -3.880008
  H      -2.970254     -2.457462     -2.693132
  H      -1.019130     -0.459346     -5.278305
  H      -0.735777      0.974988     -4.244451
  H      -2.384129      0.629593     -4.870383
  H      -2.649931     -0.371920     -1.212314
  H      -3.308112      0.710684     -2.487725
  H      -1.686350      1.023482     -1.782337
  H      -0.948048      0.219585      2.607591
  H      -1.210921      1.714274      1.648185
  H      -0.995714      1.818693      3.424274
  H       1.335611     -0.231196      3.710275
  H       1.262962      1.383308      4.494651
  H       2.683717      0.931255      3.488584
  H       0.749027      3.370613      1.292722
  H       2.340513      3.051573      2.051260
  H       0.935502      3.498047      3.078212
  Si      3.519951     -3.334880      0.734761
  C       3.522614     -5.125990      0.082605
  C       5.316080     -2.766603      0.998268
  C       2.686203     -3.349288      2.446319
  H       4.070095     -5.208311     -0.877518
  H       2.489161     -5.492797     -0.082204
  H       4.011876     -5.801401      0.817339
  H       5.323752     -1.746566      1.436366
  H       5.905970     -2.737021      0.061037
  H       5.827016     -3.449259      1.711109
  H       2.673245     -2.330853      2.882013
  H       3.243366     -4.024433      3.130894
  H       1.635192     -3.696590      2.390882
  H       4.525670     -0.692591     -2.838849
  C       3.618088     -2.593854     -2.238309
  C       3.901599     -1.500516     -3.282448
  H       4.582358     -3.001724     -1.862397
  H       3.096957     -3.466687     -2.696558
  Si      4.753379     -2.132733     -4.863710
  H       2.958850     -1.005143     -3.604371
  C       3.592163     -3.355214     -5.741303
  C       6.388918     -3.000671     -4.452018
  C       5.103077     -0.670509     -6.024087
  H       3.437243     -4.269068     -5.131775
  H       3.995128     -3.667164     -6.727395
  H       2.597710     -2.891698     -5.909677
  H       6.224223     -3.854523     -3.763176
  H       7.096038     -2.301261     -3.959106
  H       6.880100     -3.390502     -5.367669
  H       4.167135     -0.145637     -6.306997
  H       5.597642     -1.010617     -6.957959
  H       5.771313      0.070916     -5.538555
  H      -0.402167     -3.014835     -4.010623
  H       3.397756     -0.010893      0.292588
71
Coordinates from ORCA-job my_molecule E -2465.760573549802
  Pt      2.416784     -1.904463     -0.710380
  O       1.104455     -0.946568      0.931774
  O       0.840412     -0.310764     -2.406657
  P       1.482650      0.550891      0.870963
  P      -0.200365     -1.410265     -2.634799
  O      -0.592112     -2.274536     -1.320416
  O       0.392663     -2.463422     -3.742667
  O       0.823092      1.330734     -0.385648
  O       3.105221      0.713536      0.801891
  C       0.979865      1.533498      2.343437
  C      -1.843305     -0.803551     -3.236258
  C      -2.742119     -1.994294     -3.621732
  C      -1.570658      0.101401     -4.457157
  C      -2.496213      0.002828     -2.094278
  C      -0.554554      1.453024      2.458932
  C       1.650531      0.893663      3.576098
  C       1.441234      2.992926      2.157522
  H       0.266044     -2.491781     -0.829238
  H       0.890923      0.771059     -1.232877
  H      -2.340847     -2.559445     -4.491377
  H      -3.741228     -1.617826     -3.923857
  H      -2.880388     -2.694444     -2.773947
  H      -1.084121     -0.457714     -5.281967
  H      -0.913107      0.950994     -4.190598
  H      -2.531850      0.504493     -4.840088
  H      -2.718501     -0.641787     -1.222745
  H      -3.449190      0.436805     -2.464012
  H      -1.848681      0.831954     -1.747917
  H      -0.898449      0.403307      2.553637
  H      -1.054163      1.903412      1.578609
  H      -0.883429      2.009177      3.361459
  H       1.344104     -0.163417      3.702938
  H       1.345625      1.454962      4.484310
  H       2.754919      0.925398      3.500086
  H       0.979660      3.452610      1.261788
  H       2.541875      3.057750      2.048366
  H       1.143885      3.586281      3.047143
  Si      3.438999     -3.375650      0.756824
  C       3.390019     -5.154813      0.075264
  C       5.249762     -2.869828      1.072191
  C       2.564907     -3.379728      2.447687
  H       3.947246     -5.239543     -0.879538
  H       2.347241     -5.484129     -0.108446
  H       3.847763     -5.857744      0.804640
  H       5.288650     -1.858029      1.527990
  H       5.859523     -2.848612      0.147162
  H       5.724237     -3.580066      1.783420
  H       2.580775     -2.369154      2.901668
  H       3.080248     -4.085794      3.133662
  H       1.503607     -3.686649      2.359880
  H       4.548126     -0.683102     -2.756160
  C       3.604256     -2.585563     -2.217213
  C       3.907014     -1.464407     -3.222501
  H       4.558370     -3.012452     -1.835243
  H       3.071768     -3.435740     -2.700225
  Si      4.745005     -2.050481     -4.832710
  H       2.972564     -0.940281     -3.520948
  C       3.565319     -3.222655     -5.756310
  C       6.372988     -2.957966     -4.460112
  C       5.110361     -0.544174     -5.933808
  H       3.400665     -4.159163     -5.184663
  H       3.963099     -3.500315     -6.754576
  H       2.575187     -2.742474     -5.900618
  H       6.202180     -3.839528     -3.808234
  H       7.092415     -2.290629     -3.941105
  H       6.857602     -3.316364     -5.392106
  H       4.180433      0.004237     -6.190519
  H       5.595753     -0.850628     -6.883966
  H       5.790680      0.168939     -5.423310
  H      -0.315706     -3.014816     -4.129896
  H       3.422490     -0.095403      0.286181
71
Coordinates from ORCA-job my_molecule E -2465.762980237973
  Pt      2.457700     -1.893162     -0.704818
  O       1.179414     -0.876488      0.941021
  O       0.861783     -0.288959     -2.423839
  P       1.520748      0.630243      0.843344
  P      -0.125170     -1.415354     -2.717065
  O      -0.408458     -2.437808     -1.494889
  O       0.499137     -2.283620     -3.961784
  O       0.785368      1.366829     -0.399191
  O       3.133736      0.842406      0.701902
  C       1.021445      1.610466      2.317312
  C      -1.831257     -0.883169     -3.209836
  C      -2.649839     -2.100565     -3.682327
  C      -1.669795      0.147368     -4.348232
  C      -2.497945     -0.231945     -1.982080
  C      -0.507242      1.484376      2.464738
  C       1.737331      1.000929      3.539845
  C       1.439365      3.078870      2.108730
  H       0.472263     -2.520255     -0.975572
  H       0.757920      0.767451     -1.218024
  H      -2.237769     -2.551360     -4.611028
  H      -3.684147     -1.777335     -3.921906
  H      -2.710848     -2.884394     -2.900896
  H      -1.169047     -0.295272     -5.233099
  H      -1.068662      1.017217     -4.018768
  H      -2.669329      0.509404     -4.666363
  H      -2.646642     -0.966161     -1.167106
  H      -3.488486      0.170812     -2.280308
  H      -1.891281      0.604039     -1.580060
  H      -0.817434      0.426022      2.573735
  H      -1.037109      1.912999      1.591192
  H      -0.835166      2.037601      3.369662
  H       1.463018     -0.063272      3.680392
  H       1.438769      1.559963      4.451166
  H       2.838315      1.063903      3.437632
  H       0.946422      3.518392      1.219671
  H       2.535350      3.172263      1.976115
  H       1.145293      3.673511      2.999072
  Si      3.370722     -3.402737      0.790705
  C       3.264904     -5.171607      0.092911
  C       5.191074     -2.971791      1.164085
  C       2.442773     -3.367348      2.451539
  H       3.825491     -5.260002     -0.859927
  H       2.212623     -5.460232     -0.104677
  H       3.692312     -5.899541      0.815461
  H       5.259214     -1.964670      1.625775
  H       5.827331     -2.973446      0.256632
  H       5.615652     -3.702662      1.885641
  H       2.499892     -2.362510      2.914589
  H       2.898609     -4.104336      3.147054
  H       1.370153     -3.616923      2.327454
  H       4.659006     -0.744818     -2.692655
  C       3.617221     -2.612348     -2.212914
  C       3.968454     -1.471850     -3.176304
  H       4.545370     -3.095134     -1.832671
  H       3.040997     -3.419293     -2.720061
  Si      4.749735     -2.033150     -4.825188
  H       3.056557     -0.888485     -3.437161
  C       3.508082     -3.125453     -5.763879
  C       6.349872     -3.013888     -4.520143
  C       5.149766     -0.500932     -5.877112
  H       3.319903     -4.075663     -5.222773
  H       3.875662     -3.380956     -6.779440
  H       2.533631     -2.604681     -5.867500
  H       6.160331     -3.914639     -3.900295
  H       7.103907     -2.394693     -3.990596
  H       6.802890     -3.352381     -5.475173
  H       4.235565      0.091483     -6.088895
  H       5.600363     -0.788735     -6.849937
  H       5.869061      0.165858     -5.357438
  H      -0.150121     -2.920650     -4.319703
  H       3.449455      0.015988      0.218959
71
Coordinates from ORCA-job my_molecule E -2465.764355026415
  Pt      2.461342     -1.912124     -0.677149
  O       1.206215     -0.828955      0.959205
  O       0.807953     -0.341652     -2.369495
  P       1.573052      0.666616      0.825494
  P      -0.134799     -1.471521     -2.771998
  O      -0.342187     -2.632862     -1.663081
  O       0.521317     -2.150603     -4.118293
  O       0.848943      1.387331     -0.436554
  O       3.187802      0.872619      0.663730
  C       1.093885      1.693113      2.274152
  C      -1.865800     -0.958086     -3.194278
  C      -2.644232     -2.160627     -3.761870
  C      -1.762337      0.175201     -4.237331
  C      -2.526415     -0.442310     -1.901332
  C      -0.438001      1.603421      2.416473
  C       1.792356      1.098942      3.514493
  C       1.546332      3.145740      2.030363
  H       0.562406     -2.734565     -1.170062
  H       0.771939      0.751650     -1.218211
  H      -2.231460     -2.511918     -4.731674
  H      -3.694451     -1.859999     -3.959222
  H      -2.664710     -3.012107     -3.052296
  H      -1.254395     -0.165754     -5.161892
  H      -1.192368      1.035637     -3.835373
  H      -2.778989      0.524686     -4.511818
  H      -2.632979     -1.249871     -1.151153
  H      -3.534561     -0.042447     -2.136871
  H      -1.931080      0.372784     -1.442071
  H      -0.770856      0.554692      2.548106
  H      -0.949984      2.021924      1.527945
  H      -0.758906      2.184525      3.306315
  H       1.490598      0.045681      3.680758
  H       1.508219      1.687041      4.411844
  H       2.894900      1.132377      3.412683
  H       1.067146      3.573073      1.127967
  H       2.644804      3.211361      1.902648
  H       1.261433      3.770387      2.903215
  Si      3.316681     -3.447838      0.820458
  C       3.206148     -5.205363      0.096193
  C       5.135663     -3.049739      1.237116
  C       2.341804     -3.414883      2.453420
  H       3.777344     -5.287166     -0.850637
  H       2.153750     -5.481614     -0.117812
  H       3.618288     -5.945738      0.814870
  H       5.217668     -2.050076      1.711792
  H       5.785541     -3.054753      0.338871
  H       5.535285     -3.797467      1.955618
  H       2.406926     -2.419608      2.935022
  H       2.760062     -4.173359      3.149823
  H       1.268612     -3.638707      2.291529
  H       4.668827     -0.760312     -2.632483
  C       3.611454     -2.632404     -2.195813
  C       3.969441     -1.469319     -3.130011
  H       4.531866     -3.135566     -1.824354
  H       3.012066     -3.411527     -2.723301
  Si      4.747126     -1.988574     -4.796064
  H       3.059652     -0.876697     -3.377758
  C       3.516723     -3.072086     -5.757443
  C       6.357668     -2.958825     -4.513809
  C       5.128119     -0.426548     -5.809599
  H       3.342944     -4.037837     -5.239281
  H       3.886483     -3.297931     -6.779232
  H       2.535876     -2.561141     -5.843173
  H       6.179262     -3.876005     -3.915157
  H       7.106204     -2.344353     -3.971303
  H       6.812649     -3.270255     -5.477160
  H       4.206247      0.160518     -6.002078
  H       5.577359     -0.684537     -6.791408
  H       5.842226      0.234942     -5.276290
  H      -0.032569     -2.875376     -4.469031
  H       3.488682      0.020462      0.219816
71
Coordinates from ORCA-job my_molecule E -2465.764584222833
  Pt      2.486226     -1.938490     -0.709545
  O       1.230585     -0.826453      0.886414
  O       0.831975     -0.384077     -2.379363
  P       1.497018      0.681228      0.747344
  P      -0.140729     -1.488176     -2.782688
  O      -0.297861     -2.702867     -1.731613
  O       0.466224     -2.088056     -4.182059
  O       0.745184      1.381135     -0.483097
  O       3.106815      1.001273      0.612652
  C       1.002666      1.685975      2.208322
  C      -1.865642     -0.899119     -3.080834
  C      -2.716920     -2.063509     -3.623968
  C      -1.788859      0.257750     -4.093904
  C      -2.404883     -0.401337     -1.722044
  C      -0.523952      1.540219      2.377773
  C       1.741610      1.121612      3.437593
  C       1.395686      3.156567      1.963995
  H       0.536129     -2.686073     -1.110420
  H       0.776208      0.777476     -1.319119
  H      -2.381025     -2.397868     -4.627677
  H      -3.769665     -1.730445     -3.741008
  H      -2.709721     -2.933345     -2.938115
  H      -1.346543     -0.070766     -5.055987
  H      -1.172782      1.091978     -3.703926
  H      -2.807976      0.644516     -4.295183
  H      -2.492133     -1.229890     -0.991178
  H      -3.407337      0.052308     -1.859582
  H      -1.739004      0.370289     -1.283814
  H      -0.812327      0.479258      2.511282
  H      -1.063869      1.938669      1.496873
  H      -0.851377      2.102954      3.277380
  H       1.477996      0.058425      3.607128
  H       1.456239      1.697500      4.341625
  H       2.839981      1.193597      3.312641
  H       0.886393      3.568170      1.070408
  H       2.488624      3.265322      1.821358
  H       1.101642      3.768182      2.843828
  Si      3.318415     -3.477776      0.792586
  C       3.207240     -5.236796      0.068940
  C       5.142998     -3.091007      1.198015
  C       2.333988     -3.428449      2.419570
  H       3.768326     -5.318810     -0.882707
  H       2.152956     -5.515061     -0.134643
  H       3.627122     -5.976005      0.783595
  H       5.238206     -2.093176      1.672036
  H       5.781772     -3.102473      0.291345
  H       5.546118     -3.841917      1.911366
  H       2.415831     -2.437109      2.905796
  H       2.730583     -4.198232      3.116774
  H       1.257587     -3.627643      2.248241
  H       4.673860     -0.777667     -2.667983
  C       3.633407     -2.664790     -2.230708
  C       3.993679     -1.501099     -3.171603
  H       4.553592     -3.167805     -1.864122
  H       3.022008     -3.433529     -2.765911
  Si      4.822158     -2.029110     -4.812977
  H       3.083281     -0.930056     -3.461436
  C       3.626327     -3.122670     -5.804381
  C       6.424566     -2.989064     -4.469769
  C       5.229263     -0.470595     -5.820766
  H       3.443396     -4.087715     -5.287696
  H       4.026892     -3.350503     -6.814063
  H       2.647256     -2.614802     -5.919234
  H       6.228137     -3.903213     -3.872351
  H       7.150954     -2.368202     -3.904979
  H       6.914202     -3.303409     -5.414997
  H       4.311852      0.113379     -6.042699
  H       5.707735     -0.730159     -6.788372
  H       5.925615      0.194935     -5.269290
  H       0.010284     -2.907408     -4.461960
  H       3.480006      0.197724      0.187590
71
Coordinates from ORCA-job my_molecule E -2465.765714723664
  Pt      2.463182     -1.899281     -0.736973
  O       1.211321     -0.787679      0.864558
  O       0.842965     -0.300567     -2.424877
  P       1.517822      0.714135      0.734959
  P      -0.091391     -1.442257     -2.824036
  O      -0.125293     -2.711076     -1.828176
  O       0.466800     -1.964122     -4.279171
  O       0.796845      1.429156     -0.511381
  O       3.136401      0.973760      0.599223
  C       1.034280      1.723664      2.197313
  C      -1.862710     -0.960750     -3.024614
  C      -2.668488     -2.166047     -3.545240
  C      -1.908535      0.211760     -4.023234
  C      -2.368487     -0.519145     -1.633784
  C      -0.497461      1.621637      2.348591
  C       1.740873      1.127765      3.431394
  C       1.470772      3.184958      1.968283
  H       0.781636     -2.702152     -1.313705
  H       0.797238      0.806082     -1.327012
  H      -2.356264     -2.467716     -4.566867
  H      -3.742679     -1.892763     -3.609188
  H      -2.580372     -3.041434     -2.871754
  H      -1.492147     -0.076615     -5.009097
  H      -1.330330      1.079907     -3.651464
  H      -2.960479      0.532239     -4.171417
  H      -2.367440     -1.361543     -0.914640
  H      -3.404593     -0.131733     -1.720426
  H      -1.735989      0.288481     -1.212957
  H      -0.819115      0.568112      2.470123
  H      -1.017171      2.044806      1.466911
  H      -0.817523      2.187120      3.248557
  H       1.444713      0.071967      3.592154
  H       1.459937      1.707731      4.334842
  H       2.842612      1.167536      3.322938
  H       0.985861      3.616642      1.070751
  H       2.568161      3.263928      1.840614
  H       1.181643      3.797570      2.848220
  Si      3.240911     -3.470457      0.768827
  C       3.112517     -5.220336      0.027499
  C       5.061413     -3.113767      1.209179
  C       2.226616     -3.419652      2.375876
  H       3.687388     -5.303281     -0.915991
  H       2.057220     -5.479608     -0.194070
  H       3.508756     -5.973897      0.741666
  H       5.162418     -2.119041      1.690034
  H       5.717944     -3.130099      0.315904
  H       5.437202     -3.875395      1.926307
  H       2.316150     -2.433882      2.872358
  H       2.597536     -4.202890      3.072123
  H       1.150479     -3.600097      2.183366
  H       4.681021     -0.768101     -2.663558
  C       3.603962     -2.639602     -2.251159
  C       3.997754     -1.479245     -3.179552
  H       4.507150     -3.168907     -1.877194
  H       2.983406     -3.389415     -2.799166
  Si      4.845907     -2.014471     -4.808144
  H       3.098004     -0.896582     -3.484741
  C       3.657344     -3.098247     -5.818220
  C       6.434190     -2.988685     -4.438951
  C       5.281380     -0.459624     -5.808619
  H       3.457291     -4.061031     -5.303570
  H       4.074306     -3.330945     -6.819986
  H       2.685670     -2.580532     -5.951890
  H       6.220517     -3.901509     -3.845551
  H       7.156886     -2.374327     -3.862604
  H       6.935620     -3.306648     -5.376889
  H       4.372323      0.131680     -6.044018
  H       5.771742     -0.724123     -6.768850
  H       5.975145      0.199491     -5.246556
  H       0.096719     -2.835870     -4.523026
  H       3.494731      0.138741      0.194444
71
Coordinates from ORCA-job my_molecule E -2465.765921920767
  Pt      2.486885     -1.924249     -0.693199
  O       1.222480     -0.820780      0.913723
  O       0.817410     -0.334837     -2.375683
  P       1.518963      0.684245      0.766034
  P      -0.150970     -1.446800     -2.791889
  O      -0.307946     -2.688792     -1.774152
  O       0.419942     -2.085458     -4.196142
  O       0.725833      1.374580     -0.458459
  O       3.125404      0.939649      0.557171
  C       1.063382      1.691700      2.237256
  C      -1.883667     -0.904445     -3.130259
  C      -2.709374     -2.101834     -3.635654
  C      -1.820302      0.209121     -4.195283
  C      -2.462437     -0.366780     -1.803909
  C      -0.461536      1.570166      2.435484
  C       1.813564      1.112987      3.453988
  C       1.468133      3.158426      1.987691
  H       0.601535     -2.769055     -1.263992
  H       0.681009      0.730545     -1.253983
  H      -2.339710     -2.478378     -4.612427
  H      -3.762043     -1.784803     -3.789229
  H      -2.710463     -2.936817     -2.906826
  H      -1.358625     -0.153345     -5.135498
  H      -1.229914      1.075779     -3.839044
  H      -2.847844      0.559855     -4.426963
  H      -2.535585     -1.164950     -1.040553
  H      -3.478515      0.042457     -1.985141
  H      -1.834529      0.446282     -1.388845
  H      -0.766752      0.512629      2.568853
  H      -1.015362      1.986728      1.571095
  H      -0.760883      2.134189      3.343149
  H       1.541378      0.053408      3.629929
  H       1.546598      1.694403      4.361285
  H       2.911289      1.170415      3.316841
  H       0.951682      3.575365      1.101057
  H       2.560096      3.254136      1.828052
  H       1.192420      3.770219      2.871936
  Si      3.310877     -3.486266      0.810650
  C       3.202976     -5.242960      0.082227
  C       5.127950     -3.098180      1.230411
  C       2.306984     -3.445201      2.423611
  H       3.774995     -5.330191     -0.863270
  H       2.149898     -5.519314     -0.129625
  H       3.612156     -5.983983      0.802626
  H       5.220151     -2.097190      1.700361
  H       5.776486     -3.113373      0.331754
  H       5.519534     -3.848937      1.950624
  H       2.379459     -2.453182      2.911421
  H       2.696962     -4.216309      3.122427
  H       1.233516     -3.649402      2.239262
  H       4.641657     -0.745043     -2.658939
  C       3.624747     -2.639550     -2.216864
  C       3.971411     -1.478352     -3.160311
  H       4.550468     -3.136536     -1.853769
  H       3.029348     -3.418365     -2.745501
  Si      4.808065     -2.001515     -4.798087
  H       3.055064     -0.919368     -3.447607
  C       3.629550     -3.119006     -5.783236
  C       6.425026     -2.935274     -4.447974
  C       5.188135     -0.441789     -5.812535
  H       3.461068     -4.083653     -5.260904
  H       4.036307     -3.346737     -6.790063
  H       2.643962     -2.623701     -5.905949
  H       6.242526     -3.850194     -3.847278
  H       7.141293     -2.300493     -3.885816
  H       6.919683     -3.245779     -5.392006
  H       4.260810      0.125046     -6.036572
  H       5.669769     -0.699642     -6.778836
  H       5.873730      0.237315     -5.264529
  H       0.033971     -2.964525     -4.379534
  H       3.474129      0.089405      0.142117
71
Coordinates from ORCA-job my_molecule E -2465.767004138902
  Pt      2.492338     -1.926327     -0.704254
  O       1.212874     -0.818142      0.882392
  O       0.826138     -0.344960     -2.396750
  P       1.503769      0.688650      0.748254
  P      -0.132280     -1.462085     -2.813081
  O      -0.250878     -2.700812     -1.786232
  O       0.435645     -2.063593     -4.234225
  O       0.730989      1.393315     -0.476741
  O       3.112694      0.958131      0.566927
  C       1.037215      1.692967      2.216923
  C      -1.871124     -0.909548     -3.092715
  C      -2.711750     -2.098672     -3.594103
  C      -1.834081      0.221286     -4.139569
  C      -2.409435     -0.392178     -1.741210
  C      -0.490277      1.575736      2.397812
  C       1.772610      1.107466      3.439014
  C       1.450954      3.158901      1.976977
  H       0.643410     -2.725435     -1.243082
  H       0.725439      0.767906     -1.288732
  H      -2.366618     -2.461500     -4.584374
  H      -3.767628     -1.778392     -3.716559
  H      -2.694667     -2.943905     -2.877740
  H      -1.400374     -0.126809     -5.098281
  H      -1.231284      1.080528     -3.785082
  H      -2.865961      0.579587     -4.335176
  H      -2.460147     -1.202871     -0.988438
  H      -3.430003      0.020570     -1.882897
  H      -1.768305      0.414260     -1.332488
  H      -0.800169      0.518713      2.522246
  H      -1.032107      1.998096      1.528941
  H      -0.797785      2.135511      3.305578
  H       1.493398      0.048386      3.607741
  H       1.500103      1.686052      4.346079
  H       2.871898      1.160489      3.312089
  H       0.945623      3.581002      1.086316
  H       2.545098      3.251091      1.830020
  H       1.168201      3.769412      2.860224
  Si      3.297923     -3.482456      0.804414
  C       3.194608     -5.240702      0.078920
  C       5.112648     -3.099237      1.239928
  C       2.276187     -3.435612      2.405839
  H       3.775966     -5.331721     -0.860259
  H       2.143162     -5.515916     -0.142559
  H       3.594995     -5.980432      0.805215
  H       5.205515     -2.098040      1.708543
  H       5.766889     -3.119211      0.345146
  H       5.497352     -3.849699      1.964088
  H       2.346144     -2.443580      2.893248
  H       2.654713     -4.207222      3.110589
  H       1.204318     -3.635873      2.208373
  H       4.672691     -0.758597     -2.666275
  C       3.646313     -2.649994     -2.224840
  C       3.995243     -1.486646     -3.165909
  H       4.569582     -3.147749     -1.857407
  H       3.052018     -3.428274     -2.758497
  Si      4.819028     -2.008165     -4.811116
  H       3.079779     -0.920761     -3.446523
  C       3.622279     -3.106683     -5.795321
  C       6.427653     -2.960480     -4.474832
  C       5.208923     -0.445719     -5.817208
  H       3.449198     -4.073830     -5.279227
  H       4.018469     -3.330268     -6.807414
  H       2.640519     -2.601143     -5.905492
  H       6.238524     -3.877240     -3.879055
  H       7.153104     -2.336713     -3.912109
  H       6.914738     -3.270033     -5.423078
  H       4.286031      0.132002     -6.031778
  H       5.682086     -0.701481     -6.788299
  H       5.904639      0.222706     -5.268767
  H       0.126605     -2.977334     -4.390918
  H       3.472839      0.116998      0.161478
71
Coordinates from ORCA-job my_molecule E -2465.767299742654
  Pt      2.516917     -1.919164     -0.715074
  O       1.243069     -0.804153      0.849279
  O       0.855592     -0.313244     -2.403655
  P       1.510666      0.707301      0.713874
  P      -0.095712     -1.438632     -2.812920
  O      -0.159911     -2.708818     -1.819911
  O       0.443629     -1.997468     -4.262431
  O       0.763443      1.401635     -0.529092
  O       3.123593      0.993128      0.569680
  C       1.011535      1.706206      2.176251
  C      -1.849669     -0.908322     -3.034657
  C      -2.679196     -2.102318     -3.544802
  C      -1.860650      0.247041     -4.054484
  C      -2.362257     -0.434559     -1.657221
  C      -0.517828      1.575979      2.333347
  C       1.731685      1.123898      3.408774
  C       1.418521      3.175535      1.945893
  H       0.727178     -2.693216     -1.259423
  H       0.778915      0.770250     -1.341284
  H      -2.342743     -2.439481     -4.546531
  H      -3.742562     -1.798615     -3.641410
  H      -2.632415     -2.960700     -2.845873
  H      -1.443628     -0.069759     -5.031243
  H      -1.268445      1.111003     -3.693900
  H      -2.903993      0.588221     -4.216221
  H      -2.375410     -1.264766     -0.923976
  H      -3.395475     -0.043295     -1.761431
  H      -1.729824      0.376414     -1.243858
  H      -0.820847      0.516235      2.449397
  H      -1.050798      1.996595      1.458219
  H      -0.843913      2.129265      3.238725
  H       1.455486      0.063090      3.571443
  H       1.443258      1.699401      4.312673
  H       2.832303      1.183162      3.297493
  H       0.923812      3.596935      1.048915
  H       2.513989      3.276237      1.816033
  H       1.118196      3.782070      2.826209
  Si      3.277004     -3.499583      0.793549
  C       3.154696     -5.252446      0.058786
  C       5.092493     -3.148727      1.253645
  C       2.235338     -3.441067      2.381468
  H       3.742800     -5.344778     -0.876066
  H       2.101532     -5.511136     -0.174035
  H       3.538050     -6.002623      0.783400
  H       5.197078     -2.151508      1.727960
  H       5.755716     -3.176286      0.365585
  H       5.457062     -3.908289      1.978651
  H       2.320788     -2.454127      2.876489
  H       2.586796     -4.225404      3.086365
  H       1.162259     -3.615905      2.167684
  H       4.703983     -0.767699     -2.663373
  C       3.659165     -2.651148     -2.225489
  C       4.017097     -1.487218     -3.162691
  H       4.577574     -3.159205     -1.858503
  H       3.059854     -3.424314     -2.763831
  Si      4.826193     -2.010954     -4.815258
  H       3.104648     -0.910895     -3.437522
  C       3.617637     -3.110716     -5.783588
  C       6.438251     -2.962012     -4.494030
  C       5.204485     -0.450095     -5.827910
  H       3.450711     -4.077303     -5.264370
  H       4.001119     -3.335817     -6.800316
  H       2.635343     -2.604305     -5.883261
  H       6.254863     -3.879036     -3.896907
  H       7.167758     -2.337754     -3.937186
  H       6.917651     -3.270702     -5.446445
  H       4.279080      0.127543     -6.031459
  H       5.665700     -0.706505     -6.804618
  H       5.907004      0.218541     -5.288433
  H       0.248495     -2.948177     -4.376999
  H       3.509474      0.160282      0.196600
71
Coordinates from ORCA-job my_molecule E -2465.767688614866
  Pt      2.519669     -1.905421     -0.722059
  O       1.224782     -0.785896      0.825187
  O       0.858812     -0.301703     -2.430079
  P       1.489289      0.726819      0.706917
  P      -0.083581     -1.430856     -2.844333
  O      -0.111100     -2.721242     -1.875688
  O       0.427227     -1.972707     -4.311075
  O       0.718165      1.437144     -0.512872
  O       3.098231      1.012462      0.539305
  C       1.010240      1.708912      2.187171
  C      -1.845237     -0.917576     -3.033287
  C      -2.666056     -2.114548     -3.551031
  C      -1.882783      0.252454     -4.035630
  C      -2.345377     -0.472699     -1.642187
  C      -0.517602      1.582809      2.359945
  C       1.742895      1.108699      3.403500
  C       1.419732      3.179518      1.969366
  H       0.779574     -2.696974     -1.316197
  H       0.739904      0.820889     -1.336622
  H      -2.327507     -2.438239     -4.556121
  H      -3.732807     -1.820251     -3.638073
  H      -2.605805     -2.978825     -2.860466
  H      -1.478263     -0.046068     -5.023318
  H      -1.294603      1.117572     -3.671276
  H      -2.932324      0.584395     -4.175808
  H      -2.329243     -1.313033     -0.920638
  H      -3.388816     -0.103968     -1.725829
  H      -1.724738      0.346439     -1.227388
  H      -0.824355      0.522821      2.464095
  H      -1.058699      2.019031      1.497701
  H      -0.830119      2.124387      3.277089
  H       1.465039      0.047041      3.557340
  H       1.466908      1.674970      4.317155
  H       2.842460      1.165179      3.280558
  H       0.917660      3.612338      1.081986
  H       2.514216      3.278015      1.829773
  H       1.129634      3.776472      2.859508
  Si      3.268131     -3.483943      0.795321
  C       3.149084     -5.239819      0.066966
  C       5.080982     -3.135019      1.265331
  C       2.209768     -3.419169      2.371658
  H       3.748293     -5.342411     -0.859618
  H       2.097738     -5.497058     -0.175626
  H       3.520798     -5.986293      0.801597
  H       5.188587     -2.134654      1.732292
  H       5.748375     -3.172755      0.380683
  H       5.438533     -3.891101      1.997463
  H       2.287916     -2.429456      2.862326
  H       2.552700     -4.199945      3.084639
  H       1.139542     -3.596129      2.145462
  H       4.719516     -0.769033     -2.674838
  C       3.669884     -2.647149     -2.224510
  C       4.027999     -1.488349     -3.168126
  H       4.588108     -3.152159     -1.852029
  H       3.076688     -3.426686     -2.760466
  Si      4.829320     -2.021778     -4.821808
  H       3.116418     -0.909183     -3.442000
  C       3.602174     -3.102408     -5.789219
  C       6.426629     -2.997723     -4.500839
  C       5.229295     -0.465204     -5.832543
  H       3.424241     -4.068645     -5.272844
  H       3.978742     -3.329827     -6.808012
  H       2.627313     -2.581055     -5.884808
  H       6.229030     -3.912056     -3.904157
  H       7.165755     -2.385070     -3.943853
  H       6.901371     -3.313636     -5.453238
  H       4.312213      0.125999     -6.034512
  H       5.685802     -0.726566     -6.810144
  H       5.941890      0.192388     -5.292748
  H       0.351992     -2.944719     -4.377270
  H       3.483957      0.175970      0.167551
71
Coordinates from ORCA-job my_molecule E -2465.768091904598
  Pt      2.539368     -1.911054     -0.705763
  O       1.219664     -0.787776      0.819158
  O       0.855031     -0.298634     -2.421600
  P       1.483742      0.726395      0.705536
  P      -0.085354     -1.427348     -2.848853
  O      -0.105565     -2.719328     -1.881056
  O       0.402476     -1.984798     -4.318597
  O       0.700462      1.433670     -0.511467
  O       3.088329      1.012285      0.524943
  C       1.002647      1.706506      2.185307
  C      -1.843452     -0.904493     -3.037665
  C      -2.670132     -2.100460     -3.548167
  C      -1.874716      0.258658     -4.049004
  C      -2.342266     -0.447010     -1.651190
  C      -0.524728      1.578261      2.357996
  C       1.737214      1.107488      3.401011
  C       1.409091      3.177605      1.965792
  H       0.782304     -2.687576     -1.312143
  H       0.719004      0.811049     -1.328750
  H      -2.320155     -2.439538     -4.543795
  H      -3.733330     -1.797638     -3.647516
  H      -2.622685     -2.955975     -2.845569
  H      -1.476781     -0.051135     -5.036011
  H      -1.279407      1.122751     -3.693329
  H      -2.922553      0.596703     -4.188167
  H      -2.321552     -1.280424     -0.921772
  H      -3.388004     -0.085035     -1.738248
  H      -1.724703      0.378846     -1.245529
  H      -0.831214      0.517884      2.460493
  H      -1.066725      2.016464      1.497256
  H      -0.837034      2.118555      3.275970
  H       1.461726      0.045510      3.556667
  H       1.460258      1.674821      4.313834
  H       2.836774      1.165617      3.278305
  H       0.906762      3.607572      1.077227
  H       2.503526      3.278009      1.826715
  H       1.116356      3.774591      2.854957
  Si      3.281493     -3.493256      0.808399
  C       3.170054     -5.248483      0.077967
  C       5.089996     -3.143539      1.290867
  C       2.206510     -3.434138      2.373283
  H       3.782655     -5.356855     -0.839173
  H       2.121626     -5.504934     -0.177799
  H       3.529544     -5.993338      0.820375
  H       5.197819     -2.141814      1.754738
  H       5.762552     -3.185923      0.410310
  H       5.441254     -3.898481      2.027194
  H       2.273671     -2.443594      2.864134
  H       2.543734     -4.213295      3.090476
  H       1.139980     -3.616390      2.133717
  H       4.730115     -0.765790     -2.682172
  C       3.699908     -2.649568     -2.215133
  C       4.037800     -1.490419     -3.166283
  H       4.627221     -3.139241     -1.845074
  H       3.120444     -3.444106     -2.742461
  Si      4.821562     -2.020401     -4.829319
  H       3.120792     -0.915267     -3.426822
  C       3.579827     -3.095197     -5.785551
  C       6.418913     -3.002052     -4.526510
  C       5.213634     -0.462095     -5.839733
  H       3.406738     -4.063683     -5.271515
  H       3.942850     -3.319538     -6.809850
  H       2.605893     -2.569568     -5.868624
  H       6.224304     -3.917239     -3.930113
  H       7.165436     -2.392933     -3.975503
  H       6.883218     -3.317279     -5.484254
  H       4.295547      0.131505     -6.029735
  H       5.658698     -0.721502     -6.823052
  H       5.933564      0.192254     -5.305794
  H       0.447229     -2.960718     -4.322703
  H       3.475252      0.169579      0.153437
71
Coordinates from ORCA-job my_molecule E -2465.768492139085
  Pt      2.570968     -1.907212     -0.699230
  O       1.229661     -0.780847      0.790418
  O       0.859558     -0.283207     -2.428253
  P       1.480700      0.736965      0.689595
  P      -0.079077     -1.411208     -2.867659
  O      -0.067293     -2.726848     -1.930118
  O       0.362075     -1.960461     -4.355393
  O       0.700302      1.444489     -0.528862
  O       3.083344      1.035720      0.516825
  C       0.984650      1.704018      2.172717
  C      -1.839651     -0.888937     -3.024485
  C      -2.669362     -2.082872     -3.535523
  C      -1.888542      0.283567     -4.024986
  C      -2.319083     -0.444618     -1.627633
  C      -0.542450      1.564545      2.336817
  C       1.716909      1.102851      3.388904
  C       1.382546      3.179040      1.963447
  H       0.808389     -2.681975     -1.341078
  H       0.722380      0.815663     -1.343115
  H      -2.316827     -2.420206     -4.530182
  H      -3.732729     -1.779196     -3.629258
  H      -2.617500     -2.939623     -2.834664
  H      -1.510809     -0.017860     -5.022560
  H      -1.287778      1.145206     -3.672705
  H      -2.939047      0.622320     -4.141388
  H      -2.275861     -1.282817     -0.904396
  H      -3.371216     -0.097286     -1.695029
  H      -1.705495      0.386053     -1.226397
  H      -0.843318      0.501697      2.429887
  H      -1.083698      2.006355      1.477389
  H      -0.862338      2.096003      3.257346
  H       1.447022      0.038488      3.537823
  H       1.432477      1.663904      4.303302
  H       2.816677      1.168191      3.271863
  H       0.882300      3.610439      1.074406
  H       2.477006      3.287586      1.831146
  H       1.080505      3.769134      2.854089
  Si      3.294943     -3.499672      0.814910
  C       3.188522     -5.253539      0.081433
  C       5.098718     -3.157657      1.318783
  C       2.196657     -3.441282      2.363683
  H       3.817743     -5.367449     -0.823788
  H       2.143814     -5.505654     -0.193005
  H       3.530622     -5.998542      0.831939
  H       5.209597     -2.155445      1.780580
  H       5.779256     -3.207660      0.444692
  H       5.437827     -3.913109      2.060251
  H       2.254911     -2.450136      2.854656
  H       2.520786     -4.219814      3.087401
  H       1.134548     -3.623812      2.105143
  H       4.743785     -0.764712     -2.690923
  C       3.726392     -2.648545     -2.201416
  C       4.048997     -1.494071     -3.164020
  H       4.660855     -3.126695     -1.833109
  H       3.156035     -3.457555     -2.717523
  Si      4.815063     -2.031109     -4.833162
  H       3.128153     -0.921093     -3.416568
  C       3.556836     -3.103896     -5.771448
  C       6.410607     -3.018682     -4.542973
  C       5.201243     -0.478363     -5.853486
  H       3.383434     -4.069602     -5.252096
  H       3.907158     -3.335688     -6.798477
  H       2.586733     -2.570253     -5.850422
  H       6.217274     -3.930721     -3.941376
  H       7.164673     -2.410752     -4.001022
  H       6.864676     -3.339380     -5.503763
  H       4.283117      0.118044     -6.034306
  H       5.633814     -0.742191     -6.841153
  H       5.929837      0.174680     -5.329810
  H       0.607638     -2.904728     -4.304666
  H       3.484551      0.195743      0.156679
71
Coordinates from ORCA-job my_molecule E -2465.768844305820
  Pt      2.609124     -1.896332     -0.688647
  O       1.241874     -0.774139      0.760884
  O       0.873339     -0.260008     -2.436685
  P       1.482737      0.746706      0.680088
  P      -0.060464     -1.388259     -2.887129
  O      -0.006936     -2.718044     -1.968915
  O       0.324489     -1.930489     -4.392389
  O       0.718158      1.459623     -0.545022
  O       3.086283      1.056267      0.534867
  C       0.953889      1.697596      2.163063
  C      -1.826820     -0.876168     -3.010590
  C      -2.660080     -2.074826     -3.504883
  C      -1.899511      0.296736     -4.010465
  C      -2.278873     -0.431028     -1.605830
  C      -0.573711      1.542279      2.301329
  C       1.673832      1.092376      3.384781
  C       1.342542      3.177253      1.970491
  H       0.848928     -2.650900     -1.357019
  H       0.743855      0.827672     -1.357638
  H      -2.314877     -2.418043     -4.499634
  H      -3.725536     -1.774896     -3.585600
  H      -2.593864     -2.927230     -2.799991
  H      -1.548859     -0.004478     -5.017959
  H      -1.290612      1.158371     -3.672836
  H      -2.952997      0.634685     -4.100477
  H      -2.209504     -1.265764     -0.880180
  H      -3.336960     -0.098872     -1.651218
  H      -1.666943      0.408465     -1.221379
  H      -0.866484      0.476204      2.381932
  H      -1.105387      1.985392      1.436650
  H      -0.912993      2.064054      3.220516
  H       1.410093      0.024830      3.521426
  H       1.372212      1.644119      4.299368
  H       2.774534      1.167390      3.283664
  H       0.852295      3.611241      1.077160
  H       2.437915      3.296252      1.856428
  H       1.021287      3.758307      2.860427
  Si      3.313679     -3.500164      0.823130
  C       3.218347     -5.251398      0.082225
  C       5.110866     -3.163666      1.356459
  C       2.189246     -3.448185      2.354269
  H       3.869613     -5.367556     -0.807003
  H       2.180079     -5.499685     -0.218606
  H       3.539390     -5.997725      0.840692
  H       5.220982     -2.162167      1.819872
  H       5.802780     -3.217304      0.491385
  H       5.437277     -3.920601      2.102074
  H       2.233012     -2.456722      2.846299
  H       2.502514     -4.224600      3.084899
  H       1.133294     -3.635568      2.074560
  H       4.772493     -0.765093     -2.707878
  C       3.764318     -2.643588     -2.184697
  C       4.068687     -1.496740     -3.163459
  H       4.707564     -3.105748     -1.817912
  H       3.203522     -3.469438     -2.685761
  Si      4.800427     -2.047111     -4.843970
  H       3.144878     -0.921216     -3.402242
  C       3.504597     -3.096359     -5.760436
  C       6.380956     -3.065042     -4.578449
  C       5.197805     -0.503600     -5.873949
  H       3.309376     -4.052871     -5.231671
  H       3.837803     -3.347827     -6.788510
  H       2.550103     -2.535134     -5.841738
  H       6.179456     -3.972244     -3.972235
  H       7.154544     -2.470918     -4.048843
  H       6.814446     -3.395865     -5.545231
  H       4.287984      0.109741     -6.039702
  H       5.608618     -0.775709     -6.868598
  H       5.947204      0.136327     -5.363590
  H       0.782318     -2.791247     -4.317948
  H       3.500062      0.222401      0.182674
71
Coordinates from ORCA-job my_molecule E -2465.769195729586
  Pt      2.635650     -1.885310     -0.683456
  O       1.249244     -0.771791      0.738257
  O       0.877273     -0.243435     -2.456696
  P       1.495638      0.749031      0.679170
  P      -0.058130     -1.369888     -2.909371
  O       0.029291     -2.705373     -2.000623
  O       0.277247     -1.902116     -4.428331
  O       0.763532      1.475505     -0.557068
  O       3.103122      1.058039      0.572541
  C       0.935422      1.686977      2.159286
  C      -1.830145     -0.870961     -3.002896
  C      -2.672037     -2.078043     -3.460557
  C      -1.930402      0.290470     -4.014762
  C      -2.249541     -0.406320     -1.594345
  C      -0.593857      1.525359      2.266919
  C       1.633796      1.074981      3.390446
  C       1.324001      3.168980      1.985548
  H       0.866423     -2.622556     -1.375183
  H       0.781273      0.841963     -1.369190
  H      -2.352337     -2.434473     -4.459057
  H      -3.740457     -1.782903     -3.516254
  H      -2.582541     -2.921623     -2.747752
  H      -1.611147     -0.022430     -5.028961
  H      -1.310124      1.154347     -3.704779
  H      -2.985588      0.629337     -4.077993
  H      -2.159153     -1.228729     -0.856634
  H      -3.309917     -0.079919     -1.619036
  H      -1.632383      0.441477     -1.237965
  H      -0.884402      0.457941      2.336430
  H      -1.110338      1.970881      1.394258
  H      -0.953007      2.041112      3.181945
  H       1.370289      0.005677      3.513595
  H       1.313748      1.618391      4.303665
  H       2.735877      1.154311      3.310105
  H       0.849835      3.609120      1.086530
  H       2.421057      3.291779      1.893988
  H       0.984282      3.742851      2.873345
  Si      3.329643     -3.494142      0.826620
  C       3.252211     -5.242361      0.077464
  C       5.119125     -3.153780      1.385550
  C       2.186334     -3.453312      2.345306
  H       3.922851     -5.353781     -0.797952
  H       2.221508     -5.491542     -0.247416
  H       3.559072     -5.989786      0.840621
  H       5.220893     -2.153408      1.853158
  H       5.822124     -3.203355      0.529117
  H       5.438232     -3.911900      2.133054
  H       2.213348     -2.461398      2.837594
  H       2.497758     -4.225472      3.081190
  H       1.136204     -3.651494      2.051322
  H       4.786329     -0.761244     -2.723736
  C       3.790947     -2.637274     -2.173199
  C       4.080209     -1.498156     -3.166689
  H       4.741772     -3.084135     -1.806827
  H       3.235558     -3.476284     -2.659644
  Si      4.794481     -2.060513     -4.850354
  H       3.153196     -0.924686     -3.400740
  C       3.474900     -3.087988     -5.759988
  C       6.357731     -3.105944     -4.593590
  C       5.211288     -0.527118     -5.887354
  H       3.240821     -4.026864     -5.215399
  H       3.810793     -3.372343     -6.778583
  H       2.541978     -2.496271     -5.872822
  H       6.143955     -4.008200     -3.984258
  H       7.144154     -2.524286     -4.069096
  H       6.780159     -3.445779     -5.562064
  H       4.311133      0.101678     -6.048262
  H       5.611006     -0.808048     -6.884029
  H       5.974851      0.100815     -5.383148
  H       0.897119     -2.657844     -4.368668
  H       3.521035      0.227273      0.222401
71
Coordinates from ORCA-job my_molecule E -2465.769631518562
  Pt      2.658538     -1.875623     -0.670427
  O       1.250569     -0.773519      0.729402
  O       0.889003     -0.229938     -2.481053
  P       1.508327      0.746139      0.682196
  P      -0.045667     -1.351837     -2.941749
  O       0.076081     -2.696057     -2.049869
  O       0.254790     -1.841962     -4.478819
  O       0.811080      1.480911     -0.567670
  O       3.120362      1.049760      0.617637
  C       0.917736      1.681402      2.152278
  C      -1.826581     -0.881621     -3.002866
  C      -2.667241     -2.098311     -3.434073
  C      -1.965797      0.278187     -4.012480
  C      -2.217447     -0.416986     -1.585119
  C      -0.612222      1.510147      2.233497
  C       1.598142      1.074997      3.396534
  C       1.301132      3.165429      1.985041
  H       0.886344     -2.601700     -1.407817
  H       0.815663      0.850322     -1.382656
  H      -2.384981     -2.449426     -4.445933
  H      -3.741005     -1.817751     -3.449763
  H      -2.540057     -2.943519     -2.729161
  H      -1.675383     -0.032222     -5.035697
  H      -1.340570      1.145296     -3.721417
  H      -3.024322      0.610860     -4.044098
  H      -2.104732     -1.234729     -0.845062
  H      -3.279978     -0.097339     -1.586309
  H      -1.598523      0.436661     -1.246003
  H      -0.896439      0.441131      2.303732
  H      -1.115855      1.946884      1.348911
  H      -0.991486      2.028070      3.139105
  H       1.338859      0.004052      3.515161
  H       1.259148      1.615838      4.304301
  H       2.700772      1.161807      3.334350
  H       0.840579      3.603364      1.077866
  H       2.398997      3.294473      1.913533
  H       0.942952      3.738100      2.866387
  Si      3.347527     -3.484320      0.838900
  C       3.296663     -5.227164      0.076308
  C       5.127125     -3.129784      1.423404
  C       2.190232     -3.462583      2.348902
  H       3.985294     -5.323281     -0.787033
  H       2.275192     -5.481732     -0.272461
  H       3.596122     -5.977565      0.839293
  H       5.210475     -2.131928      1.899980
  H       5.842856     -3.164720      0.576831
  H       5.443947     -3.889825      2.169906
  H       2.196945     -2.471064      2.842589
  H       2.508556     -4.229285      3.087583
  H       1.145935     -3.677659      2.046026
  H       4.824796     -0.767109     -2.726807
  C       3.821358     -2.630734     -2.152582
  C       4.103448     -1.497349     -3.155750
  H       4.776359     -3.066992     -1.784749
  H       3.265803     -3.475275     -2.629187
  Si      4.778202     -2.070871     -4.850731
  H       3.179025     -0.912193     -3.375132
  C       3.403999     -3.024430     -5.762622
  C       6.291377     -3.192170     -4.621611
  C       5.256029     -0.550056     -5.879560
  H       3.086207     -3.928250     -5.201399
  H       3.738974     -3.361158     -6.765548
  H       2.521702     -2.368509     -5.923670
  H       6.041390     -4.089913     -4.019524
  H       7.108511     -2.653537     -4.098103
  H       6.688813     -3.540114     -5.597664
  H       4.385384      0.122564     -6.025356
  H       5.632122     -0.840379     -6.882675
  H       6.053483      0.036318     -5.377802
  H       1.003465     -2.475960     -4.472129
  H       3.536102      0.219459      0.265185
71
Coordinates from ORCA-job my_molecule E -2465.769997688502
  Pt      2.679523     -1.869065     -0.661823
  O       1.242983     -0.784285      0.724444
  O       0.910747     -0.225491     -2.516901
  P       1.511724      0.734088      0.683355
  P      -0.035049     -1.345057     -2.963124
  O       0.102283     -2.684641     -2.067020
  O       0.233772     -1.820728     -4.507654
  O       0.846540      1.470605     -0.580717
  O       3.126985      1.027671      0.659822
  C       0.894684      1.669340      2.142594
  C      -1.818644     -0.888395     -2.998940
  C      -2.661433     -2.111478     -3.403303
  C      -1.987162      0.264835     -4.010860
  C      -2.186968     -0.419181     -1.574870
  C      -0.635816      1.490741      2.201674
  C       1.558316      1.070246      3.399352
  C       1.272619      3.155237      1.978822
  H       0.902021     -2.588040     -1.426227
  H       0.852493      0.847149     -1.401798
  H      -2.412753     -2.462585     -4.424205
  H      -3.737039     -1.837669     -3.387427
  H      -2.508531     -2.955405     -2.702173
  H      -1.719352     -0.049988     -5.038533
  H      -1.357234      1.135454     -3.740129
  H      -3.047111      0.594224     -4.018448
  H      -2.060451     -1.231792     -0.831565
  H      -3.249742     -0.100685     -1.559954
  H      -1.565094      0.438103     -1.250020
  H      -0.914790      0.420452      2.273787
  H      -1.128730      1.919367      1.307035
  H      -1.031792      2.011471      3.098403
  H       1.304597     -0.002313      3.515956
  H       1.200196      1.609921      4.300422
  H       2.661071      1.164957      3.354855
  H       0.824057      3.589516      1.063953
  H       2.370880      3.289754      1.924040
  H       0.898602      3.727365      2.853854
  Si      3.370002     -3.470115      0.851682
  C       3.353942     -5.208837      0.079469
  C       5.136468     -3.088103      1.458268
  C       2.201239     -3.469383      2.353536
  H       4.058826     -5.286211     -0.772624
  H       2.342750     -5.474913     -0.289830
  H       3.651819     -5.960246      0.841986
  H       5.192367     -2.091681      1.942055
  H       5.865500     -3.103215      0.622704
  H       5.455705     -3.846820      2.205129
  H       2.185085     -2.477469      2.846220
  H       2.531817     -4.228191      3.095024
  H       1.163102     -3.706321      2.045876
  H       4.867778     -0.769430     -2.733529
  C       3.858448     -2.621617     -2.135105
  C       4.131179     -1.492854     -3.147671
  H       4.818620     -3.042758     -1.764490
  H       3.307876     -3.474021     -2.602904
  Si      4.762433     -2.076398     -4.854266
  H       3.209919     -0.895727     -3.348321
  C       3.326613     -2.926258     -5.775915
  C       6.201569     -3.294946     -4.654978
  C       5.327353     -0.574967     -5.866672
  H       2.900921     -3.771976     -5.195629
  H       3.656647     -3.333709     -6.754104
  H       2.521006     -2.194087     -6.001748
  H       5.899262     -4.185881     -4.067070
  H       7.053011     -2.817452     -4.126818
  H       6.571637     -3.648473     -5.639699
  H       4.501238      0.154979     -5.994836
  H       5.675309     -0.874782     -6.877116
  H       6.165416     -0.048900     -5.364304
  H       1.062430     -2.345298     -4.557199
  H       3.540517      0.196086      0.300900
71
Coordinates from ORCA-job my_molecule E -2465.770249015919
  Pt      2.706971     -1.867770     -0.647751
  O       1.239471     -0.786800      0.721543
  O       0.939874     -0.223947     -2.541576
  P       1.506515      0.732591      0.670654
  P      -0.008827     -1.339989     -2.991926
  O       0.158193     -2.697698     -2.129653
  O       0.230678     -1.762563     -4.554831
  O       0.846408      1.456746     -0.602340
  O       3.121055      1.027453      0.658678
  C       0.878155      1.675445      2.119546
  C      -1.797435     -0.907510     -2.984420
  C      -2.626296     -2.133668     -3.406614
  C      -2.006576      0.269022     -3.959940
  C      -2.149267     -0.486787     -1.540447
  C      -0.651909      1.489381      2.173615
  C       1.539168      1.090810      3.384163
  C       1.247600      3.162302      1.945391
  H       0.949156     -2.599613     -1.476082
  H       0.857466      0.833668     -1.424249
  H      -2.392636     -2.451455     -4.441600
  H      -3.705605     -1.877382     -3.362890
  H      -2.448324     -2.993804     -2.731652
  H      -1.752200     -0.013992     -5.000007
  H      -1.386943      1.143886     -3.678311
  H      -3.071892      0.579623     -3.937028
  H      -1.994718     -1.317403     -0.823126
  H      -3.217191     -0.188198     -1.498392
  H      -1.538479      0.373383     -1.201823
  H      -0.925117      0.418117      2.253551
  H      -1.143352      1.907902      1.273367
  H      -1.054538      2.015525      3.064155
  H       1.293320      0.017252      3.508184
  H       1.171162      1.634670      4.278779
  H       2.641384      1.193587      3.345536
  H       0.800828      3.586017      1.024794
  H       2.345361      3.302769      1.894330
  H       0.866312      3.738652      2.814420
  Si      3.379331     -3.468751      0.872894
  C       3.385540     -5.203356      0.092258
  C       5.133263     -3.073535      1.504580
  C       2.188883     -3.477303      2.356586
  H       4.104029     -5.269177     -0.749305
  H       2.381947     -5.473971     -0.294009
  H       3.677149     -5.957797      0.854148
  H       5.171205     -2.078709      1.993446
  H       5.875792     -3.077480      0.680983
  H       5.446885     -3.832857      2.253278
  H       2.159547     -2.486056      2.850061
  H       2.516033     -4.235065      3.100692
  H       1.156403     -3.721658      2.036091
  H       4.925258     -0.782294     -2.726700
  C       3.897877     -2.621481     -2.114212
  C       4.167411     -1.491553     -3.126762
  H       4.858910     -3.038468     -1.741631
  H       3.348733     -3.474168     -2.581931
  Si      4.744378     -2.077381     -4.850765
  H       3.251754     -0.877688     -3.302080
  C       3.248490     -2.825890     -5.765790
  C       6.110930     -3.381758     -4.694539
  C       5.378458     -0.594408     -5.848588
  H       2.747461     -3.619610     -5.170944
  H       3.550904     -3.285559     -6.729841
  H       2.510579     -2.034491     -6.022015
  H       5.764414     -4.266132     -4.121386
  H       6.994689     -2.965577     -4.167555
  H       6.448368     -3.734141     -5.691324
  H       4.596256      0.186661     -5.947449
  H       5.687579     -0.896557     -6.870916
  H       6.256838     -0.129426     -5.354926
  H       1.134500     -2.121137     -4.689846
  H       3.536645      0.190274      0.306149
71
Coordinates from ORCA-job my_molecule E -2465.770251966015
  Pt      2.711628     -1.881777     -0.661307
  O       1.222510     -0.812654      0.722285
  O       0.960600     -0.257905     -2.575942
  P       1.493827      0.705913      0.647258
  P      -0.023842     -1.369430     -2.965587
  O       0.117281     -2.694036     -2.050147
  O       0.193644     -1.832955     -4.517956
  O       0.838773      1.413430     -0.637499
  O       3.108833      0.990742      0.644328
  C       0.864832      1.670692      2.081523
  C      -1.804994     -0.905902     -2.943242
  C      -2.648558     -2.125803     -3.357188
  C      -2.012198      0.268452     -3.919053
  C      -2.145083     -0.483868     -1.496626
  C      -0.666318      1.491851      2.133752
  C       1.520023      1.099190      3.354508
  C       1.239029      3.154033      1.888962
  H       0.947105     -2.608551     -1.437994
  H       0.862080      0.791092     -1.459204
  H      -2.426327     -2.446388     -4.393898
  H      -3.724516     -1.855716     -3.308465
  H      -2.480304     -2.985745     -2.679632
  H      -1.761239     -0.020732     -4.958160
  H      -1.386802      1.141355     -3.643913
  H      -3.075411      0.585464     -3.890712
  H      -1.990116     -1.315955     -0.782038
  H      -3.210995     -0.178189     -1.448219
  H      -1.528581      0.373977     -1.162046
  H      -0.943620      0.422610      2.226283
  H      -1.153796      1.901020      1.227057
  H      -1.069167      2.031025      3.016354
  H       1.273653      0.027290      3.490428
  H       1.146766      1.653997      4.240437
  H       2.622459      1.200164      3.320805
  H       0.795231      3.566729      0.962080
  H       2.337373      3.289889      1.837025
  H       0.858451      3.741480      2.750754
  Si      3.384163     -3.475655      0.869276
  C       3.411187     -5.208648      0.085074
  C       5.128186     -3.056033      1.510117
  C       2.188738     -3.492209      2.346696
  H       4.132575     -5.259754     -0.755008
  H       2.411529     -5.489140     -0.304327
  H       3.709590     -5.965037      0.842443
  H       5.143160     -2.062481      2.003178
  H       5.878439     -3.042980      0.693956
  H       5.447218     -3.812769      2.259359
  H       2.152442     -2.500959      2.839802
  H       2.523037     -4.248383      3.089371
  H       1.157768     -3.744895      2.028164
  H       4.950411     -0.773727     -2.713527
  C       3.921782     -2.619140     -2.116980
  C       4.192867     -1.480060     -3.119387
  H       4.883687     -3.027693     -1.738165
  H       3.382121     -3.472567     -2.594132
  Si      4.765756     -2.054101     -4.848186
  H       3.277591     -0.865076     -3.284146
  C       3.247804     -2.717702     -5.792041
  C       6.070832     -3.421749     -4.708661
  C       5.471148     -0.581407     -5.813308
  H       2.672074     -3.457668     -5.193914
  H       3.544445     -3.227936     -6.732257
  H       2.577873     -1.882410     -6.092390
  H       5.678496     -4.304580     -4.163453
  H       6.965098     -3.058959     -4.160359
  H       6.405606     -3.761942     -5.710640
  H       4.728099      0.238605     -5.897573
  H       5.767511     -0.876886     -6.841461
  H       6.370079     -0.169340     -5.309628
  H       1.080231     -2.215047     -4.690377
  H       3.520433      0.147261      0.292174
71
Coordinates from ORCA-job my_molecule E -2465.770527681215
  Pt      2.730705     -1.871286     -0.659498
  O       1.239249     -0.805241      0.709766
  O       0.965177     -0.247885     -2.577955
  P       1.511246      0.713925      0.656271
  P      -0.018963     -1.363101     -2.965414
  O       0.125004     -2.680648     -2.039102
  O       0.178229     -1.861349     -4.510121
  O       0.875760      1.435597     -0.631124
  O       3.126427      0.996451      0.674360
  C       0.863067      1.661999      2.093813
  C      -1.799976     -0.895451     -2.954723
  C      -2.645673     -2.120375     -3.353268
  C      -1.999674      0.263719     -3.951184
  C      -2.143268     -0.446739     -1.518138
  C      -0.669086      1.488343      2.121008
  C       1.496826      1.070198      3.368614
  C       1.246369      3.146215      1.927075
  H       0.952908     -2.587299     -1.425187
  H       0.902676      0.810628     -1.451736
  H      -2.408989     -2.463417     -4.379309
  H      -3.720942     -1.845667     -3.320404
  H      -2.485374     -2.966508     -2.656683
  H      -1.749504     -0.043871     -4.985322
  H      -1.371905      1.138644     -3.689065
  H      -3.061897      0.585106     -3.930394
  H      -1.984031     -1.264709     -0.788124
  H      -3.211591     -0.148617     -1.477370
  H      -1.532704      0.420710     -1.199017
  H      -0.952624      0.419197      2.193586
  H      -1.142378      1.913379      1.214066
  H      -1.082542      2.016202      3.005569
  H       1.243273     -0.002167      3.486304
  H       1.113608      1.615111      4.256419
  H       2.600132      1.165994      3.352387
  H       0.818175      3.573515      0.999399
  H       2.345826      3.278227      1.893438
  H       0.854908      3.723715      2.790715
  Si      3.389323     -3.473131      0.870378
  C       3.414298     -5.206939      0.087942
  C       5.130889     -3.064659      1.525232
  C       2.179818     -3.485970      2.336377
  H       4.144760     -5.266115     -0.743818
  H       2.417104     -5.481798     -0.311585
  H       3.698890     -5.963603      0.850427
  H       5.151477     -2.070604      2.016963
  H       5.885783     -3.059157      0.713203
  H       5.440207     -3.822673      2.277194
  H       2.142349     -2.494570      2.829065
  H       2.501667     -4.243791      3.082819
  H       1.151493     -3.733751      2.005615
  H       4.952754     -0.764863     -2.729247
  C       3.938463     -2.612158     -2.113543
  C       4.196267     -1.477715     -3.125165
  H       4.904932     -3.011904     -1.736058
  H       3.407910     -3.477104     -2.580649
  Si      4.756005     -2.060901     -4.855642
  H       3.276554     -0.867266     -3.285281
  C       3.236858     -2.776192     -5.760296
  C       6.097512     -3.393436     -4.720446
  C       5.404927     -0.584193     -5.853499
  H       2.701360     -3.532069     -5.145322
  H       3.524381     -3.280870     -6.706132
  H       2.533733     -1.962803     -6.044702
  H       5.736234     -4.277455     -4.156095
  H       6.991565     -3.000891     -4.192738
  H       6.423641     -3.740070     -5.723031
  H       4.638455      0.214244     -5.934671
  H       5.690663     -0.885340     -6.882998
  H       6.301243     -0.141415     -5.371703
  H       1.088960     -2.176177     -4.695028
  H       3.545286      0.156517      0.327481
71
Coordinates from ORCA-job my_molecule E -2465.770565796123
  Pt      2.731755     -1.876464     -0.651927
  O       1.248393     -0.804478      0.718951
  O       0.971184     -0.255589     -2.568889
  P       1.515235      0.715336      0.654974
  P      -0.004049     -1.371135     -2.971396
  O       0.133828     -2.695239     -2.054343
  O       0.214382     -1.853432     -4.517892
  O       0.872378      1.429249     -0.633607
  O       3.129184      1.007666      0.662117
  C       0.872290      1.670499      2.090172
  C      -1.787726     -0.909800     -2.970017
  C      -2.627230     -2.132397     -3.391886
  C      -1.980524      0.261032     -3.954511
  C      -2.143957     -0.476912     -1.532481
  C      -0.659582      1.496134      2.125058
  C       1.511304      1.086150      3.365992
  C       1.254218      3.154035      1.914222
  H       0.957456     -2.602041     -1.432715
  H       0.897223      0.797459     -1.450191
  H      -2.378353     -2.462515     -4.419225
  H      -3.703561     -1.861402     -3.366163
  H      -2.470558     -2.986378     -2.704008
  H      -1.719497     -0.032879     -4.990029
  H      -1.357966      1.134208     -3.674977
  H      -3.043700      0.579547     -3.940902
  H      -1.986288     -1.301906     -0.809886
  H      -3.213714     -0.183743     -1.496696
  H      -1.538663      0.389429     -1.200525
  H      -0.942551      0.427387      2.204465
  H      -1.137033      1.916307      1.218056
  H      -1.069494      2.028412      3.008657
  H       1.258205      0.014404      3.490310
  H       1.132055      1.635751      4.252502
  H       2.614592      1.181905      3.344654
  H       0.821740      3.576129      0.986063
  H       2.353388      3.286514      1.875272
  H       0.865909      3.736213      2.776193
  Si      3.384414     -3.479250      0.880472
  C       3.399673     -5.213499      0.098910
  C       5.128777     -3.080065      1.533475
  C       2.174926     -3.485324      2.346289
  H       4.125793     -5.276313     -0.736481
  H       2.399378     -5.484260     -0.295747
  H       3.684683     -5.971093      0.860268
  H       5.156009     -2.085853      2.024400
  H       5.882020     -3.079627      0.719818
  H       5.435652     -3.839007      2.285452
  H       2.145054     -2.494368      2.840175
  H       2.490744     -4.246691      3.091753
  H       1.144789     -3.724653      2.014986
  H       4.977290     -0.778207     -2.706727
  C       3.939562     -2.617512     -2.103673
  C       4.207043     -1.475624     -3.103579
  H       4.900237     -3.029695     -1.723641
  H       3.405583     -3.474933     -2.579955
  Si      4.739237     -2.048403     -4.846189
  H       3.292465     -0.851877     -3.250230
  C       3.203027     -2.757267     -5.726883
  C       6.081957     -3.382599     -4.741320
  C       5.372227     -0.565476     -5.844986
  H       2.690220     -3.527788     -5.111283
  H       3.467919     -3.242634     -6.689185
  H       2.486769     -1.942810     -5.972449
  H       5.728430     -4.269887     -4.177172
  H       6.984928     -2.994737     -4.225499
  H       6.391231     -3.723011     -5.751323
  H       4.604209      0.233151     -5.907390
  H       5.640258     -0.859573     -6.881249
  H       6.276582     -0.125657     -5.375646
  H       1.121582     -2.188742     -4.686161
  H       3.551270      0.169548      0.320076
71
Coordinates from ORCA-job my_molecule E -2465.770616274698
  Pt      2.736879     -1.879920     -0.658162
  O       1.249717     -0.808532      0.709412
  O       0.970947     -0.267938     -2.573838
  P       1.507559      0.712199      0.638051
  P      -0.015466     -1.377082     -2.963428
  O       0.128539     -2.699422     -2.045401
  O       0.177222     -1.858297     -4.512434
  O       0.858752      1.417814     -0.651934
  O       3.119629      1.017222      0.643659
  C       0.860934      1.670770      2.070048
  C      -1.796224     -0.903292     -2.937938
  C      -2.649615     -2.120970     -3.347126
  C      -1.993399      0.267965     -3.920941
  C      -2.127724     -0.465573     -1.496307
  C      -0.669867      1.488731      2.107337
  C       1.504854      1.095310      3.347392
  C       1.235245      3.155257      1.886664
  H       0.962871     -2.611419     -1.436961
  H       0.884076      0.781781     -1.466618
  H      -2.415051     -2.454459     -4.376554
  H      -3.723669     -1.842769     -3.307862
  H      -2.489149     -2.974618     -2.659713
  H      -1.748945     -0.028598     -4.959743
  H      -1.360598      1.136681     -3.650441
  H      -3.053840      0.594393     -3.893015
  H      -1.962203     -1.289744     -0.774363
  H      -3.195254     -0.167141     -1.443888
  H      -1.512356      0.398471     -1.176748
  H      -0.947310      0.419010      2.192117
  H      -1.149916      1.901995      1.198590
  H      -1.081552      2.023013      2.988964
  H       1.256774      0.023002      3.476913
  H       1.124714      1.647264      4.232031
  H       2.607693      1.195913      3.323716
  H       0.799509      3.570542      0.956919
  H       2.333651      3.293123      1.846061
  H       0.844615      3.739656      2.746162
  Si      3.381941     -3.487873      0.872139
  C       3.399496     -5.220019      0.085443
  C       5.124782     -3.092684      1.532330
  C       2.164840     -3.497139      2.331458
  H       4.128511     -5.282114     -0.747291
  H       2.400291     -5.488777     -0.313463
  H       3.680764     -5.979988      0.845782
  H       5.152622     -2.099981      2.026125
  H       5.879894     -3.091411      0.720299
  H       5.429245     -3.853963      2.282951
  H       2.134183     -2.507965      2.828780
  H       2.475145     -4.261910      3.075789
  H       1.136021     -3.733143      1.993735
  H       4.987164     -0.776948     -2.702218
  C       3.947834     -2.619118     -2.108402
  C       4.220413     -1.474709     -3.104965
  H       4.907010     -3.031890     -1.725244
  H       3.414708     -3.474804     -2.589241
  Si      4.764063     -2.046953     -4.844547
  H       3.305035     -0.854072     -3.259670
  C       3.230896     -2.752764     -5.733902
  C       6.102998     -3.384356     -4.731925
  C       5.405196     -0.564988     -5.839693
  H       2.709153     -3.515409     -5.115705
  H       3.498593     -3.248302     -6.690113
  H       2.523374     -1.934167     -5.990356
  H       5.742934     -4.271637     -4.171881
  H       7.003154     -2.999793     -4.208809
  H       6.418818     -3.723997     -5.740154
  H       4.639078      0.235303     -5.904501
  H       5.676899     -0.858471     -6.875169
  H       6.308514     -0.127282     -5.366414
  H       1.091220     -2.158065     -4.711251
  H       3.547384      0.182771      0.304164
71
Coordinates from ORCA-job my_molecule E -2465.770666971063
  Pt      2.739835     -1.878393     -0.661144
  O       1.248559     -0.809563      0.708092
  O       0.970188     -0.277232     -2.589164
  P       1.520075      0.708983      0.637764
  P      -0.021875     -1.390191     -2.959645
  O       0.120195     -2.699909     -2.023602
  O       0.159959     -1.889841     -4.503386
  O       0.889133      1.417594     -0.659880
  O       3.134167      1.000311      0.657544
  C       0.867742      1.672733      2.063586
  C      -1.803840     -0.920309     -2.934507
  C      -2.653783     -2.142885     -3.335854
  C      -2.006442      0.243914     -3.924836
  C      -2.137469     -0.475987     -1.495338
  C      -0.664714      1.502594      2.087581
  C       1.495368      1.092881      3.347110
  C       1.254694      3.154425      1.883318
  H       0.960470     -2.607727     -1.424380
  H       0.911833      0.779222     -1.472835
  H      -2.418640     -2.481656     -4.363438
  H      -3.728465     -1.867146     -3.297530
  H      -2.490600     -2.991778     -2.643154
  H      -1.762965     -0.058862     -4.962027
  H      -1.375598      1.116227     -3.661411
  H      -3.067768      0.567705     -3.897052
  H      -1.965399     -1.294377     -0.768536
  H      -3.207140     -0.184785     -1.444373
  H      -1.528204      0.394421     -1.181680
  H      -0.951377      0.435106      2.170258
  H      -1.134038      1.919528      1.174867
  H      -1.079892      2.040423      2.965361
  H       1.238473      0.022405      3.474563
  H       1.110651      1.647816      4.227929
  H       2.599078      1.185455      3.334163
  H       0.830464      3.572553      0.949546
  H       2.354416      3.284104      1.852390
  H       0.860652      3.741829      2.739120
  Si      3.379695     -3.485215      0.872620
  C       3.398703     -5.216360      0.084242
  C       5.120316     -3.089115      1.536960
  C       2.159590     -3.494827      2.328911
  H       4.129753     -5.277189     -0.746872
  H       2.400302     -5.484001     -0.317369
  H       3.677862     -5.977893      0.843853
  H       5.145241     -2.096631      2.031455
  H       5.877827     -3.086155      0.727257
  H       5.423326     -3.850559      2.287994
  H       2.128719     -2.505766      2.826504
  H       2.468710     -4.260162      3.073147
  H       1.131124     -3.730391      1.989909
  H       5.006276     -0.774757     -2.692536
  C       3.958281     -2.614550     -2.107684
  C       4.234886     -1.465459     -3.098172
  H       4.915696     -3.027338     -1.720538
  H       3.428655     -3.470372     -2.592236
  Si      4.767799     -2.032209     -4.842374
  H       3.322146     -0.839549     -3.246828
  C       3.218605     -2.700315     -5.733756
  C       6.079583     -3.397077     -4.743671
  C       5.435184     -0.555598     -5.827818
  H       2.674010     -3.443376     -5.110924
  H       3.473255     -3.210919     -6.685543
  H       2.537274     -1.862119     -5.997940
  H       5.701664     -4.282497     -4.192525
  H       6.987394     -3.036101     -4.217026
  H       6.388100     -3.732541     -5.755560
  H       4.685254      0.260642     -5.882332
  H       5.696277     -0.845854     -6.866917
  H       6.349312     -0.140382     -5.355056
  H       1.077625     -2.163648     -4.720905
  H       3.558023      0.162415      0.317011
71
Coordinates from ORCA-job my_molecule E -2465.770699465148
  Pt      2.737907     -1.878804     -0.662982
  O       1.251595     -0.808106      0.708221
  O       0.969807     -0.281223     -2.588607
  P       1.521851      0.710390      0.635621
  P      -0.021087     -1.395943     -2.957148
  O       0.119139     -2.702910     -2.016986
  O       0.164198     -1.900505     -4.499098
  O       0.888794      1.416506     -0.662409
  O       3.135692      1.003902      0.652434
  C       0.870517      1.675161      2.061245
  C      -1.802877     -0.924739     -2.933463
  C      -2.654331     -2.146729     -3.332739
  C      -2.002768      0.237657     -3.926838
  C      -2.136499     -0.476296     -1.495600
  C      -0.661874      1.505324      2.086377
  C       1.498806      1.096172      3.344898
  C       1.257606      3.156681      1.879671
  H       0.961785     -2.609384     -1.421156
  H       0.910270      0.775461     -1.473669
  H      -2.417903     -2.488448     -4.359087
  H      -3.728611     -1.869437     -3.296172
  H      -2.492528     -2.994117     -2.637821
  H      -1.759997     -0.067783     -4.963431
  H      -1.370217      1.109243     -3.665089
  H      -3.063475      0.563682     -3.900501
  H      -1.964893     -1.292888     -0.766663
  H      -3.205976     -0.184292     -1.445292
  H      -1.526132      0.394156     -1.184172
  H      -0.948844      0.437983      2.169969
  H      -1.131784      1.921833      1.173758
  H      -1.076294      2.043767      2.964138
  H       1.241032      0.026059      3.473567
  H       1.115548      1.652363      4.225553
  H       2.602601      1.187817      3.330857
  H       0.833035      3.574099      0.945709
  H       2.357321      3.286246      1.848269
  H       0.863847      3.744984      2.734988
  Si      3.373177     -3.487715      0.870358
  C       3.384412     -5.218817      0.081627
  C       5.116203     -3.099927      1.533072
  C       2.153504     -3.493849      2.327060
  H       4.113290     -5.283505     -0.751083
  H       2.383960     -5.482302     -0.317691
  H       3.661870     -5.981347      0.840897
  H       5.147174     -2.107424      2.027185
  H       5.872078     -3.101070      0.721810
  H       5.417070     -3.862639      2.283663
  H       2.127706     -2.505465      2.826321
  H       2.458384     -4.261987      3.070121
  H       1.123886     -3.723388      1.987411
  H       5.016962     -0.777005     -2.684274
  C       3.958213     -2.613566     -2.108556
  C       4.242426     -1.461762     -3.093624
  H       4.912321     -3.031907     -1.719340
  H       3.427857     -3.465893     -2.598386
  Si      4.771325     -2.025856     -4.839913
  H       3.332895     -0.831880     -3.242829
  C       3.219564     -2.700418     -5.722246
  C       6.089155     -3.385318     -4.746949
  C       5.428006     -0.546310     -5.827989
  H       2.690058     -3.453150     -5.098168
  H       3.466769     -3.200456     -6.681497
  H       2.528347     -1.864903     -5.968633
  H       5.716593     -4.272083     -4.194318
  H       6.997929     -3.021173     -4.224165
  H       6.394373     -3.719703     -5.760198
  H       4.673729      0.266195     -5.878493
  H       5.685559     -0.834959     -6.868395
  H       6.342277     -0.126783     -5.359349
  H       1.080767     -2.184933     -4.707387
  H       3.561108      0.167136      0.312303
71
Coordinates from ORCA-job my_molecule E -2465.770724341584
  Pt      2.742016     -1.880593     -0.661630
  O       1.255117     -0.807568      0.705278
  O       0.972753     -0.295605     -2.593085
  P       1.524089      0.710703      0.625828
  P      -0.018580     -1.410487     -2.958869
  O       0.127088     -2.716611     -2.018255
  O       0.158832     -1.913273     -4.501898
  O       0.890073      1.409855     -0.675524
  O       3.137471      1.007705      0.641841
  C       0.871561      1.682161      2.046445
  C      -1.800818     -0.940891     -2.927108
  C      -2.654361     -2.162333     -3.322326
  C      -2.004681      0.222210     -3.919251
  C      -2.127142     -0.492207     -1.487634
  C      -0.660460      1.510516      2.072205
  C       1.500866      1.110834      3.333071
  C       1.256793      3.163119      1.856610
  H       0.969304     -2.619597     -1.424249
  H       0.908468      0.764222     -1.483554
  H      -2.422814     -2.504398     -4.349735
  H      -3.728379     -1.884934     -3.280344
  H      -2.488573     -3.009816     -2.628430
  H      -1.770036     -0.083218     -4.957674
  H      -1.368154      1.092083     -3.661348
  H      -3.064475      0.550684     -3.886300
  H      -1.949532     -1.307683     -0.758876
  H      -3.196778     -0.202142     -1.430980
  H      -1.515967      0.379266     -1.180531
  H      -0.946230      0.443395      2.162367
  H      -1.130411      1.920743      1.156797
  H      -1.075651      2.053762      2.946652
  H       1.243397      0.041409      3.467882
  H       1.118162      1.671984      4.210830
  H       2.604623      1.202877      3.317791
  H       0.832128      3.574545      0.920023
  H       2.356334      3.294090      1.825330
  H       0.861473      3.755954      2.708101
  Si      3.367787     -3.494245      0.870981
  C       3.370429     -5.223541      0.077983
  C       5.112744     -3.118992      1.536115
  C       2.144897     -3.498767      2.325225
  H       4.098555     -5.292197     -0.755047
  H       2.368270     -5.480330     -0.321526
  H       3.643342     -5.988771      0.836225
  H       5.151491     -2.127365      2.031442
  H       5.867733     -3.124520      0.723956
  H       5.409367     -3.884793      2.285252
  H       2.123590     -2.512198      2.828351
  H       2.442538     -4.271466      3.066431
  H       1.114953     -3.720469      1.981328
  H       5.052472     -0.784220     -2.661399
  C       3.969142     -2.611051     -2.101444
  C       4.267197     -1.453272     -3.075523
  H       4.917771     -3.037458     -1.707879
  H       3.438431     -3.457068     -2.601450
  Si      4.775851     -2.010330     -4.830039
  H       3.365904     -0.810751     -3.219678
  C       3.203028     -2.655065     -5.698849
  C       6.074020     -3.389837     -4.759668
  C       5.443610     -0.533002     -5.813776
  H       2.674951     -3.405116     -5.070516
  H       3.424840     -3.149291     -6.667058
  H       2.522179     -1.804884     -5.923545
  H       5.692211     -4.274925     -4.210666
  H       6.992996     -3.044216     -4.242214
  H       6.364771     -3.721083     -5.778189
  H       4.699775      0.289919     -5.849314
  H       5.685798     -0.816659     -6.859192
  H       6.368462     -0.129469     -5.351933
  H       1.082989     -2.163203     -4.722636
  H       3.564613      0.171595      0.303504
71
Coordinates from ORCA-job my_molecule E -2465.770736307700
  Pt      2.734601     -1.880359     -0.665246
  O       1.255571     -0.801689      0.706457
  O       0.963817     -0.300297     -2.591820
  P       1.527776      0.715707      0.623046
  P      -0.026556     -1.416305     -2.955853
  O       0.123035     -2.726263     -2.021321
  O       0.151456     -1.914301     -4.500763
  O       0.893706      1.412261     -0.679493
  O       3.141988      1.008968      0.636733
  C       0.878665      1.691425      2.042125
  C      -1.809706     -0.951076     -2.918308
  C      -2.660881     -2.172882     -3.316734
  C      -2.018685      0.215323     -3.905350
  C      -2.134774     -0.509291     -1.476235
  C      -0.653983      1.524733      2.068373
  C       1.506324      1.120175      3.329548
  C       1.268572      3.170877      1.849999
  H       0.966406     -2.628113     -1.428151
  H       0.908448      0.764066     -1.485307
  H      -2.430916     -2.510348     -4.346059
  H      -3.735516     -1.898251     -3.271928
  H      -2.492244     -3.022856     -2.626566
  H      -1.785348     -0.085554     -4.945417
  H      -1.383751      1.085782     -3.645474
  H      -3.079195      0.541074     -3.869177
  H      -1.954063     -1.327352     -0.751166
  H      -3.204913     -0.221710     -1.416304
  H      -1.525148      0.362251     -1.166264
  H      -0.943090      0.458630      2.160032
  H      -1.122713      1.935181      1.152445
  H      -1.067327      2.070407      2.942177
  H       1.245188      0.051869      3.466146
  H       1.125927      1.684083      4.206541
  H       2.610375      1.208512      3.313728
  H       0.845243      3.582311      0.912815
  H       2.368525      3.298296      1.818572
  H       0.875213      3.766311      2.700586
  Si      3.356884     -3.497400      0.865078
  C       3.347244     -5.226318      0.071041
  C       5.106158     -3.133225      1.524900
  C       2.137758     -3.496846      2.322559
  H       4.069954     -5.298876     -0.766320
  H       2.341430     -5.478005     -0.322548
  H       3.620622     -5.992969      0.827695
  H       5.153339     -2.142140      2.020535
  H       5.857725     -3.143085      0.709596
  H       5.400994     -3.901398      2.272265
  H       2.124113     -2.511327      2.828035
  H       2.431777     -4.273129      3.061439
  H       1.105658     -3.710881      1.980256
  H       5.055353     -0.785136     -2.652297
  C       3.962292     -2.610649     -2.107274
  C       4.271366     -1.450383     -3.074774
  H       4.906979     -3.044906     -1.712886
  H       3.427521     -3.450030     -2.614013
  Si      4.790326     -2.003994     -4.827519
  H       3.372906     -0.806030     -3.226501
  C       3.223141     -2.655526     -5.701421
  C       6.094800     -3.377282     -4.752868
  C       5.454924     -0.522747     -5.807340
  H       2.704438     -3.415238     -5.077025
  H       3.446660     -3.138602     -6.674762
  H       2.534996     -1.808447     -5.915003
  H       5.714904     -4.264121     -4.205353
  H       7.010479     -3.027725     -4.232245
  H       6.390411     -3.707170     -5.770436
  H       4.706813      0.296190     -5.845082
  H       5.702667     -0.804365     -6.851993
  H       6.375766     -0.114727     -5.341471
  H       1.074768     -2.172641     -4.715812
  H       3.567020      0.171250      0.299858
71
Coordinates from ORCA-job my_molecule E -2465.770747102525
  Pt      2.734361     -1.882026     -0.665299
  O       1.252841     -0.804042      0.705130
  O       0.964289     -0.302800     -2.596268
  P       1.525402      0.713394      0.620494
  P      -0.027908     -1.418954     -2.956654
  O       0.123556     -2.726602     -2.019078
  O       0.145999     -1.921044     -4.500998
  O       0.892706      1.408871     -0.683002
  O       3.139746      1.004638      0.635324
  C       0.876948      1.691403      2.038002
  C      -1.810125     -0.952218     -2.915462
  C      -2.662931     -2.174560     -3.308931
  C      -2.021902      0.212271     -3.903859
  C      -2.131456     -0.508003     -1.473184
  C      -0.656039      1.527030      2.063579
  C       1.502961      1.120465      3.326332
  C       1.269104      3.170136      1.844822
  H       0.966730     -2.626714     -1.426052
  H       0.907480      0.760949     -1.488596
  H      -2.436431     -2.514451     -4.338216
  H      -3.737283     -1.898944     -3.262107
  H      -2.493722     -3.023186     -2.617299
  H      -1.791538     -0.091051     -4.943899
  H      -1.386010      1.083202     -3.647920
  H      -3.082192      0.538346     -3.864962
  H      -1.949744     -1.325110     -0.747344
  H      -3.201308     -0.219630     -1.411386
  H      -1.521016      0.363828     -1.165644
  H      -0.946657      0.461377      2.155860
  H      -1.123767      1.937501      1.147141
  H      -1.069046      2.073981      2.936731
  H       1.240702      0.052534      3.463663
  H       1.122300      1.685472      4.202516
  H       2.607096      1.207644      3.311318
  H       0.847029      3.581497      0.907055
  H       2.369292      3.295817      1.813872
  H       0.876306      3.766725      2.694840
  Si      3.358382     -3.498633      0.864596
  C       3.347943     -5.227838      0.071148
  C       5.107788     -3.133923      1.523496
  C       2.140482     -3.497613      2.323130
  H       4.069927     -5.300452     -0.766851
  H       2.341814     -5.479916     -0.321377
  H       3.622120     -5.994098      0.827923
  H       5.154743     -2.142618      2.018685
  H       5.859273     -3.143797      0.708151
  H       5.402652     -3.901864      2.271062
  H       2.126333     -2.511704      2.827824
  H       2.435845     -4.273043      3.062371
  H       1.108297     -3.712937      1.981859
  H       5.056361     -0.784857     -2.649310
  C       3.963733     -2.610735     -2.106046
  C       4.272857     -1.450041     -3.072868
  H       4.908919     -3.044278     -1.712065
  H       3.429417     -3.450179     -2.613258
  Si      4.792110     -2.001472     -4.826170
  H       3.374958     -0.804724     -3.223468
  C       3.222820     -2.642165     -5.704272
  C       6.089407     -3.381528     -4.753681
  C       5.465515     -0.520865     -5.800860
  H       2.698405     -3.400136     -5.082523
  H       3.445498     -3.123994     -6.678441
  H       2.540060     -1.790653     -5.917659
  H       5.704658     -4.267711     -4.208507
  H       7.006337     -3.037670     -4.231459
  H       6.384327     -3.710479     -5.771745
  H       4.721781      0.302065     -5.837771
  H       5.713472     -0.801120     -6.845833
  H       6.387714     -0.118911     -5.332414
  H       1.070609     -2.171305     -4.719639
  H       3.563881      0.165165      0.300153
71
Coordinates from ORCA-job my_molecule E -2465.770724959824
  Pt      2.735922     -1.889862     -0.663794
  O       1.246127     -0.809870      0.699513
  O       0.967567     -0.321954     -2.617845
  P       1.523018      0.706578      0.605482
  P      -0.032189     -1.437556     -2.962934
  O       0.133512     -2.742531     -2.024107
  O       0.118294     -1.943359     -4.509062
  O       0.902464      1.393675     -0.707172
  O       3.138484      0.988680      0.632066
  C       0.870722      1.699514      2.010043
  C      -1.812491     -0.971549     -2.895200
  C      -2.669687     -2.197383     -3.269002
  C      -2.044899      0.188536     -3.883078
  C      -2.111568     -0.523954     -1.448884
  C      -0.664185      1.549626      2.023139
  C       1.479628      1.131011      3.307578
  C       1.278342      3.173385      1.811621
  H       0.974961     -2.635957     -1.430273
  H       0.916110      0.742785     -1.509198
  H      -2.461875     -2.541893     -4.300663
  H      -3.743498     -1.922061     -3.206423
  H      -2.490457     -3.042875     -2.576252
  H      -1.832370     -0.119678     -4.925531
  H      -1.405997      1.061909     -3.643382
  H      -3.104726      0.513041     -3.825309
  H      -1.915907     -1.338251     -0.723698
  H      -3.181261     -0.238525     -1.371103
  H      -1.500529      0.351518     -1.153127
  H      -0.965095      0.487111      2.118947
  H      -1.120196      1.959036      1.100335
  H      -1.079780      2.105479      2.889374
  H       1.207725      0.066004      3.448703
  H       1.094655      1.704133      4.176617
  H       2.584472      1.209215      3.302651
  H       0.869167      3.583413      0.867596
  H       2.379974      3.288278      1.790045
  H       0.883888      3.778277      2.654927
  Si      3.361065     -3.507195      0.864585
  C       3.342801     -5.236566      0.071336
  C       5.112022     -3.146976      1.521280
  C       2.146468     -3.502127      2.326018
  H       4.059919     -5.309963     -0.770814
  H       2.334113     -5.487481     -0.315291
  H       3.620121     -6.002808      0.827049
  H       5.161524     -2.155645      2.016088
  H       5.863169     -3.158488      0.705715
  H       5.404626     -3.915882      2.268647
  H       2.133141     -2.515427      2.829162
  H       2.443536     -4.276306      3.065938
  H       1.113662     -3.718405      1.987164
  H       5.078808     -0.790119     -2.625165
  C       3.974239     -2.612698     -2.099192
  C       4.291365     -1.446070     -3.055966
  H       4.917764     -3.050221     -1.705644
  H       3.438862     -3.446760     -2.614482
  Si      4.801739     -1.981905     -4.816579
  H       3.399300     -0.790444     -3.198149
  C       3.213715     -2.553095     -5.709351
  C       6.052405     -3.404836     -4.767369
  C       5.525528     -0.506328     -5.762099
  H       2.661723     -3.301965     -5.100394
  H       3.421049     -3.024856     -6.691796
  H       2.562775     -1.673783     -5.909513
  H       5.638112     -4.287133     -4.237814
  H       6.979311     -3.100111     -4.238476
  H       6.338051     -3.725444     -5.790699
  H       4.810219      0.341831     -5.785448
  H       5.766326     -0.775777     -6.811592
  H       6.459708     -0.144585     -5.284699
  H       1.049613     -2.134847     -4.757106
  H       3.559107      0.142190      0.306757
71
Coordinates from ORCA-job my_molecule E -2465.770759463278
  Pt      2.732995     -1.886711     -0.662518
  O       1.249793     -0.804353      0.704177
  O       0.964129     -0.313814     -2.604724
  P       1.525107      0.712316      0.612627
  P      -0.030428     -1.428976     -2.961800
  O       0.131270     -2.739609     -2.030138
  O       0.132668     -1.926502     -4.509255
  O       0.897206      1.402413     -0.695664
  O       3.140351      0.998222      0.631340
  C       0.876530      1.700266      2.022945
  C      -1.812677     -0.965709     -2.905660
  C      -2.665279     -2.189547     -3.295601
  C      -2.036388      0.200944     -3.888349
  C      -2.123897     -0.527526     -1.459282
  C      -0.657528      1.544466      2.043563
  C       1.494709      1.131333      3.315949
  C       1.277624      3.175908      1.824871
  H       0.970815     -2.635989     -1.432733
  H       0.909923      0.752494     -1.498820
  H      -2.447404     -2.526274     -4.327798
  H      -3.739963     -1.916441     -3.240026
  H      -2.489827     -3.039727     -2.607555
  H      -1.813337     -0.099280     -4.930905
  H      -1.400917      1.073154     -3.635718
  H      -3.097204      0.523748     -3.839238
  H      -1.933578     -1.346316     -0.737625
  H      -3.194298     -0.243180     -1.388191
  H      -1.515134      0.346050     -1.153490
  H      -0.954033      0.480685      2.138767
  H      -1.119580      1.953940      1.123829
  H      -1.070741      2.096957      2.913108
  H       1.226829      0.065239      3.456545
  H       1.113177      1.701695      4.188297
  H       2.599293      1.213000      3.304810
  H       0.861543      3.585917      0.883842
  H       2.378632      3.295151      1.797536
  H       0.885251      3.778049      2.671151
  Si      3.358147     -3.505184      0.864873
  C       3.339157     -5.234621      0.071730
  C       5.110184     -3.146311      1.520263
  C       2.144222     -3.499739      2.326946
  H       4.056081     -5.308639     -0.770466
  H       2.330315     -5.484984     -0.314833
  H       3.616210     -6.000994      0.827358
  H       5.161179     -2.155291      2.015583
  H       5.860352     -3.158264      0.703739
  H       5.403463     -3.915582      2.267046
  H       2.132717     -2.513407      2.830880
  H       2.440270     -4.274926      3.066207
  H       1.110933     -3.713959      1.988285
  H       5.065350     -0.788315     -2.633808
  C       3.965288     -2.612688     -2.101721
  C       4.280179     -1.448505     -3.062283
  H       4.909034     -3.050547     -1.709082
  H       3.428349     -3.447268     -2.614260
  Si      4.797103     -1.990235     -4.819423
  H       3.385684     -0.797356     -3.209253
  C       3.220026     -2.597446     -5.707436
  C       6.073198     -3.390315     -4.758668
  C       5.495146     -0.509789     -5.776993
  H       2.685205     -3.357055     -5.096622
  H       3.436698     -3.067054     -6.688886
  H       2.548969     -1.733606     -5.908143
  H       5.674966     -4.275416     -4.221489
  H       6.994763     -3.064717     -4.232890
  H       6.364124     -3.714619     -5.779357
  H       4.764686      0.325161     -5.807583
  H       5.741461     -0.783330     -6.824152
  H       6.422357     -0.127342     -5.302167
  H       1.061257     -2.150088     -4.739942
  H       3.561503      0.154161      0.302982
71
Coordinates from ORCA-job my_molecule E -2465.770765444842
  Pt      2.732115     -1.886844     -0.661584
  O       1.251947     -0.802634      0.705944
  O       0.965034     -0.314026     -2.603626
  P       1.526600      0.713969      0.613117
  P      -0.029200     -1.428948     -2.962069
  O       0.131976     -2.740663     -2.031924
  O       0.135285     -1.925347     -4.509681
  O       0.897542      1.402910     -0.695309
  O       3.141828      1.001234      0.630410
  C       0.878190      1.701969      2.023720
  C      -1.811763     -0.965730     -2.906636
  C      -2.663989     -2.188535     -3.300732
  C      -2.033724      0.203224     -3.887143
  C      -2.124311     -0.530762     -1.459686
  C      -0.655706      1.545293      2.045456
  C       1.497574      1.133556      3.316416
  C       1.278345      3.177769      1.825045
  H       0.971091     -2.637298     -1.433660
  H       0.910723      0.752274     -1.498243
  H      -2.444249     -2.522746     -4.333348
  H      -3.738734     -1.915597     -3.245992
  H      -2.489210     -3.040304     -2.614447
  H      -1.808507     -0.094312     -4.929994
  H      -1.399033      1.074967     -3.630981
  H      -3.094741      0.525622     -3.839469
  H      -1.934390     -1.351182     -0.739777
  H      -3.194815     -0.246776     -1.388801
  H      -1.515682      0.342108     -1.151624
  H      -0.951559      0.481340      2.140744
  H      -1.118687      1.954651      1.126134
  H      -1.068588      2.097398      2.915405
  H       1.230201      0.067380      3.457356
  H       1.116552      1.703959      4.188947
  H       2.602134      1.215591      3.304409
  H       0.861257      3.587361      0.884268
  H       2.379249      3.297653      1.796815
  H       0.886229      3.779922      2.671445
  Si      3.355766     -3.506568      0.864870
  C       3.333594     -5.235990      0.071779
  C       5.108751     -3.150735      1.519560
  C       2.142602     -3.498904      2.327572
  H       4.049238     -5.310736     -0.771429
  H       2.323924     -5.485081     -0.313422
  H       3.610784     -6.002815      0.826877
  H       5.161329     -2.160005      2.015320
  H       5.858736     -3.163541      0.702875
  H       5.401093     -3.920690      2.266022
  H       2.133414     -2.512620      2.831648
  H       2.437464     -4.274819      3.066549
  H       1.108689     -3.710930      1.989454
  H       5.063240     -0.788268     -2.633345
  C       3.963072     -2.613313     -2.102120
  C       4.278382     -1.448699     -3.062037
  H       4.906270     -3.052734     -1.709953
  H       3.425209     -3.446870     -2.615313
  Si      4.796287     -1.989879     -4.819065
  H       3.383438     -0.798236     -3.209256
  C       3.221965     -2.606894     -5.704982
  C       6.080076     -3.382951     -4.757854
  C       5.485595     -0.506780     -5.778980
  H       2.694095     -3.372256     -5.095269
  H       3.440489     -3.072530     -6.687907
  H       2.543698     -1.747819     -5.901848
  H       5.687478     -4.269331     -4.218640
  H       7.000604     -3.051441     -4.233941
  H       6.371337     -3.707368     -5.778416
  H       4.750615      0.324168     -5.810211
  H       5.732821     -0.780290     -6.825939
  H       6.411000     -0.118738     -5.305166
  H       1.062423     -2.158606     -4.736731
  H       3.563746      0.157543      0.303089
71
Coordinates from ORCA-job my_molecule E -2465.770772558751
  Pt      2.729274     -1.888918     -0.658751
  O       1.252841     -0.800321      0.708764
  O       0.964800     -0.318250     -2.603990
  P       1.528197      0.715770      0.611381
  P      -0.028998     -1.432696     -2.964423
  O       0.135142     -2.746990     -2.038511
  O       0.134179     -1.925424     -4.513342
  O       0.898123      1.401591     -0.698364
  O       3.143664      1.003121      0.625839
  C       0.881672      1.708027      2.020036
  C      -1.812190     -0.971205     -2.905533
  C      -2.663669     -2.193097     -3.304086
  C      -2.035220      0.201431     -3.881585
  C      -2.123510     -0.542110     -1.456714
  C      -0.652321      1.553336      2.043168
  C       1.501298      1.141640      3.313577
  C       1.283650      3.182787      1.817578
  H       0.971950     -2.642212     -1.437080
  H       0.910950      0.749282     -1.500156
  H      -2.443889     -2.522915     -4.338094
  H      -3.738608     -1.921382     -3.247569
  H      -2.487419     -3.047400     -2.621300
  H      -1.809322     -0.091557     -4.925571
  H      -1.401654      1.072847     -3.621577
  H      -3.096653      0.522359     -3.832980
  H      -1.931265     -1.365000     -0.740253
  H      -3.194337     -0.260013     -1.383240
  H      -1.515490      0.330402     -1.146506
  H      -0.949471      0.489925      2.140466
  H      -1.115391      1.961789      1.123497
  H      -1.063844      2.107406      2.912514
  H       1.232521      0.076158      3.457036
  H       1.121847      1.714587      4.185116
  H       2.605987      1.221964      3.300494
  H       0.866376      3.590706      0.876142
  H       2.384672      3.301215      1.788283
  H       0.892818      3.787496      2.662760
  Si      3.352137     -3.511516      0.864809
  C       3.322338     -5.240643      0.071288
  C       5.107701     -3.162022      1.516230
  C       2.142229     -3.499850      2.330266
  H       4.034340     -5.316814     -0.774855
  H       2.310503     -5.487097     -0.309893
  H       3.600711     -6.008425      0.824962
  H       5.164039     -2.171979      2.012966
  H       5.856555     -3.176408      0.698539
  H       5.398670     -3.933599      2.261571
  H       2.137354     -2.513581      2.834429
  H       2.436160     -4.276786      3.068557
  H       1.106904     -3.708484      1.994372
  H       5.060615     -0.788652     -2.626392
  C       3.958702     -2.614745     -2.100869
  C       4.276137     -1.448017     -3.057463
  H       4.900609     -3.057793     -1.709703
  H       3.418996     -3.445315     -2.616856
  Si      4.796437     -1.984707     -4.815126
  H       3.381221     -0.797412     -3.204426
  C       3.224957     -2.604452     -5.703867
  C       6.084140     -3.374300     -4.755832
  C       5.482732     -0.497810     -5.771492
  H       2.702666     -3.378923     -5.100926
  H       3.445958     -3.059818     -6.691056
  H       2.540642     -1.748218     -5.891984
  H       5.694583     -4.262176     -4.216880
  H       7.004089     -3.040415     -4.232395
  H       6.375680     -3.697226     -5.776789
  H       4.745667      0.331279     -5.802538
  H       5.732381     -0.768902     -6.818514
  H       6.406397     -0.108199     -5.295562
  H       1.059971     -2.165839     -4.738617
  H       3.565280      0.158216      0.301723
71
Coordinates from ORCA-job my_molecule E -2465.770780556387
  Pt      2.726132     -1.892492     -0.654211
  O       1.254192     -0.797272      0.712231
  O       0.966457     -0.326864     -2.608918
  P       1.530484      0.717974      0.606451
  P      -0.027917     -1.441125     -2.968660
  O       0.143162     -2.758482     -2.048432
  O       0.128744     -1.929100     -4.519683
  O       0.901125      1.397242     -0.707011
  O       3.146382      1.004624      0.619313
  C       0.884720      1.718105      2.010077
  C      -1.811687     -0.982182     -2.899474
  C      -2.663325     -2.203238     -3.300206
  C      -2.040036      0.194760     -3.869249
  C      -2.116655     -0.560402     -1.447249
  C      -0.649605      1.567445      2.032478
  C       1.501770      1.155322      3.306492
  C       1.290781      3.190917      1.801793
  H       0.976676     -2.650205     -1.442802
  H       0.913950      0.741728     -1.506487
  H      -2.447067     -2.527953     -4.336550
  H      -3.738315     -1.933121     -3.237817
  H      -2.482848     -3.060373     -2.622060
  H      -1.817142     -0.092794     -4.915381
  H      -1.407135      1.065995     -3.607040
  H      -3.101859      0.513639     -3.815542
  H      -1.918299     -1.386090     -0.735721
  H      -3.187832     -0.281557     -1.366756
  H      -1.509040      0.312171     -1.136537
  H      -0.949586      0.505116      2.132923
  H      -1.110883      1.974254      1.111183
  H      -1.060372      2.125302      2.899756
  H       1.229934      0.091173      3.453966
  H       1.123298      1.732955      4.175356
  H       2.606710      1.232392      3.293932
  H       0.875436      3.596004      0.858265
  H       2.392118      3.306377      1.773030
  H       0.900660      3.800247      2.643982
  Si      3.346330     -3.520163      0.864436
  C       3.303630     -5.248350      0.069485
  C       5.105829     -3.181702      1.511163
  C       2.141478     -3.501899      2.334088
  H       4.010026     -5.326646     -0.781141
  H       2.288377     -5.489828     -0.305724
  H       3.583216     -6.018252      0.820539
  H       5.168193     -2.192942      2.009764
  H       5.853184     -3.198504      0.692190
  H       5.393993     -3.956198      2.254577
  H       2.143788     -2.515671      2.838392
  H       2.433608     -4.280554      3.071310
  H       1.103887     -3.704777      2.001684
  H       5.061241     -0.789890     -2.613345
  C       3.954834     -2.616758     -2.098479
  C       4.276364     -1.445986     -3.048665
  H       4.894533     -3.065595     -1.708688
  H       3.412692     -3.442364     -2.619788
  Si      4.798097     -1.974237     -4.808305
  H       3.382196     -0.793942     -3.194010
  C       3.227636     -2.587654     -5.702886
  C       6.084460     -3.365317     -4.755341
  C       5.487306     -0.483061     -5.755997
  H       2.708929     -3.373290     -5.111398
  H       3.449899     -3.027497     -6.696844
  H       2.539877     -1.731282     -5.877359
  H       5.694883     -4.254729     -4.218953
  H       7.005237     -3.033859     -4.231789
  H       6.374760     -3.684931     -5.777695
  H       4.751442      0.347150     -5.784648
  H       5.738945     -0.749419     -6.803764
  H       6.410481     -0.097077     -5.276166
  H       1.053739     -2.169104     -4.748902
  H       3.567993      0.157557      0.301517
71
Coordinates from ORCA-job my_molecule E -2465.770785840638
  Pt      2.723627     -1.895776     -0.649880
  O       1.253959     -0.794852      0.714729
  O       0.967441     -0.335997     -2.614483
  P       1.531892      0.719462      0.600817
  P      -0.027156     -1.450551     -2.972701
  O       0.151699     -2.770484     -2.057614
  O       0.121803     -1.933967     -4.525786
  O       0.903920      1.392707     -0.716386
  O       3.148157      1.004467      0.612686
  C       0.886956      1.728023      1.998746
  C      -1.811395     -0.994764     -2.892608
  C      -2.663148     -2.215791     -3.293031
  C      -2.046630      0.185200     -3.857096
  C      -2.109247     -0.578673     -1.437269
  C      -0.647821      1.582132      2.019539
  C       1.500496      1.169046      3.298506
  C       1.297831      3.198625      1.784450
  H       0.981955     -2.658196     -1.448164
  H       0.916397      0.734362     -1.513563
  H      -2.451614     -2.536816     -4.331492
  H      -3.738175     -1.947488     -3.224060
  H      -2.477731     -3.074816     -2.618604
  H      -1.828961     -0.098453     -4.905389
  H      -1.413580      1.056412     -3.595160
  H      -3.108600      0.502410     -3.796680
  H      -1.904058     -1.406102     -0.729722
  H      -3.180786     -0.303465     -1.349471
  H      -1.502342      0.294631     -1.127326
  H      -0.951232      0.521105      2.123466
  H      -1.106513      1.987030      1.096126
  H      -1.058060      2.144427      2.884199
  H       1.225069      0.106430      3.450242
  H       1.122779      1.751806      4.164273
  H       2.605705      1.242483      3.287092
  H       0.885269      3.600686      0.838399
  H       2.399552      3.310628      1.756994
  H       0.908126      3.812993      2.623162
  Si      3.341949     -3.528464      0.863886
  C       3.287524     -5.255192      0.066544
  C       5.105085     -3.200066      1.505796
  C       2.142089     -3.505370      2.337636
  H       3.989174     -5.335270     -0.787838
  H       2.269306     -5.491657     -0.303807
  H       3.567616     -6.027488      0.814962
  H       5.173162     -2.212659      2.006342
  H       5.850609     -3.218714      0.685234
  H       5.391155     -3.977444      2.247014
  H       2.150618     -2.519334      2.842296
  H       2.432989     -4.285605      3.073680
  H       1.102492     -3.703329      2.008538
  H       5.064448     -0.791168     -2.598945
  C       3.952384     -2.617712     -2.095081
  C       4.278312     -1.442832     -3.038562
  H       4.890005     -3.071624     -1.706165
  H       3.408656     -3.438819     -2.621806
  Si      4.799932     -1.962811     -4.800508
  H       3.385517     -0.788452     -3.182005
  C       3.227573     -2.560631     -5.702261
  C       6.077829     -3.361916     -4.755035
  C       5.499806     -0.469847     -5.737499
  H       2.706806     -3.352945     -5.121613
  H       3.449012     -2.987477     -6.702081
  H       2.542641     -1.699690     -5.865053
  H       5.683051     -4.251767     -4.223214
  H       7.000604     -3.038623     -4.229883
  H       6.366214     -3.677868     -5.779068
  H       4.769251      0.365133     -5.762636
  H       5.752181     -0.731360     -6.786307
  H       6.424315     -0.092700     -5.253228
  H       1.047027     -2.166533     -4.761970
  H       3.569299      0.155082      0.300398
71
Coordinates from ORCA-job my_molecule E -2465.770788475406
  Pt      2.724020     -1.896493     -0.647273
  O       1.254217     -0.793426      0.715682
  O       0.969407     -0.339972     -2.618676
  P       1.532521      0.720523      0.597667
  P      -0.025038     -1.455399     -2.974977
  O       0.159134     -2.776573     -2.062689
  O       0.118400     -1.935881     -4.529314
  O       0.906640      1.390277     -0.722166
  O       3.148842      1.004799      0.611090
  C       0.885994      1.733037      1.991891
  C      -1.809491     -1.001899     -2.887513
  C      -2.661367     -2.223468     -3.285924
  C      -2.050288      0.179039     -3.849333
  C      -2.102336     -0.588217     -1.430385
  C      -0.649028      1.589020      2.009781
  C       1.496167      1.176173      3.294124
  C       1.299021      3.202708      1.775286
  H       0.987586     -2.661351     -1.451322
  H       0.919365      0.730433     -1.518081
  H      -2.453580     -2.543308     -4.325511
  H      -3.736392     -1.956353     -3.212418
  H      -2.472468     -3.082974     -2.613079
  H      -1.837510     -0.103245     -4.898997
  H      -1.416666      1.050429     -3.589377
  H      -3.112190      0.495402     -3.783491
  H      -1.892603     -1.416088     -0.724690
  H      -3.174075     -0.315350     -1.337856
  H      -1.495960      0.285856     -1.121634
  H      -0.953963      0.528546      2.114943
  H      -1.105350      1.992863      1.084736
  H      -1.060361      2.153324      2.872612
  H       1.219100      0.114240      3.447592
  H       1.117456      1.761343      4.157835
  H       2.601483      1.248255      3.284819
  H       0.889119      3.603157      0.827393
  H       2.400935      3.313375      1.750116
  H       0.908126      3.819406      2.611726
  Si      3.340400     -3.532464      0.863535
  C       3.280067     -5.257816      0.063729
  C       5.105161     -3.209680      1.503622
  C       2.142632     -3.507553      2.338964
  H       3.980192     -5.338558     -0.791841
  H       2.260656     -5.490946     -0.305463
  H       3.559194     -6.032037      0.810533
  H       5.176141     -2.223206      2.005613
  H       5.849852     -3.228905      0.682343
  H       5.390022     -3.988878      2.243398
  H       2.154305     -2.521723      2.844023
  H       2.432579     -4.288738      3.074369
  H       1.102100     -3.702788      2.011198
  H       5.069388     -0.791936     -2.591966
  C       3.953270     -2.617214     -2.092939
  C       4.281509     -1.440374     -3.033119
  H       4.889969     -3.073309     -1.704373
  H       3.409131     -3.436360     -2.622304
  Si      4.800556     -1.957058     -4.796662
  H       3.389866     -0.784087     -3.175042
  C       3.224548     -2.541187     -5.701249
  C       6.069333     -3.364565     -4.756341
  C       5.510075     -0.465451     -5.728429
  H       2.699176     -3.333398     -5.124614
  H       3.443496     -2.964044     -6.703322
  H       2.545408     -1.674860     -5.859691
  H       5.668821     -4.253681     -4.227599
  H       6.994259     -3.049138     -4.230193
  H       6.355513     -3.678709     -5.781546
  H       4.785026      0.374400     -5.750582
  H       5.760820     -0.724943     -6.778121
  H       6.436999     -0.096139     -5.242745
  H       1.044425     -2.157764     -4.772805
  H       3.570454      0.154618      0.301733
