71

Pt         2.23014       -1.32197       -0.81843
O          1.29487       -0.23776        0.55160
O          0.71887       -0.99061       -2.10676
P          2.19874        1.26095        0.52944
P         -0.27488       -2.40148       -2.42545
O          0.30000       -3.77219       -1.54933
O          0.86904       -2.97196       -3.59620
O          2.39766        1.12222       -1.18820
O          3.92336        1.20329        0.73559
C          1.88917        1.65682        2.35889
C         -1.61922       -1.20493       -3.02994
C         -2.60215       -2.03577       -3.87340
C         -1.06586       -0.07129       -3.92915
C         -2.35768       -0.60962       -1.82335
C          0.38415        1.88814        2.56537
C          2.36639        0.52280        3.28108
C          2.64150        2.95572        2.71899
H         -0.18730       -4.54649       -1.93096
H          1.63105        1.61832       -1.56953
H         -2.07950       -2.47862       -4.75003
H         -3.43404       -1.40341       -4.25229
H         -3.03583       -2.86484       -3.27468
H         -0.49827       -0.49565       -4.78512
H         -0.40369        0.62567       -3.37515
H         -1.89853        0.54491       -4.33135
H         -2.79418       -1.42030       -1.20056
H         -3.18339        0.05385       -2.16083
H         -1.66292       -0.01663       -1.19239
H         -0.19447        0.97229        2.32231
H          0.02608        2.71258        1.91151
H          0.17152        2.16282        3.62132
H          1.81102       -0.41260        3.06754
H          2.18661        0.78798        4.34555
H          3.45424        0.34007        3.15774
H          2.31461        3.79028        2.06171
H          3.73918        2.83451        2.60333
H          2.44636        3.24523        3.77400
Si         2.32641       -3.27296        0.76489
C          2.84975       -4.86405       -0.07926
C          3.61931       -2.95864        2.07245
C          0.67300       -3.50057        1.61796
H          3.85474       -4.72667       -0.52712
H          2.14228       -5.17083       -0.87011
H          2.90047       -5.67212        0.67956
H          3.37021       -2.04829        2.64339
H          4.61017       -2.83412        1.59129
H          3.65107       -3.82321        2.76761
H          0.41170       -2.57230        2.16590
H          0.74356       -4.34169        2.33783
H         -0.12761       -3.72245        0.88684
H          3.77142       -0.22667       -3.17983
C          3.46680       -2.20687       -2.30009
C          3.46544       -1.24684       -3.48938
H          4.48993       -2.33213       -1.88808
H          3.07847       -3.20072       -2.59768
Si         4.51806       -1.77745       -4.93899
H          2.43359       -1.16880       -3.86994
C          4.85520       -3.61339       -4.92945
C          6.12221       -0.82482       -4.91141
C          3.57464       -1.33570       -6.48990
H          5.42510       -3.87429       -4.01368
H          5.45776       -3.87767       -5.82251
H          3.89785       -4.17214       -4.94516
H          6.68423       -1.05622       -3.98477
H          5.89397        0.26157       -4.94394
H          6.72798       -1.09545       -5.80011
H          2.61675       -1.89763       -6.50005
H          4.17037       -1.60933       -7.38377
H          3.35863       -0.24785       -6.49967
H          0.32688       -3.46624       -4.26136
H          4.14122        0.23793        0.79037
