69
Coordinates from ORCA-job my_molecule_initial_path E   0.000000000000
  Pt      0.376166     -0.870829      0.215123
  O       1.124523     -0.029065      1.884998
  O      -2.899522     -1.228484      0.013525
  P       2.303036      1.007785      2.174252
  P      -2.090693     -2.278899     -0.728836
  O      -1.784285     -3.578885      0.274990
  O      -0.642061     -1.849928     -1.266836
  O       1.774088      2.444571      1.492659
  O       3.706139      0.698195      1.688729
  C       2.179219      1.288312      4.008074
  C      -2.934583     -3.015522     -2.208470
  C      -2.083025     -4.156281     -2.792115
  C      -3.132284     -1.888271     -3.241077
  C      -4.299662     -3.542282     -1.722970
  C       0.754762      1.732579      4.383955
  C       2.546367     -0.034191      4.708934
  C       3.205475      2.383079      4.361015
  H      -2.330919     -3.445928      1.075042
  H       2.561144      2.863604      1.091360
  H      -1.100605     -3.787107     -3.146314
  H      -2.611416     -4.616812     -3.654207
  H      -1.901666     -4.946814     -2.037098
  H      -2.160165     -1.502627     -3.607052
  H      -3.698485     -1.041036     -2.803806
  H      -3.702999     -2.272699     -4.112942
  H      -4.175515     -4.355285     -0.979355
  H      -4.872633     -3.950170     -2.582304
  H      -4.895776     -2.733428     -1.255617
  H       0.009402      0.954367      4.128429
  H       0.473929      2.666518      3.857487
  H       0.697603      1.923628      5.476898
  H       1.823950     -0.836525      4.460404
  H       2.537105      0.110267      5.810265
  H       3.559046     -0.376120      4.415132
  H       2.954022      3.344465      3.868777
  H       4.226507      2.088835      4.046864
  H       3.210299      2.554156      5.458153
  Si      2.401045     -1.714184     -0.728797
  C       3.368579     -0.266975     -1.454308
  C       3.311364     -2.499255      0.726876
  C       1.999887     -2.997383     -2.053753
  H       3.664238      0.417534     -0.633685
  H       2.798141      0.278223     -2.232347
  H       4.291187     -0.669268     -1.926286
  H       2.679690     -3.214429      1.290666
  H       3.670835     -1.697407      1.402044
  H       4.186121     -3.057862      0.328047
  H       1.405657     -3.836038     -1.642469
  H       2.960395     -3.399610     -2.443346
  H       1.431697     -2.554678     -2.894006
  H      -2.028140      0.873216     -0.192357
  C       0.044309      0.876421     -0.837792
  C      -1.132126      1.534696     -0.191045
  H      -0.132553      0.526276     -1.874245
  H       0.989325      1.443343     -0.741517
  Si     -1.643334      3.175029     -1.073152
  H      -0.900009      1.830954      0.853680
  C      -0.165436      4.361713     -1.062740
  C      -3.080461      3.899024     -0.077033
  C      -2.190923      2.803161     -2.848514
  H       0.260363      4.433497     -0.040714
  H      -0.461407      5.379886     -1.389851
  H       0.639767      4.011696     -1.741338
  H      -2.774228      4.118959      0.966245
  H      -3.935734      3.193758     -0.038915
  H      -3.437940      4.845831     -0.532931
  H      -1.358726      2.392188     -3.456412
  H      -2.549678      3.724620     -3.352588
  H      -3.018392      2.063891     -2.863486
69
Coordinates from ORCA-job my_molecule_initial_path E   0.000000000000
  Pt      0.216384     -0.987104      0.470702
  O       0.867055     -0.029936      2.101198
  O      -2.909107     -1.389004      0.244221
  P       2.040611      1.024267      2.295763
  P      -2.127242     -2.425276     -0.553724
  O      -1.820587     -3.783526      0.358955
  O      -0.688768     -1.978812     -1.065712
  O       1.592041      2.510778      1.689818
  O       3.429618      0.750657      1.744255
  C       2.038490      1.271683      4.126147
  C      -2.967964     -3.065131     -2.072211
  C      -2.123583     -4.176472     -2.718606
  C      -3.166495     -1.891946     -3.050081
  C      -4.334944     -3.597493     -1.602001
  C       0.657768      1.777885      4.574115
  C       2.380477     -0.078562      4.782686
  C       3.137289      2.314345      4.408139
  H      -2.271424     -3.661527      1.217436
  H       2.344462      2.937626      1.234066
  H      -1.139859     -3.799164     -3.059975
  H      -2.657295     -4.580639     -3.605041
  H      -1.947292     -5.010258     -2.011147
  H      -2.194116     -1.502071     -3.407872
  H      -3.736909     -1.069003     -2.575757
  H      -3.737300     -2.226404     -3.942190
  H      -4.213506     -4.450589     -0.905010
  H      -4.914332     -3.951513     -2.480383
  H      -4.921477     -2.809018     -1.089688
  H      -0.136686      1.036649      4.361178
  H       0.389529      2.729294      4.073861
  H       0.679561      1.958437      5.669780
  H       1.608560     -0.847312      4.582706
  H       2.444699      0.058230      5.882826
  H       3.357363     -0.462703      4.428041
  H       2.903092      3.299863      3.956986
  H       4.125209      1.977805      4.035184
  H       3.220195      2.467323      5.504222
  Si      2.470167     -1.567809     -0.928610
  C       3.499658     -0.251830     -1.783573
  C       3.388289     -2.337148      0.528243
  C       1.959549     -2.904793     -2.154792
  H       3.847975      0.487585     -1.035940
  H       2.953521      0.247079     -2.607879
  H       4.396623     -0.742981     -2.219109
  H       2.753222     -2.984549      1.165694
  H       3.859864     -1.555462      1.153234
  H       4.222960     -2.965910      0.148009
  H       1.360396     -3.695779     -1.664009
  H       2.883241     -3.384343     -2.544925
  H       1.384217     -2.500103     -3.008742
  H      -1.869091      0.872181     -0.467620
  C       0.231655      0.918160     -1.099114
  C      -0.965884      1.521339     -0.433262
  H       0.072393      0.626990     -2.155361
  H       1.158040      1.512380     -1.003475
  Si     -1.514170      3.197378     -1.171742
  H      -0.807715      1.768352      0.637028
  C      -0.061787      4.398446     -1.049082
  C      -2.984652      3.777114     -0.126321
  C      -2.035537      2.917742     -2.964226
  H       0.328317      4.435258     -0.011881
  H      -0.383339      5.424310     -1.322304
  H       0.768016      4.113240     -1.727102
  H      -2.708667      3.905252      0.940810
  H      -3.832364      3.062914     -0.169331
  H      -3.345787      4.756439     -0.501535
  H      -1.190454      2.566637     -3.590291
  H      -2.409111      3.868567     -3.396372
  H      -2.853064      2.171970     -3.039308
69
Coordinates from ORCA-job my_molecule_initial_path E   0.000000000000
  Pt      0.049533     -1.080225      0.723033
  O       0.556559     -0.018004      2.319269
  O      -2.905107     -1.523603      0.454451
  P       1.739968      1.035287      2.424637
  P      -2.157593     -2.557417     -0.388392
  O      -1.858257     -3.969275      0.432429
  O      -0.721885     -2.093006     -0.857066
  O       1.382018      2.570296      1.885244
  O       3.084447      0.725364      1.798369
  C       1.906185      1.254993      4.238351
  C      -2.994276     -3.107308     -1.938930
  C      -2.158198     -4.187767     -2.645379
  C      -3.195167     -1.892585     -2.862625
  C      -4.364707     -3.644876     -1.486848
  C       0.577500      1.822280      4.761813
  C       2.222686     -0.121985      4.849054
  C       3.074591      2.238227      4.441075
  H      -2.201438     -3.865578      1.340952
  H       2.105349      2.979523      1.369713
  H      -1.171768     -3.803135     -2.969945
  H      -2.695629     -4.536653     -3.552612
  H      -1.988339     -5.060999     -1.986212
  H      -2.220138     -1.500317     -3.207524
  H      -3.771411     -1.095913     -2.353235
  H      -3.763711     -2.178146     -3.773046
  H      -4.247177     -4.533831     -0.836223
  H      -4.949785     -3.947092     -2.380465
  H      -4.941226     -2.877929     -0.931991
  H      -0.264760      1.122734      4.596637
  H       0.323376      2.792253      4.290990
  H       0.681952      1.986550      5.854780
  H       1.405380     -0.855221      4.704113
  H       2.364790      0.003443      5.942872
  H       3.155018     -0.547895      4.429206
  H       2.864699      3.246208      4.029557
  H       4.019881      1.859218      4.003209
  H       3.237961      2.370942      5.530365
  Si      2.515087     -1.408799     -1.121844
  C       3.620033     -0.245442     -2.096351
  C       3.464912     -2.141965      0.337999
  C       1.916196     -2.802699     -2.239580
  H       4.016369      0.541313     -1.424722
  H       3.099156      0.200687     -2.965936
  H       4.485017     -0.822687     -2.488664
  H       2.828337     -2.709636      1.045345
  H       4.047138     -1.368935      0.874783
  H       4.239364     -2.862507     -0.009234
  H       1.314781     -3.539655     -1.673594
  H       2.798841     -3.359829     -2.622346
  H       1.330732     -2.441468     -3.105856
  H      -1.680392      0.852490     -0.754499
  C       0.444148      0.940998     -1.349932
  C      -0.778849      1.498010     -0.686840
  H       0.281488      0.728066     -2.424983
  H       1.335892      1.585624     -1.244090
  Si     -1.388104      3.206909     -1.260874
  H      -0.678502      1.691966      0.398071
  C       0.032575      4.423807     -1.039488
  C      -2.882900      3.648375     -0.177125
  C      -1.889932      3.023889     -3.066477
  H       0.386546      4.431351      0.010179
  H      -0.314785      5.452986     -1.264029
  H       0.888361      4.199217     -1.706743
  H      -2.632971      3.680375      0.903927
  H      -3.720696      2.931377     -0.297895
  H      -3.253042      4.652807     -0.465828
  H      -1.031557      2.736298     -3.705979
  H      -2.281704      3.997208     -3.424579
  H      -2.692862      2.271311     -3.202442
69
Coordinates from ORCA-job my_molecule_initial_path E   0.000000000000
  Pt     -0.124348     -1.138203      0.963221
  O       0.197381      0.036172      2.523242
  O      -2.896542     -1.647602      0.647239
  P       1.420377      1.047291      2.559065
  P      -2.177857     -2.678015     -0.234957
  O      -1.895403     -4.135988      0.497341
  O      -0.741629     -2.191863     -0.646392
  O       1.136298      2.610899      2.066996
  O       2.686482      0.627668      1.853978
  C       1.780476      1.236762      4.337282
  C      -3.013261     -3.142633     -1.809621
  C      -2.186275     -4.191046     -2.572806
  C      -3.215093     -1.886959     -2.675693
  C      -4.388329     -3.685155     -1.378216
  C       0.515093      1.863612      4.943660
  C       2.068616     -0.164459      4.904157
  C       3.012292      2.154762      4.449284
  H      -2.116485     -4.058459      1.445009
  H       1.835506      2.989588      1.497660
  H      -1.195854     -3.800705     -2.877474
  H      -2.726468     -4.485172     -3.497490
  H      -2.024370     -5.100005     -1.962204
  H      -2.235385     -1.497253     -3.008096
  H      -3.789992     -1.115921     -2.127426
  H      -3.782519     -2.123227     -3.600870
  H      -4.276201     -4.606215     -0.773531
  H      -4.978169     -3.936894     -2.284124
  H      -4.955663     -2.941030     -0.783927
  H      -0.371866      1.209444      4.833623
  H       0.277681      2.853026      4.505555
  H       0.705202      2.006253      6.027434
  H       1.211132     -0.859156      4.812298
  H       2.289998     -0.054335      5.986098
  H       2.949536     -0.631060      4.421892
  H       2.831757      3.180828      4.070292
  H       3.902982      1.733526      3.940867
  H       3.258532      2.267174      5.525049
  Si      2.551575     -1.246769     -1.316755
  C       3.726714     -0.252624     -2.397679
  C       3.526844     -1.915375      0.162853
  C       1.871910     -2.692859     -2.313965
  H       4.170279      0.576141     -1.810828
  H       3.227603      0.134497     -3.307526
  H       4.556514     -0.909393     -2.737128
  H       2.876703     -2.408508      0.911663
  H       4.166270     -1.126363      0.606526
  H       4.254202     -2.708681     -0.123199
  H       1.264979     -3.361670     -1.675237
  H       2.711580     -3.327260     -2.673334
  H       1.276077     -2.378640     -3.191435
  H      -1.461460      0.811392     -1.029851
  C       0.671482      0.967410     -1.593435
  C      -0.576682      1.470272     -0.932299
  H       0.492519      0.830609     -2.679195
  H       1.523103      1.661326     -1.458859
  Si     -1.258719      3.195676     -1.334240
  H      -0.490482      1.586971      0.159201
  C       0.122533      4.435325     -1.031694
  C      -2.768712      3.508662     -0.227101
  C      -1.751604      3.119590     -3.148732
  H       0.449294      4.420613      0.025416
  H      -0.252541      5.463635     -1.212715
  H       1.003330      4.267822     -1.682303
  H      -2.537582      3.441294      0.856554
  H      -3.595233      2.794927     -0.421454
  H      -3.153507      4.529496     -0.424911
  H      -0.882732      2.897724     -3.800007
  H      -2.164702      4.107591     -3.434042
  H      -2.537184      2.361518     -3.342705
69
Coordinates from ORCA-job my_molecule_initial_path E   0.000000000000
  Pt     -0.300052     -1.156731      1.177202
  O      -0.172577      0.127002      2.691804
  O      -2.882929     -1.772432      0.833688
  P       1.110713      1.054192      2.685219
  P      -2.184957     -2.791572     -0.089433
  O      -1.931807     -4.287795      0.559374
  O      -0.747508     -2.281021     -0.435610
  O       0.832742      2.618091      2.232430
  O       2.274254      0.511690      1.895202
  C       1.656571      1.214295      4.413347
  C      -3.025212     -3.171645     -1.680296
  C      -2.208947     -4.186680     -2.498616
  C      -3.224014     -1.873065     -2.480745
  C      -4.405735     -3.718616     -1.272162
  C       0.468141      1.895654      5.112083
  C       1.913089     -0.206929      4.943843
  C       2.939313      2.066456      4.428793
  H      -2.010404     -4.242507      1.531028
  H       1.499205      2.989916      1.624231
  H      -1.213474     -3.793026     -2.781759
  H      -2.751947     -4.424424     -3.437625
  H      -2.056632     -5.128617     -1.937842
  H      -2.238313     -1.489849     -2.800938
  H      -3.783831     -1.123828     -1.888947
  H      -3.793072     -2.057336     -3.416588
  H      -4.300917     -4.669370     -0.714442
  H      -4.999713     -3.918837     -2.188064
  H      -4.964321     -2.998760     -0.640671
  H      -0.457597      1.288985      5.060960
  H       0.250879      2.905323      4.710857
  H       0.744077      2.011905      6.179897
  H       1.018737     -0.858424      4.902074
  H       2.213373     -0.115797      6.008189
  H       2.736182     -0.712745      4.403018
  H       2.789238      3.104483      4.070612
  H       3.765920      1.605606      3.851440
  H       3.269340      2.159055      5.483911
  Si      2.585381     -1.084081     -1.516996
  C       3.821416     -0.274626     -2.686944
  C       3.562927     -1.664574     -0.001568
  C       1.824914     -2.571908     -2.385488
  H       4.312751      0.587413     -2.192598
  H       3.340074      0.047516     -3.631285
  H       4.613442     -1.004416     -2.960202
  H       2.890192     -2.103219      0.760712
  H       4.200430     -0.841848      0.380933
  H       4.271808     -2.496927     -0.211093
  H       1.204497     -3.151361     -1.677952
  H       2.617994     -3.284341     -2.701778
  H       1.220158     -2.306266     -3.273031
  H      -1.221506      0.752453     -1.280146
  C       0.903041      1.005036     -1.821130
  C      -0.368099      1.440674     -1.146029
  H       0.703378      0.936525     -2.910232
  H       1.716531      1.736038     -1.643263
  Si     -1.117006      3.158792     -1.389330
  H      -0.250988      1.445436     -0.055265
  C       0.215404      4.431312     -1.025590
  C      -2.639397      3.359651     -0.279766
  C      -1.612738      3.203765     -3.207637
  H       0.540207      4.404902      0.030252
  H      -0.191726      5.454819     -1.163876
  H       1.116033      4.318304     -1.660958
  H      -2.423934      3.193700      0.796072
  H      -3.454877      2.655925     -0.544257
  H      -3.041845      4.387941     -0.384151
  H      -0.737639      3.049067     -3.870320
  H      -2.049417      4.199036     -3.424278
  H      -2.379221      2.442615     -3.458271
69
Coordinates from ORCA-job my_molecule_initial_path E   0.000000000000
  Pt     -0.473418     -1.142009      1.344343
  O      -0.514013      0.210263      2.824191
  O      -2.857848     -1.898950      1.015192
  P       0.831708      1.028954      2.794726
  P      -2.175197     -2.897791      0.046546
  O      -1.967474     -4.423985      0.622883
  O      -0.732307     -2.372477     -0.231196
  O       0.491570      2.570727      2.432785
  O       1.883683      0.400222      1.915596
  C       1.533527      1.185869      4.466434
  C      -3.029244     -3.192904     -1.551654
  C      -2.225583     -4.173917     -2.423060
  C      -3.217962     -1.850554     -2.278590
  C      -4.415591     -3.743480     -1.168702
  C       0.433518      1.910651      5.263512
  C       1.761673     -0.249560      4.971097
  C       2.845383      1.985471      4.371712
  H      -1.888570     -4.413889      1.595596
  H       0.972760      3.019643      1.726161
  H      -1.224480     -3.779406     -2.684706
  H      -2.771750     -4.353694     -3.372882
  H      -2.085074     -5.146024     -1.912960
  H      -2.225203     -1.469341     -2.575965
  H      -3.755454     -1.120541     -1.644376
  H      -3.786805     -1.981362     -3.223095
  H      -4.320528     -4.721519     -0.658780
  H      -5.013005     -3.890946     -2.092270
  H      -4.965426     -3.048835     -0.502235
  H      -0.522855      1.350250      5.269024
  H       0.238997      2.942131      4.907456
  H       0.792688      1.997885      6.308792
  H       0.835845     -0.857202      4.981486
  H       2.138594     -0.176429      6.011886
  H       2.522700     -0.789025      4.375142
  H       2.712769      3.021351      4.002562
  H       3.603881      1.487576      3.735334
  H       3.258773      2.064823      5.398198
  Si      2.616832     -0.925881     -1.717946
  C       3.901213     -0.309385     -2.955108
  C       3.577904     -1.400434     -0.160093
  C       1.772881     -2.440667     -2.453769
  H       4.438257      0.573953     -2.554053
  H       3.433020     -0.055433     -3.926722
  H       4.654061     -1.101860     -3.152095
  H       2.878804     -1.774977      0.611127
  H       4.196092     -0.546668      0.182204
  H       4.270086     -2.262417     -0.287555
  H       1.129604     -2.906115     -1.686595
  H       2.514216     -3.228652     -2.708141
  H       1.163298     -2.222634     -3.351383
  H      -0.978562      0.685645     -1.492235
  C       1.121496      1.048008     -2.019254
  C      -0.162703      1.404510     -1.302731
  H       0.900550      1.039547     -3.106572
  H       1.902331      1.804535     -1.800011
  Si     -0.959521      3.104066     -1.429059
  H       0.008951      1.285401     -0.225335
  C       0.327839      4.410460     -1.020393
  C      -2.498159      3.210845     -0.335059
  C      -1.471265      3.275078     -3.243530
  H       0.739351      4.392571      0.004582
  H      -0.125010      5.422122     -1.100318
  H       1.221780      4.351648     -1.676311
  H      -2.298562      2.950803      0.724321
  H      -3.304305      2.523838     -0.665315
  H      -2.916357      4.238482     -0.348152
  H      -0.594842      3.184442     -3.916992
  H      -1.930761      4.272153     -3.398246
  H      -2.218804      2.515038     -3.549447
69
Coordinates from ORCA-job my_molecule_initial_path E   0.000000000000
  Pt     -0.633409     -1.106464      1.461137
  O      -0.786165      0.308182      2.907958
  O      -2.813586     -2.017520      1.186271
  P       0.595286      1.053247      2.849613
  P      -2.145594     -2.990847      0.168673
  O      -1.995333     -4.538935      0.687523
  O      -0.692148     -2.461191     -0.046479
  O       0.657913      2.615162      2.447964
  O       1.508369      0.257327      1.926231
  C       1.418389      1.163511      4.479184
  C      -3.024631     -3.204782     -1.427534
  C      -2.235255     -4.152886     -2.348177
  C      -3.195024     -1.822286     -2.080632
  C      -4.416261     -3.759367     -1.069600
  C       0.404088      1.937001      5.342269
  C       1.610513     -0.278758      4.979843
  C       2.757779      1.907213      4.313664
  H      -1.768702     -4.566044      1.637123
  H       0.044228      2.975318      1.801797
  H      -1.228852     -3.758525     -2.589739
  H      -2.784907     -4.276364     -3.304764
  H      -2.108342     -5.151449     -1.887637
  H      -2.195782     -1.431470     -2.340444
  H      -3.717708     -1.114190     -1.410405
  H      -3.759896     -1.902848     -3.032448
  H      -4.332538     -4.761254     -0.606222
  H      -5.017077     -3.855280     -1.997733
  H      -4.957509     -3.090538     -0.370552
  H      -0.575631      1.421656      5.400446
  H       0.240760      2.975065      4.991374
  H       0.821619      2.002350      6.367393
  H       0.658139     -0.841013      5.040344
  H       2.049449     -0.224173      5.997163
  H       2.309682     -0.853432      4.342201
  H       2.651454      2.946156      3.942650
  H       3.448145      1.371622      3.632182
  H       3.232208      1.964149      5.314891
  Si      2.641906     -0.778687     -1.910659
  C       3.960377     -0.351395     -3.192762
  C       3.579017     -1.141553     -0.312650
  C       1.714609     -2.307628     -2.507852
  H       4.538439      0.542446     -2.881302
  H       3.500292     -0.163849     -4.183467
  H       4.675408     -1.192335     -3.311389
  H       2.849675     -1.405261      0.473753
  H       4.198649     -0.275092     -0.008815
  H       4.230720     -2.041900     -0.351531
  H       1.046160     -2.648245     -1.697800
  H       2.405052     -3.157089     -2.694656
  H       1.106436     -2.132984     -3.416741
  H      -0.757625      0.612575     -1.654817
  C       1.310256      1.081397     -2.178574
  C       0.023025      1.354859     -1.409879
  H       1.069839      1.128377     -3.261431
  H       2.062817      1.861338     -1.938038
  Si     -0.816270      3.040992     -1.464348
  H       0.245815      1.158249     -0.349485
  C       0.448596      4.339664     -0.921257
  C      -2.388839      3.064506     -0.403190
  C      -1.326520      3.339965     -3.262118
  H       0.883777      4.208422      0.090478
  H      -0.020609      5.345340     -0.939144
  H       1.332675      4.355688     -1.593934
  H      -2.244886      2.700585      0.635380
  H      -3.180449      2.400070     -0.808671
  H      -2.812966      4.088036     -0.334125
  H      -0.444090      3.310721     -3.933047
  H      -1.800211      4.338168     -3.357443
  H      -2.054747      2.586276     -3.626012
69
Coordinates from ORCA-job my_molecule_initial_path E   0.000000000000
  Pt     -0.800768     -1.085573      1.570176
  O      -1.067411      0.383512      2.993648
  O      -2.745594     -2.158666      1.381366
  P       0.354119      1.058156      2.888483
  P      -2.089890     -3.093056      0.304850
  O      -2.012133     -4.660574      0.764965
  O      -0.625520     -2.550820      0.137703
  O       0.396039      2.629906      2.461877
  O       1.117776      0.153183      1.893617
  C       1.262269      1.136028      4.477903
  C      -3.010547     -3.211182     -1.279143
  C      -2.240161     -4.119786     -2.255794
  C      -3.151127     -1.786662     -1.846203
  C      -4.407398     -3.772051     -0.949423
  C       0.359907      1.959019      5.417227
  C       1.423677     -0.311045      4.980702
  C       2.626328      1.812106      4.241715
  H      -1.635470     -4.738866      1.663916
  H      -0.255720      2.846725      1.773484
  H      -1.227998     -3.726175     -2.475141
  H      -2.795307     -4.177675     -3.215318
  H      -2.130646     -5.146062     -1.854909
  H      -2.147948     -1.375943     -2.060513
  H      -3.668157     -1.110674     -1.138600
  H      -3.714604     -1.810645     -2.801504
  H      -4.338308     -4.799400     -0.542641
  H      -5.013757     -3.806139     -1.878426
  H      -4.938169     -3.136719     -0.212229
  H      -0.639435      1.494637      5.537347
  H       0.227462      3.001573      5.067223
  H       0.843010      1.997942      6.415034
  H       0.448265     -0.821564      5.103939
  H       1.930020     -0.281959      5.967480
  H       2.045845     -0.919645      4.295954
  H       2.535114      2.853184      3.874391
  H       3.242564      1.243849      3.517086
  H       3.170543      1.842216      5.208469
  Si      2.667527     -0.621074     -2.131069
  C       4.006820     -0.406589     -3.448741
  C       3.553281     -0.840044     -0.479395
  C       1.638576     -2.147833     -2.552650
  H       4.628847      0.488719     -3.242823
  H       3.553369     -0.297895     -4.454847
  H       4.680093     -1.288612     -3.473908
  H       2.797081     -0.917595      0.322553
  H       4.220065      0.015500     -0.250154
  H       4.139562     -1.781089     -0.415216
  H       0.950623     -2.357133     -1.712061
  H       2.279359     -3.046446     -2.670048
  H       1.036859     -2.021090     -3.475281
  H      -0.531915      0.529052     -1.813128
  C       1.498388      1.118838     -2.340148
  C       0.218768      1.286481     -1.511527
  H       1.244026      1.219517     -3.417630
  H       2.222041      1.926015     -2.093574
  Si     -0.651357      2.965602     -1.503338
  H       0.457337      1.043129     -0.458576
  C       0.557533      4.262735     -0.829362
  C      -2.240419      2.892663     -0.462005
  C      -1.153490      3.410923     -3.275010
  H       0.938544      4.037276      0.188205
  H       0.075678      5.261741     -0.796298
  H       1.458747      4.344621     -1.472949
  H      -2.108148      2.428187      0.538215
  H      -3.012902      2.257402     -0.944702
  H      -2.682007      3.899340     -0.307763
  H      -0.264579      3.451634     -3.936990
  H      -1.645588      4.404822     -3.304511
  H      -1.859589      2.670049     -3.703976
69
Coordinates from ORCA-job my_molecule_initial_path E   0.000000000000
  Pt     -0.945524     -1.087972      1.691796
  O      -1.336707      0.450360      3.062880
  O      -2.656325     -2.293753      1.580620
  P       0.120027      1.043936      2.910799
  P      -2.022970     -3.191492      0.444647
  O      -2.014641     -4.774941      0.846853
  O      -0.557218     -2.613437      0.305157
  O       0.082455      2.619010      2.476744
  O       0.769928      0.121662      1.800519
  C       1.085604      1.109251      4.474846
  C      -2.987737     -3.210693     -1.121332
  C      -2.238833     -4.078539     -2.153211
  C      -3.085331     -1.749024     -1.604452
  C      -4.389228     -3.779360     -0.818677
  C       0.307468      1.970974      5.489626
  C       1.217267     -0.342928      4.977918
  C       2.472954      1.710346      4.171568
  H      -1.514468     -4.909143      1.678061
  H      -0.491063      2.754536      1.690884
  H      -1.221112     -3.686539     -2.352252
  H      -2.801339     -4.070224     -3.110290
  H      -2.149614     -5.129451     -1.815234
  H      -2.082362     -1.315583     -1.788664
  H      -3.604216     -1.110489     -0.862510
  H      -3.658466     -1.718470     -2.554208
  H      -4.337420     -4.829931     -0.472378
  H      -5.003036     -3.749106     -1.743186
  H      -4.908433     -3.181187     -0.043233
  H      -0.706078      1.561007      5.671941
  H       0.203505      3.017398      5.142299
  H       0.853733      1.978984      6.455943
  H       0.224908     -0.798990      5.164345
  H       1.786833     -0.347196      5.930395
  H       1.755572     -0.977403      4.246680
  H       2.396768      2.755274      3.812748
  H       3.013324      1.117150      3.406684
  H       3.082318      1.707375      5.099596
  Si      2.687914     -0.466310     -2.353154
  C       4.034403     -0.458753     -3.695911
  C       3.498676     -0.543802     -0.639990
  C       1.559488     -1.974369     -2.591762
  H       4.699406      0.424606     -3.596717
  H       3.590677     -0.432925     -4.713152
  H       4.671022     -1.365884     -3.631195
  H       2.740149     -0.467107      0.166907
  H       4.226077      0.284560     -0.507484
  H       4.047260     -1.498914     -0.502131
  H       0.863716     -2.087142     -1.733963
  H       2.161318     -2.904990     -2.658198
  H       0.963663     -1.892273     -3.525256
  H      -0.331249      0.444148     -1.957736
  C       1.673272      1.148474     -2.501644
  C       0.406119      1.206891     -1.619430
  H       1.409438      1.299314     -3.572929
  H       2.365280      1.985771     -2.252091
  Si     -0.479890      2.887902     -1.545552
  H       0.642348      0.921732     -0.569421
  C       0.666443      4.181417     -0.752133
  C      -2.062820      2.708057     -0.496351
  C      -0.970809      3.480716     -3.280544
  H       0.986964      3.882941      0.267880
  H       0.170396      5.171583     -0.678206
  H       1.587176      4.314964     -1.357212
  H      -1.901721      2.177644      0.468322
  H      -2.811718      2.094694     -1.040258
  H      -2.533669      3.689295     -0.278678
  H      -0.078869      3.591570     -3.931249
  H      -1.483179      4.464502     -3.243265
  H      -1.657824      2.760277     -3.771419
