69
Coordinates from ORCA-job my_molecule_reactant E -2464.548144327632
  Pt      0.471826     -0.463057      0.238785
  O       1.219489      0.378979      1.908980
  O      -2.806747     -0.818891      0.028788
  P       2.399646      1.414007      2.198372
  P      -1.994737     -1.871203     -0.707365
  O      -1.688376     -3.166451      0.302589
  O      -0.545480     -1.442367     -1.243981
  O       1.871969      2.851946      1.518640
  O       3.801756      1.102955      1.710899
  C       2.278230      1.693140      4.032507
  C      -2.834750     -2.615387     -2.185327
  C      -1.980349     -3.757291     -2.762472
  C      -3.032419     -1.493260     -3.223477
  C      -4.199755     -3.142029     -1.699597
  C       0.855265      2.140194      4.410200
  C       2.643555      0.369250      4.731823
  C       3.307297      2.785408      4.385283
  H      -2.236708     -3.030696      1.101019
  H       2.659217      3.270562      1.117296
  H      -0.998070     -3.388023     -3.116942
  H      -2.506723     -4.222540     -3.623280
  H      -1.798704     -4.544252     -2.003799
  H      -2.060415     -1.107551     -3.589617
  H      -3.601174     -0.645066     -2.791503
  H      -3.600664     -1.882899     -4.094665
  H      -4.075402     -3.951584     -0.952258
  H      -4.770898     -3.554496     -2.557970
  H      -4.797767     -2.332093     -1.236591
  H       0.107996      1.363448      4.155712
  H       0.575781      3.074668      3.883892
  H       0.800107      2.331386      5.503216
  H       1.919208     -0.431394      4.483436
  H       2.636058      0.512662      5.833302
  H       3.655121      0.025373      4.436477
  H       3.057389      3.747737      3.894065
  H       4.327301      2.489206      4.069691
  H       3.313774      2.955642      5.482535
  Si      2.496795     -1.306525     -0.704947
  C       3.463827      0.140375     -1.431698
  C       3.407559     -2.090029      0.751360
  C       2.096130     -2.591011     -2.028789
  H       3.759468      0.825371     -0.611498
  H       2.893152      0.684920     -2.210015
  H       4.386603     -0.261843     -1.903413
  H       2.776293     -2.805292      1.315514
  H       3.766524     -1.287639      1.426186
  H       4.282829     -2.648229      0.353041
  H       1.501376     -3.429102     -1.617126
  H       3.056865     -2.993826     -2.417223
  H       1.528662     -2.149086     -2.869949
  H      -1.931865      1.283000     -0.168378
  C       0.140976      1.285351     -0.812775
  C      -1.035213      1.943555     -0.165604
  H      -0.035838      0.936363     -1.849590
  H       1.086289      1.851549     -0.715716
  Si     -1.544082      3.585418     -1.046232
  H      -0.803335      2.238153      0.879635
  C      -0.064504      4.769927     -1.034648
  C      -2.980346      4.310532     -0.049719
  C      -2.092022      3.216241     -2.822067
  H       0.362035      4.839640     -0.012727
  H      -0.359260      5.788982     -1.360101
  H       0.739775      4.419695     -1.714226
  H      -2.674200      4.529468      0.993805
  H      -3.836510      3.606309     -0.012322
  H      -3.336572      5.258076     -0.505082
  H      -1.260571      2.804250     -3.430297
  H      -2.448922      4.138872     -3.325313
  H      -2.920908      2.478574     -2.837790
69
Coordinates from ORCA-job my_molecule_reactant E -2464.548144019663
  Pt      0.472747     -0.463524      0.239234
  O       1.220809      0.378596      1.909184
  O      -2.804186     -0.822000      0.034399
  P       2.397719      1.417429      2.198025
  P      -1.993461     -1.872832     -0.705285
  O      -1.686241     -3.170526      0.301264
  O      -0.544841     -1.443174     -1.242869
  O       1.864013      2.854339      1.520619
  O       3.800336      1.111982      1.708475
  C       2.277629      1.693981      4.032668
  C      -2.835456     -2.613301     -2.184031
  C      -1.982096     -3.754097     -2.764932
  C      -3.033953     -1.488456     -3.219087
  C      -4.200123     -3.140755     -1.698176
  C       0.853232      2.134594      4.412801
  C       2.649292      0.370830      4.729979
  C       3.302515      2.790156      4.385355
  H      -2.233597     -3.036589      1.100664
  H       2.649215      3.276098      1.118551
  H      -1.000027     -3.384322     -3.119464
  H      -2.509502     -4.217047     -3.626339
  H      -1.799991     -4.542934     -2.008319
  H      -2.062171     -1.102256     -3.585342
  H      -3.601680     -0.641096     -2.784087
  H      -3.603526     -1.875535     -4.090538
  H      -4.075299     -3.952160     -0.952927
  H      -4.772222     -3.550988     -2.556978
  H      -4.797434     -2.331744     -1.232640
  H       0.108876      1.355193      4.157934
  H       0.569176      3.068762      3.888438
  H       0.798503      2.323786      5.506188
  H       1.927964     -0.432526      4.481583
  H       2.642502      0.512998      5.831625
  H       3.661936      0.031571      4.432991
  H       3.047902      3.752001      3.895626
  H       4.323367      2.498640      4.068118
  H       3.309672      2.959089      5.482808
  Si      2.497395     -1.308310     -0.704133
  C       3.466684      0.138380     -1.428323
  C       3.406275     -2.095171      0.751500
  C       2.095755     -2.590312     -2.030094
  H       3.762812      0.821879     -0.607054
  H       2.897109      0.684766     -2.206158
  H       4.389103     -0.264457     -1.900201
  H       2.773669     -2.810234      1.314403
  H       3.766117     -1.294179      1.427498
  H       4.280813     -2.654216      0.352772
  H       1.500041     -3.428412     -1.619833
  H       3.056133     -2.993559     -2.418952
  H       1.528940     -2.146466     -2.870679
  H      -1.930419      1.282776     -0.168493
  C       0.142214      1.284173     -0.813472
  C      -1.033684      1.943255     -0.166620
  H      -0.034872      0.934414     -1.850001
  H       1.087694      1.850249     -0.717021
  Si     -1.542731      3.584475     -1.048336
  H      -0.801478      2.238770      0.878296
  C      -0.063191      4.769078     -1.037792
  C      -2.978838      4.310230     -0.052046
  C      -2.090943      3.213884     -2.823783
  H       0.363208      4.839724     -0.015910
  H      -0.357924      5.787831     -1.364214
  H       0.741198      4.418287     -1.716952
  H      -2.672395      4.529729      0.991267
  H      -3.835018      3.606060     -0.014020
  H      -3.335113      5.257526     -0.507879
  H      -1.259472      2.801673     -3.431834
  H      -2.448184      4.136053     -3.327633
  H      -2.919637      2.475989     -2.838854
69
Coordinates from ORCA-job my_molecule_reactant E -2464.548145385126
  Pt      0.474613     -0.464770      0.239775
  O       1.222970      0.376994      1.909649
  O      -2.801074     -0.822425      0.038177
  P       2.401483      1.413844      2.198904
  P      -1.992246     -1.872840     -0.704184
  O      -1.685838     -3.172826      0.299641
  O      -0.543614     -1.443869     -1.242184
  O       1.872535      2.850630      1.517310
  O       3.804587      1.104254      1.713381
  C       2.277666      1.694371      4.032726
  C      -2.836136     -2.609463     -2.183818
  C      -1.984578     -3.750222     -2.767464
  C      -3.033837     -1.482212     -3.216425
  C      -4.201214     -3.136223     -1.698318
  C       0.853209      2.138638      4.408607
  C       2.644814      0.371868      4.733586
  C       3.303922      2.789138      4.385667
  H      -2.232472     -3.039869      1.099694
  H       2.659591      3.269663      1.116012
  H      -1.002158     -3.381049     -3.121662
  H      -2.512969     -4.210753     -3.629555
  H      -1.803219     -4.540755     -2.012446
  H      -2.061718     -1.096568     -3.582401
  H      -3.600038     -0.634977     -2.779154
  H      -3.604552     -1.866640     -4.088290
  H      -4.077068     -3.949226     -0.954703
  H      -4.774186     -3.544111     -2.557652
  H      -4.797328     -2.327369     -1.230965
  H       0.107850      1.360426      4.153081
  H       0.572376      3.072577      3.882138
  H       0.796050      2.329687      5.501549
  H       1.922398     -0.430466      4.485056
  H       2.635552      0.516326      5.834917
  H       3.657494      0.029939      4.439783
  H       3.052470      3.750524      3.893429
  H       4.324954      2.494894      4.071516
  H       3.308747      2.960215      5.482804
  Si      2.499492     -1.308125     -0.704145
  C       3.467027      0.139084     -1.429656
  C       3.409811     -2.093196      0.751528
  C       2.098334     -2.591324     -2.029102
  H       3.762686      0.823593     -0.609034
  H       2.896588      0.684282     -2.207695
  H       4.389634     -0.263209     -1.901634
  H       2.778137     -2.808370      1.315318
  H       3.769283     -1.291348      1.426695
  H       4.284569     -2.651803      0.352699
  H       1.504104     -3.429979     -1.617818
  H       3.058842     -2.993551     -2.418694
  H       1.530144     -2.148619     -2.869354
  H      -1.929692      1.279275     -0.167705
  C       0.142756      1.282480     -0.813141
  C      -1.033679      1.940755     -0.166393
  H      -0.034106      0.932335     -1.849593
  H       1.087772      1.849402     -0.716866
  Si     -1.544887      3.581088     -1.048500
  H      -0.801562      2.237013      0.878332
  C      -0.066989      4.767772     -1.038088
  C      -2.982014      4.305083     -0.052381
  C      -2.092476      3.209220     -2.823863
  H       0.358810      4.839556     -0.016063
  H      -0.362960      5.785945     -1.365200
  H       0.738215      4.417755     -1.716686
  H      -2.675781      4.525018      0.990896
  H      -3.837287      3.599817     -0.014263
  H      -3.339493      5.251890     -0.508280
  H      -1.260279      2.798247     -3.431761
  H      -2.451230      4.130679     -3.327936
  H      -2.919945      2.469950     -2.838835
