69
Coordinates from ORCA-job my_molecule_im7 E -2464.509448891983
  Pt         -0.54298609961628     -0.98175308085119      1.44472651700469
  O          -0.75588324578136      0.51359934031438      2.88464044675559
  O          -2.47825770561208     -1.68342920254049      1.05163304899965
  P           0.76238863397233      0.96381948439708      2.79216792146966
  P          -1.96682222978500     -2.84651195651721      0.10818562265464
  O          -2.19646051750022     -4.31114973401380      0.80433291165795
  O          -0.42931503977476     -2.50256918372942     -0.04401075043021
  O           0.94397306703415      2.46532055301647      2.16309375633602
  O           1.37784433918965     -0.13887710036475      1.84655057906049
  C           1.53192206154707      1.17841329421308      4.46019697378552
  C          -2.91364849762662     -3.09777693906291     -1.47237270042172
  C          -2.15334792880216     -4.13891539004906     -2.32363049541171
  C          -3.00443241305490     -1.75383143144860     -2.22151964778777
  C          -4.33234729551246     -3.61354537529405     -1.14238264028150
  C           0.44850827121183      1.86865055553867      5.31890405434297
  C           1.85786042521807     -0.23185944468910      4.99212350030356
  C           2.81241433897989      2.03733820270516      4.40904923644812
  H          -1.75565440030576     -4.33678468934874      1.67824380908175
  H           0.77344038341357      2.47473710014117      1.19708139237262
  H          -1.13870309997258     -3.78771568429130     -2.59646410713859
  H          -2.71679696703283     -4.30859885145846     -3.26564713139432
  H          -2.06320811384249     -5.11146428892895     -1.80106537997312
  H          -2.00211361960212     -1.35963149691611     -2.47990179312205
  H          -3.54335836262503     -0.98823391586084     -1.62877702313613
  H          -3.56054293086708     -1.91195954083660     -3.16995797628562
  H          -4.30470644117686     -4.58972012014534     -0.62228093159604
  H          -4.89130001477335     -3.74699391524951     -2.09388970126681
  H          -4.90038256569441     -2.89734376852474     -0.51554178906440
  H          -0.49132402715268      1.28252259798613      5.32105076384068
  H           0.22238621329977      2.88518557882388      4.93729933073245
  H           0.81202481404297      1.96436714478252      6.36303567242649
  H           0.96599773262669     -0.88930980746229      4.98449580243141
  H           2.21804172756256     -0.14926840088967      6.03918083336474
  H           2.64981439212883     -0.71618342378257      4.38626232216653
  H           2.61272292877366      3.05423642898522      4.02134411200414
  H           3.60547165259719      1.57582110918009      3.78583723513798
  H           3.21337616486183      2.13635958477237      5.44142752208109
  Si          2.37305438610386     -0.65348261616567     -1.90267334954832
  C           3.91185622862499     -0.10010864576552     -2.87530842609975
  C           3.00373199875718     -1.34510345314211     -0.25492438018385
  C           1.51852095674290     -2.10040382800321     -2.79068009981763
  H           4.42770469719460      0.71894240486528     -2.32934535807689
  H           3.65434681121489      0.27619428953576     -3.88695051713387
  H           4.63491980838489     -0.93370748257845     -2.98867042597751
  H           2.19550769256592     -1.80491827663455      0.34416778207330
  H           3.49255802279286     -0.57775323830284      0.37682504381763
  H           3.74806886657814     -2.13582329749963     -0.49155452047898
  H           0.79707072630287     -2.56870495707051     -2.08940743236362
  H           2.28509255559674     -2.86196166384721     -3.05043900418986
  H           0.99233294323182     -1.81138919126286     -3.72368484955976
  H          -0.78433669265040      0.37500486223444     -1.57487732821512
  C           1.31828326021756      0.96360562601381     -1.89962624209420
  C          -0.05471475655886      1.13762168406739     -1.21932690126554
  H           1.22183857101709      1.18446960475316     -2.99004399801812
  H           2.02243739251571      1.74305167662456     -1.52461409913828
  Si         -0.88729850595608      2.84638640444695     -1.45529416330091
  H           0.01628975048021      0.91450383129795     -0.12918730154522
  C           0.34207131270153      4.24827574695902     -1.05586910073847
  C          -2.38034046518840      3.03629351665123     -0.29662142182610
  C          -1.45823796662241      3.02727449866153     -3.25774008949400
  H           0.62409345298445      4.28626007952168      0.01903960397064
  H          -0.11865697491284      5.23056166758924     -1.29364812750300
  H           1.27521076242565      4.16350640921246     -1.65030025751450
  H          -2.08366180273616      2.94108114043312      0.76883943105676
  H          -3.15932532634622      2.27024618986650     -0.49046233652856
  H          -2.84962759717443      4.03444213881755     -0.42880981896584
  H          -0.61368874050942      2.90121272977391     -3.96646120736391
  H          -1.90790801677193      4.02560534174797     -3.44068763420695
  H          -2.22378898135569      2.26187257459854     -3.50508476691829
