69
Coordinates from ORCA-job my_molecule_im5 E -2464.485275232828
  Pt          0.23286988706784     -1.48552863717397      0.76380780241314
  O           0.59953481090008     -0.13604782594594      2.28445090101519
  O          -2.00198242925836     -1.64465725574596      0.80624973908257
  P           1.63907696859602      1.06433444762218      2.51886027734825
  P          -1.95263667282940     -2.93360119931434     -0.10119050841198
  O          -2.40419584144344     -4.27341037017344      0.72744788569199
  O          -0.41497031414439     -3.00735719869990     -0.51482029943606
  O           0.83454585116398      2.46153985499010      2.09481471443980
  O           2.99040080630728      1.04776228348333      1.80748854566329
  C           1.79850443924471      1.23724356802635      4.37993658048328
  C          -3.01327663244532     -3.16035148612376     -1.63332812839059
  C          -2.24800055766067     -4.20882677392720     -2.47830037898918
  C          -3.11698100972187     -1.83009177744495     -2.40437590331627
  C          -4.42328321564875     -3.70021168242094     -1.30979063813900
  C           0.50536913740799      1.79072211967735      5.00534355965213
  C           2.13816665568232     -0.14874191652522      4.95729419610655
  C           2.97136586657187      2.21027437100049      4.63922969894407
  H          -1.98723076646151     -4.28016371113576      1.61652877854383
  H           1.35680553621356      2.88530516635386      1.38354692267669
  H          -1.23623736533667     -3.85333953238412     -2.74869945922491
  H          -2.81808056801879     -4.40312590411758     -3.41200198826805
  H          -2.14010591672834     -5.16716013729130     -1.93304356774363
  H          -2.12191459492822     -1.41279199157086     -2.66127332067898
  H          -3.68962057301599     -1.06730694552676     -1.84094273623149
  H          -3.66105164956208     -2.02124924026370     -3.35342971592077
  H          -4.38665910390983     -4.66811967416352     -0.77277755271519
  H          -4.95623268221313     -3.86171154473933     -2.27237671500717
  H          -5.02971477481956     -2.98597141929512     -0.71856404323755
  H          -0.36496764896562      1.13382785477167      4.81078895462007
  H           0.26964139776200      2.80127266417208      4.61833221516569
  H           0.63550034769485      1.86541755129530      6.10650650351080
  H           1.30452138281979     -0.86140062009844      4.81087644916956
  H           2.33367226573948     -0.06271444683434      6.04708813942945
  H           3.04786242565441     -0.57175011067299      4.48353089356697
  H           2.76309788910607      3.22116740907342      4.23463349966226
  H           3.90794100746028      1.84659217373860      4.17337663519418
  H           3.13201881619813      2.30995303986219      5.73542841374414
  Si          2.07396041530691     -0.67719961881717     -1.66621612516532
  C           3.74924102221762     -0.10786247847971     -2.37154290152484
  C           2.35286269962086     -1.37650285693608      0.13443135862853
  C           1.50094950234243     -2.14038508630867     -2.73451250787149
  H           4.22559614715059      0.68600733236526     -1.76326424982908
  H           3.54748377190214      0.32539248968318     -3.37627954605707
  H           4.48065391575130     -0.92615172806256     -2.51478528923751
  H           1.78859555807308     -2.03744702494507      1.06519525304061
  H           2.92267303487584     -0.62923842593940      0.73745369478468
  H           2.96444719441678     -2.28573126704403     -0.08400515425568
  H           0.82735979994092     -2.80043984552239     -2.15612613871010
  H           2.39298615411396     -2.73295054456519     -3.02952424952564
  H           0.97724918070722     -1.83213611820434     -3.66216579235732
  H          -1.04800493102327      0.41624669661106     -1.36593068888658
  C           1.07485454053177      0.95064026128207     -1.73746094403294
  C          -0.29048934035752      1.17488213464321     -1.06238444751908
  H           1.01292395547296      1.16441341535860     -2.83280456015336
  H           1.80910944263921      1.68743786978550     -1.33169307823261
  Si         -1.02591350199600      2.90392354843610     -1.41395735158937
  H          -0.20286145841158      1.08309248146212      0.04305046784781
  C           0.26841226749581      4.25898958557896     -1.08213378131775
  C          -2.52449552179300      3.21336793212091     -0.29906347797369
  C          -1.53434067369899      2.99603912160540     -3.24253561760495
  H           0.51578174820168      4.32772825541446     -0.00231470051228
  H          -0.12694866774641      5.25132870970079     -1.38428127674365
  H           1.21014562157959      4.09313321352664     -1.64428978278511
  H          -2.21831904528195      3.17172577398268      0.76681563329231
  H          -3.31683299966657      2.45256400931740     -0.45489984669979
  H          -2.96829082105843      4.21251538384937     -0.49235466593058
  H          -0.67189356933586      2.81420385571514     -3.91711257554581
  H          -1.94966322902205      3.99302926604219     -3.49645827182245
  H          -2.31098538742778      2.23960255586613     -3.47949573612296
