69
Coordinates from ORCA-job my_molecule_reactant E -2464.548145385126
  Pt          0.47461298139500     -0.46477041634602      0.23977453363707
  O           1.22297002145104      0.37699439282294      1.90964910450241
  O          -2.80107444095810     -0.82242483115623      0.03817665635211
  P           2.40148276670493      1.41384433969197      2.19890374059936
  P          -1.99224600738008     -1.87283973265507     -0.70418402305250
  O          -1.68583795512872     -3.17282622742097      0.29964111484652
  O          -0.54361384227848     -1.44386914918081     -1.24218428322639
  O           1.87253474733610      2.85063033611621      1.51731037338728
  O           3.80458664414323      1.10425355715322      1.71338071757300
  C           2.27766625717551      1.69437129734173      4.03272596088347
  C          -2.83613558002001     -2.60946322115775     -2.18381823639610
  C          -1.98457769626010     -3.75022204138039     -2.76746386640697
  C          -3.03383678074598     -1.48221230151013     -3.21642504638169
  C          -4.20121436773135     -3.13622261723464     -1.69831807758659
  C           0.85320885907529      2.13863806148237      4.40860677163004
  C           2.64481379513537      0.37186778159147      4.73358572293192
  C           3.30392239252331      2.78913776560808      4.38566667743115
  H          -2.23247169815749     -3.03986949511142      1.09969364085030
  H           2.65959137126296      3.26966270977158      1.11601171442969
  H          -1.00215797636647     -3.38104851393378     -3.12166248160878
  H          -2.51296862224761     -4.21075318819776     -3.62955494147359
  H          -1.80321886073750     -4.54075506035824     -2.01244603947074
  H          -2.06171778345846     -1.09656788239513     -3.58240076553415
  H          -3.60003810449103     -0.63497673820510     -2.77915427226493
  H          -3.60455178450256     -1.86663956644342     -4.08829028215002
  H          -4.07706788730256     -3.94922597456917     -0.95470348932162
  H          -4.77418615641073     -3.54411130796467     -2.55765206465991
  H          -4.79732842847004     -2.32736927092350     -1.23096544903729
  H           0.10784958803791      1.36042555758883      4.15308103911622
  H           0.57237592636858      3.07257744795954      3.88213818684676
  H           0.79605035810451      2.32968703688936      5.50154937506243
  H           1.92239755637734     -0.43046600891526      4.48505601041278
  H           2.63555227286227      0.51632586942432      5.83491692222085
  H           3.65749355309434      0.02993917176796      4.43978321848185
  H           3.05246967836577      3.75052371373908      3.89342887364303
  H           4.32495393594371      2.49489446875520      4.07151584970772
  H           3.30874657017085      2.96021545386727      5.48280432681944
  Si          2.49949187764491     -1.30812521343934     -0.70414493616536
  C           3.46702667026339      0.13908434929488     -1.42965595396457
  C           3.40981093462308     -2.09319595190529      0.75152800401813
  C           2.09833418692881     -2.59132439403918     -2.02910155602931
  H           3.76268560296664      0.82359327387252     -0.60903366521589
  H           2.89658842010998      0.68428200966520     -2.20769531983224
  H           4.38963433160809     -0.26320877561940     -1.90163394194967
  H           2.77813714233436     -2.80837014069467      1.31531757665035
  H           3.76928269029017     -1.29134825158209      1.42669534734890
  H           4.28456862660169     -2.65180307350668      0.35269859738656
  H           1.50410388872136     -3.42997882418957     -1.61781782501852
  H           3.05884215523232     -2.99355130825622     -2.41869395625072
  H           1.53014410100047     -2.14861922170738     -2.86935439617800
  H          -1.92969240864128      1.27927461777867     -0.16770529693673
  C           0.14275632478293      1.28247962706450     -0.81314079781529
  C          -1.03367885226481      1.94075531372099     -0.16639306372743
  H          -0.03410585507198      0.93233527214396     -1.84959308209582
  H           1.08777202149309      1.84940216236526     -0.71686575868012
  Si         -1.54488703075523      3.58108842351771     -1.04850008454805
  H          -0.80156170268230      2.23701320902259      0.87833205928496
  C          -0.06698871078283      4.76777236711946     -1.03808801560977
  C          -2.98201424534625      4.30508279858231     -0.05238104628577
  C          -2.09247566368931      3.20921982877913     -2.82386275471713
  H           0.35881027914503      4.83955584996605     -0.01606273173850
  H          -0.36295993477058      5.78594467602432     -1.36519974640120
  H           0.73821454587268      4.41775452045838     -1.71668646799141
  H          -2.67578068560621      4.52501773852582      0.99089635308994
  H          -3.83728670030803      3.59981687943179     -0.01426340866951
  H          -3.33949314009376      5.25188979831154     -0.50827962690085
  H          -1.26027917521042      2.79824728907652     -3.43176082846610
  H          -2.45123040304109      4.13067937571842     -3.32793607769439
  H          -2.91994459423570      2.46995035798809     -2.83883481169057
