69
Coordinates from ORCA-job my_molecule_im1 E -2464.505664131899
  Pt          0.36750634535259     -0.91946567375708      0.26160006346415
  O           0.91711922850648     -0.04817604031213      2.01440140038410
  O          -2.73326871071522     -1.72467538764098      0.69373081015946
  P           1.88616532456074      1.16583626595261      2.39497590533157
  P          -2.10065700764248     -2.69284270145550     -0.28662762850731
  O          -1.81475774427470     -4.17052641717500      0.42750007949397
  O          -0.69342961779681     -2.21897681561687     -0.92231373086548
  O           1.03321459759995      2.53967628730799      1.97628198394353
  O           3.24477781060002      1.16533206028144      1.71391629622654
  C           1.91168393853300      1.24461978431566      4.26667118757416
  C          -3.07541618890877     -3.17287024441727     -1.79394597661511
  C          -2.27766435886297     -4.22372499229325     -2.58922583104191
  C          -3.26458676511352     -1.88292635069642     -2.61293447532857
  C          -4.44241918155060     -3.74283320212781     -1.36846970492909
  C           0.57406064165916      1.76183231527120      4.83152046489516
  C           2.21715833865805     -0.15641005727216      4.83215275249366
  C           3.05218265811257      2.22068843103254      4.62552665417103
  H          -2.05970027871013     -4.08449349312288      1.37138586011015
  H           1.58677018923730      3.00289787949620      1.31003811447274
  H          -1.27848173546900     -3.83944931544193     -2.87352260535066
  H          -2.82688459014912     -4.48918370068310     -3.51721466984280
  H          -2.13811216353824     -5.14785455106214     -1.99409793762432
  H          -2.28504482606628     -1.45442723653566     -2.90415967060989
  H          -3.81960904436005     -1.12402336424456     -2.02502966941655
  H          -3.84260485521389     -2.10001776352556     -3.53520955718370
  H          -4.33149024045845     -4.67749624433250     -0.78297960356123
  H          -5.03231191151561     -3.98218617726260     -2.27929292673406
  H          -5.02259658010625     -3.01478486658947     -0.76639002206072
  H          -0.27194019856457      1.09199421187717      4.57920564482351
  H           0.33797927307707      2.77567759180354      4.45522614291492
  H           0.64554204864574      1.81557630644481      5.94033204066374
  H           1.39375165267143     -0.86823907876946      4.62704346148288
  H           2.34571818102919     -0.08409834590711      5.93415452419881
  H           3.15293898006103     -0.57600796206712      4.41175993397621
  H           2.85286768719898      3.23820606853811      4.23195838368166
  H           4.01796224580901      1.87456197319332      4.20962662284965
  H           3.14486740945611      2.29539914228989      5.72996117173680
  Si          2.31470225211988     -1.34238687001531     -1.11538618310228
  C           3.38865639824843     -0.05113636527723     -2.03253000172340
  C           3.36728998965629     -1.96209834808915      0.28809701438613
  C           1.70229462899417     -2.52828665056697     -2.44118465196401
  H           3.79473497395677      0.75104684271921     -1.38343466956916
  H           2.95000382609783      0.38591506724780     -2.95424093791997
  H           4.25616517477253     -0.67467394192837     -2.36246686599764
  H           2.81614854218624     -2.69525715688993      0.90251597129022
  H           3.58622147733145     -1.06467838980117      0.90678457062960
  H           4.31060149957775     -2.40131938307269     -0.08708153065522
  H           1.09275574228872     -3.32755686081059     -1.98660088893748
  H           2.56805711352033     -2.95515056730215     -2.98808572557021
  H           1.05396975170149     -2.00249279197195     -3.17219300879399
  H          -1.65482777765818      0.74462958009601     -1.06307920311644
  C           0.48536133780649      0.71198112240116     -1.03449192509339
  C          -0.80572454508125      1.38586579453192     -0.75469180302522
  H           0.58905722008582      0.42047818826218     -2.10473672177746
  H           1.37989008721526      1.30898908578580     -0.74947703638930
  Si         -1.18334586246867      3.12594245207517     -1.43648335533080
  H          -0.88458805376894      1.54394902791086      0.33749040322197
  C           0.23283457913567      4.33808956703612     -1.10429390807963
  C          -2.69629756326220      3.55122294719275     -0.39011605474862
  C          -1.57852320206147      3.07625109232261     -3.28506267854248
  H           0.46733658314450      4.38718777916979     -0.02144920243828
  H          -0.06130393837325      5.35856689202536     -1.42613153376362
  H           1.15881188227275      4.07210293515980     -1.65406446067519
  H          -2.40462430171145      3.52342472286800      0.68022674623340
  H          -3.47446950584142      2.77202838711967     -0.52518052303099
  H          -3.14756462112204      4.53882727729477     -0.60406975876859
  H          -0.68070777784102      2.84041379917210     -3.89217458869703
  H          -1.96356551879817      4.05982741511210     -3.62548164551340
  H          -2.35064094387607      2.31168901472637     -3.50848133191453
