69
Coordinates from ORCA-job my_molecule_im0 E -2464.548145302559
  Pt          0.37616573501820     -0.87082940185326      0.21512293943416
  O           1.12452277507423     -0.02906459268432      1.88499751029951
  O          -2.89952168733492     -1.22848381666348      0.01352506214920
  P           2.30303552032812      1.00778535418472      2.17425214639647
  P          -2.09069325375689     -2.27889871816231     -0.72883561725540
  O          -1.78428520150553     -3.57888521292821      0.27498952064362
  O          -0.64206108865530     -1.84992813468805     -1.26683587742929
  O           1.77408750095929      2.44457135060896      1.49265877918438
  O           3.70613939776642      0.69819457164598      1.68872912337010
  C           2.17921901079869      1.28831231183449      4.00807436668058
  C          -2.93458282639682     -3.01552220666499     -2.20846983059899
  C          -2.08302494263691     -4.15628102688764     -2.79211546060986
  C          -3.13228402712279     -1.88827128701738     -3.24107664058458
  C          -4.29966161410816     -3.54228160274189     -1.72296967178949
  C           0.75476161269848      1.73257907597512      4.38395517742713
  C           2.54636654875856     -0.03419120391579      4.70893412872900
  C           3.20547514614650      2.38307878010084      4.36101508322824
  H          -2.33091894453430     -3.44592848061867      1.07504204664740
  H           2.56114412488614      2.86360372426433      1.09136012022679
  H          -1.10060522274328     -3.78710749944103     -3.14631407581167
  H          -2.61141586862442     -4.61681217370501     -3.65420653567648
  H          -1.90166610711431     -4.94681404586548     -2.03709763367364
  H          -2.16016502983527     -1.50262686790237     -3.60705235973704
  H          -3.69848535086785     -1.04103572371234     -2.80380586646782
  H          -3.70299903087938     -2.27269855195067     -4.11294187635291
  H          -4.17551513367937     -4.35528496007641     -0.97935508352452
  H          -4.87263340278754     -3.95017029347191     -2.58230365886280
  H          -4.89577567484685     -2.73342825643074     -1.25561704324019
  H           0.00940234166110      0.95436657208159      4.12842944491333
  H           0.47392867999178      2.66651846245230      3.85748659264387
  H           0.69760311172770      1.92362805138212      5.47689778085952
  H           1.82395031000053     -0.83652499442250      4.46040441620986
  H           2.53710502648546      0.11026688391706      5.81026532801794
  H           3.55904630671753     -0.37611981373929      4.41513162427893
  H           2.95402243198896      3.34446472823184      3.86877727944014
  H           4.22650668956690      2.08883548324796      4.04686425550483
  H           3.21029932379404      2.55415646836003      5.45815273261653
  Si          2.40104463126810     -1.71418419894658     -0.72879653036826
  C           3.36857942388657     -0.26697463621238     -1.45430754816747
  C           3.31136368824626     -2.49925493741254      0.72687640981523
  C           1.99988694055200     -2.99738337954642     -2.05375315023221
  H           3.66423835658982      0.41753428836526     -0.63368525941879
  H           2.79814117373316      0.27822302415794     -2.23234691403513
  H           4.29118708523128     -0.66926776112664     -1.92628553615257
  H           2.67968989595755     -3.21442912620191      1.29066598244744
  H           3.67083544391336     -1.69740723708934      1.40204375314600
  H           4.18612138022488     -3.05786205901392      0.32804700318366
  H           1.40565664234455     -3.83603780969682     -1.64246941922142
  H           2.96039490885551     -3.39961029376346     -2.44334555045361
  H           1.43169685462366     -2.55467820721462     -2.89400599038089
  H          -2.02813965501809      0.87321563227143     -0.19235689113964
  C           0.04430907840612      0.87642064155726     -0.83779239201818
  C          -1.13212609864162      1.53469632821375     -0.19104465793034
  H          -0.13255310144879      0.52627628663671     -1.87424467629872
  H           0.98932477511628      1.44334317685801     -0.74151735288302
  Si         -1.64333427713204      3.17502943801046     -1.07315167875095
  H          -0.90000894905911      1.83095422351534      0.85368046508206
  C          -0.16543595715963      4.36171338161222     -1.06273960981267
  C          -3.08046149172306      3.89902381307506     -0.07703264048868
  C          -2.19092291006612      2.80316084327189     -2.84851434892002
  H           0.26036303276822      4.43349686445881     -0.04071432594140
  H          -0.46140718114737      5.37988569051708     -1.38985134060411
  H           0.63976729949586      4.01169553495114     -1.74133806219431
  H          -2.77422793198302      4.11895875301858      0.96624475888704
  H          -3.93573394668484      3.19375789392455     -0.03891500287242
  H          -3.43794038647057      4.84583081280430     -0.53293122110375
  H          -1.35872642158723      2.39218830356927     -3.45641242266898
  H          -2.54967764941790      3.72462039021117     -3.35258767189728
  H          -3.01839184061251      2.06389137248085     -2.86348640589346
