69
Coordinates from ORCA-job my_molecule_im6 E -2464.468374670435
  Pt         -0.13693281679428     -1.13076172132698      1.18121180006935
  O          -0.24889563741560      0.26402737331741      2.67153568206172
  O          -2.15405813055246     -1.62151349796748      0.94626974043579
  P           1.14592345336286      1.03753929533601      2.67161728635778
  P          -1.89012806915921     -2.86274860434385     -0.02628452290432
  O          -2.26779409331447     -4.24977358875911      0.75247371829228
  O          -0.34785991229060     -2.69827700249285     -0.30144004002819
  O           0.93299638980699      2.60462220248088      2.21542336088548
  O           2.05303648238465      0.29406560671956      1.68092425721343
  C           1.70029933864972      1.23701694832374      4.42205661960961
  C          -2.93603420837121     -3.10634281704964     -1.56565705404339
  C          -2.18884669241390     -4.16434082032762     -2.41479749651168
  C          -3.05113803669940     -1.78542261345647     -2.35032206822336
  C          -4.34779684874865     -3.63594926132467     -1.22579666853238
  C           0.47563043038946      1.82247880837378      5.15158426254418
  C           2.06634228438662     -0.15843377758266      4.96122402345960
  C           2.91221877187601      2.18236608827732      4.55148087837159
  H          -1.86623349802093     -4.26733629830490      1.64750307363267
  H           1.17712993561962      2.70538940233054      1.26700306496050
  H          -1.17805160433877     -3.82605679528244     -2.71405288259141
  H          -2.77635149452407     -4.34700514917295     -3.33985257900489
  H          -2.09573810017062     -5.13008778161175     -1.88074864106836
  H          -2.06071772833545     -1.36991682223762     -2.62108502166144
  H          -3.61983755840955     -1.01824660955139     -1.78934555986203
  H          -3.60144787502907     -1.98706606200203     -3.29413966894839
  H          -4.31500387404887     -4.60515835326051     -0.69288126585129
  H          -4.88960346270360     -3.79590508909905     -2.18355784026912
  H          -4.94405232122525     -2.91838352246768     -0.62767659266730
  H          -0.41423318994757      1.18008712178454      5.00960510816284
  H           0.23505698581057      2.83037421813695      4.76284225140089
  H           0.68102885605654      1.91153557772355      6.23664586941109
  H           1.23154243552643     -0.87637242826239      4.84579089505644
  H           2.31287084934199     -0.08339814404417      6.04129935844466
  H           2.95098092702810     -0.57177400228716      4.43798953487696
  H           2.70046647630896      3.19171067517886      4.14995941592861
  H           3.81642433303439      1.78375731052160      4.04827754410644
  H           3.15821146135981      2.29429364332312      5.63014953806024
  Si          2.20470728389476     -0.73851900946466     -1.73017209352308
  C           3.80862557951492     -0.08838275883980     -2.51269515776504
  C           2.75737580459850     -1.59255752814094     -0.12033533774545
  C           1.50400188638643     -2.13442107694273     -2.81542924940601
  H           4.26513653772176      0.69055758453327     -1.86630919206380
  H           3.60769564433528      0.36332499454680     -3.50521863160755
  H           4.55185960416215     -0.89989892748105     -2.64292938535589
  H           1.93977934166261     -2.01247869911861      0.51541569207777
  H           3.32134402076223     -0.89968644992582      0.52771979940319
  H           3.39499037172322     -2.45608790607996     -0.40540761499649
  H           0.82253821310058     -2.74922565818215     -2.19439140528013
  H           2.35515545730050     -2.77871935056896     -3.12426517653236
  H           0.97256671390710     -1.79929617457987     -3.72876328086896
  H          -0.98718604253424      0.40423442803757     -1.44573294013426
  C           1.15131076387190      0.89657228076940     -1.74267917270540
  C          -0.23274417920967      1.15116946154981     -1.11016447751190
  H           1.09714709955048      1.11258180026087     -2.83809811222298
  H           1.86963737922824      1.65460657665161     -1.35151757432504
  Si         -0.99058235291557      2.88100816456386     -1.43251520722531
  H          -0.19231151486036      1.01485227153402     -0.00430988083756
  C           0.28443427782755      4.25304702308363     -1.08166677557092
  C          -2.48544930888884      3.17018645190372     -0.29818379843499
  C          -1.53172521129777      2.99682682095225     -3.25063839648479
  H           0.53220451560533      4.32470342508722     -0.00039184159811
  H          -0.12829894253771      5.24109043967531     -1.37708857844637
  H           1.22643245419463      4.10121405566851     -1.64813142646963
  H          -2.18386863952456      3.12679918183651      0.76918711282275
  H          -3.28224906936506      2.41330965546548     -0.45234890404671
  H          -2.93100531646694      4.17073891613631     -0.48403108913365
  H          -0.67752910388700      2.81747482941471     -3.93622479114286
  H          -1.95186759873966      3.99618797583574     -3.48927903945558
  H          -2.31152992754995      2.23979369220546     -3.47863345458750
