69
Coordinates from ORCA-job my_molecule_im8 E -2464.527206379021
  Pt         -0.93732306117486     -1.09462841520184      1.69206896057225
  O          -1.33193706051794      0.43984880292468      3.06648803758102
  O          -2.64332981720926     -2.30734523814166      1.58263299334084
  P           0.12198306475603      1.03973138615855      2.91222458867202
  P          -2.00870364437445     -3.20060620601594      0.44384007489808
  O          -1.99291344681943     -4.78465510809120      0.84346029805023
  O          -0.54567474384400     -2.61622613047690      0.30212307905561
  O           0.07691570159980      2.61533515907870      2.48080437214075
  O           0.77331262956338      0.12196340216521      1.79904876013722
  C           1.09066502185319      1.10654550962598      4.47428767480688
  C          -2.97677174013436     -3.22129907635337     -1.12008255369622
  C          -2.22649729426675     -4.08435393536424     -2.15498205498009
  C          -3.08149417294253     -1.75927098130171     -1.60062065384083
  C          -4.37522679140039     -3.79628642399163     -0.81532377353070
  C           0.31114733266081      1.96338253416182      5.49214259874360
  C           1.22945960887174     -0.34588348490489      4.97472058307123
  C           2.47484298060466      1.71390245949673      4.16898981814288
  H          -1.49038759403005     -4.91811345176491      1.67336837386296
  H          -0.49886205883746      2.74973855569178      1.69640431639576
  H          -1.21084857797619     -3.68779825122931     -2.35558528571069
  H          -2.79110486467594     -4.07683873843251     -3.11083072217073
  H          -2.13217363512687     -5.13542980482625     -1.81890260524730
  H          -2.08073805097785     -1.32135879258724     -1.78629510756329
  H          -3.60142622302099     -1.12409937746790     -0.85652580821012
  H          -3.65680728229325     -1.72957226269037     -2.54908787156187
  H          -4.31829688761213     -4.84719070859823     -0.47084049883785
  H          -4.99115627774527     -3.76709778497476     -1.73845583544350
  H          -4.89523746076915     -3.20153206216675     -0.03779153891344
  H          -0.70028815723532      1.54890411860833      5.67598055333256
  H           0.20207714553765      3.00992438019524      5.14673638491449
  H           0.85946492091092      1.97210973817201      6.45729009625968
  H           0.23941276097070     -0.80637539327803      5.16255063715766
  H           1.80110042371273     -0.34931569944095      5.92595826880134
  H           1.76881693044752     -0.97693200144448      4.24129381022880
  H           2.39353184751617      2.75908243691290      3.81202878712461
  H           3.01602009882610      1.12419603332118      3.40197944427098
  H           3.08622252321945      1.71197269577239      5.09569475235862
  Si          2.68473336890203     -0.45131528326692     -2.35970733645015
  C           4.02827023296466     -0.43598495309347     -3.70535575674717
  C           3.49951915767207     -0.52819377496280     -0.64842366934520
  C           1.56207908507842     -1.96367592555760     -2.59832204019446
  H           4.68980526547226      0.44997603522522     -3.60616554582722
  H           3.58223879369021     -0.41036455138275     -4.72159368630793
  H           4.66879875118590     -1.34056143451151     -3.64348506567272
  H           2.74242787773695     -0.45595995855186      0.16023322362604
  H           4.22375202135740      0.30297737947296     -0.51614576240609
  H           4.05237160340565     -1.48123465843080     -0.51329827078706
  H           0.86864041940462     -2.08072905804126     -1.73920670818122
  H           2.16763264006389     -2.89167549141492     -2.66756652334520
  H           0.96389655871135     -1.88255676053944     -3.53039450624720
  H          -0.33733316146430      0.44592180623610     -1.95629576050725
  C           1.66305898875716      1.15946762424951     -2.50338829558930
  C           0.39758539045931      1.21118304699552     -1.61834569116460
  H           1.39628035630533      1.31093538181554     -3.57385625534340
  H           2.35211590737216      1.99923703548612     -2.25397278719136
  Si         -0.49525162690855      2.88837032203425     -1.53982991386270
  H           0.63727238964872      0.92531694295366     -0.56931208615268
  C           0.64740390968909      4.18536836946636     -0.74679225816406
  C          -2.07514516503176      2.70024157892348     -0.48750644077366
  C          -0.99238926200463      3.48193218657607     -3.27279651441294
  H           0.97137254349557      3.88658491763981      0.27204208368727
  H           0.14740127921598      5.17333988267057     -0.67018938174999
  H           1.56626226825669      4.32372446072306     -1.35364110571076
  H          -1.90975183693520      2.16894917595033      0.47595711937579
  H          -2.82266052179822      2.08464222166125     -1.03078921387682
  H          -2.54960279750899      3.67915919915723     -0.26722643869482
  H          -0.10232861315435      3.59754977228222     -3.92524659122846
  H          -1.50876861474934      4.46351589413329     -3.23281655105316
  H          -1.67746135735648      2.75943073256033     -3.76335522391501
