69
Coordinates from ORCA-job my_molecule_product E -2464.527213198513
  Pt         -0.80311610890420     -0.67465997805079      1.75482536584812
  O          -1.18920414030496      0.87738832207641      3.11182339413801
  O          -2.51050609090232     -1.88740156885527      1.67003897826610
  P           0.26425482203249      1.47419290926027      2.94206884254155
  P          -1.88269520070772     -2.79547972227163      0.53921751521250
  O          -1.86579185432691     -4.37435091226986      0.95877686846788
  O          -0.42006966163036     -2.21402424468390      0.38215502301878
  O           0.21789584217401      3.04423863918346      2.49097875029895
  O           0.90889195261927      0.54192176451922      1.83708156448123
  C           1.24147722693230      1.56006514035021      4.49786713854567
  C          -2.85928290629479     -2.83525845887851     -1.01902764933388
  C          -2.11523924014788     -3.71190293659903     -2.04697726062888
  C          -2.96563990905877     -1.37935699238449     -1.51746791420585
  C          -4.25644096189327     -3.40530516830526     -0.69940919991008
  C           0.46809374351076      2.43029809244752      5.50901161606168
  C           1.38202068096374      0.11398870950780      5.01589340339572
  C           2.62437722713884      2.16248255186061      4.17737732832430
  H          -1.35884184212878     -4.49766114424440      1.78756244747432
  H          -0.36205629418557      3.16912430699573      1.70808327223917
  H          -1.10043365208075     -3.31867121876117     -2.25810807867664
  H          -2.68504077796023     -3.71607443206975     -2.99975850605352
  H          -2.01979191916112     -4.75870722716899     -1.69813029389251
  H          -1.96561755136359     -0.94457207900851     -1.71411420280449
  H          -3.48108250282946     -0.73443005697519     -0.77866155025152
  H          -3.54609169181090     -1.36124538217367     -2.46309116451419
  H          -4.19834088459846     -4.45180380490366     -0.34195800319529
  H          -4.87737076125077     -3.38735272903439     -1.61947235215186
  H          -4.77180713078637     -2.80036870991813      0.07334369196174
  H          -0.54260207491036      2.01892968908372      5.70358285772015
  H           0.35784626895822      3.47246153553544      5.15097641377029
  H           1.02166714028942      2.45084046818632      6.47097367672732
  H           0.39270400201628     -0.34335471133407      5.21492282956057
  H           1.95883296774810      0.12217926271903      5.96397414143381
  H           1.91694912837793     -0.52669475786040      4.28759621217979
  H           2.54182448269192      3.20311738186736      3.80765468525131
  H           3.16097022336395      1.56271119482283      3.41496622690765
  H           3.24079493421053      2.17183537649014      5.10069249989373
  Si          2.79723666178696     -0.08538631254047     -2.32441066546836
  C           4.13342995957975     -0.08809107450029     -3.67743164557851
  C           3.62128193710467     -0.14119156343046     -0.61674907261093
  C           1.67228456098391     -1.59981469116046     -2.53774099990183
  H           4.79608983805221      0.79856432779682     -3.59307050458113
  H           3.68188574694970     -0.07501127346191     -4.69147061292578
  H           4.77367759899871     -0.99228430669422     -3.60759347816811
  H           2.86865760890541     -0.05816354726849      0.19503314878765
  H           4.34678211369203      0.69105106662597     -0.49895046279837
  H           4.17422151694788     -1.09285276424198     -0.47257251232833
  H           0.98345960412491     -1.70546634789207     -1.67345390364964
  H           2.27682765851753     -2.52906352085892     -2.59851852446565
  H           1.06908760223377     -1.53006229818879     -3.46749796938307
  H          -0.22198011302470      0.81912196326291     -1.91596506499502
  C           1.77587794195414      1.52420185588019     -2.48292291720228
  C           0.51528195978949      1.58805654849704     -1.59173733905899
  H           1.50337267805728      1.66229942845590     -3.55375563346875
  H           2.46684677120780      2.36655136912934     -2.24791552709655
  Si         -0.37598618975918      3.26676200700362     -1.52961598810785
  H           0.76048896278404      1.31532020134910     -0.54048729795037
  C           0.77184308334659      4.57285113795841     -0.75929692811253
  C          -1.95024665098243      3.09314296140477     -0.46641762675397
  C          -0.88215954411348      3.83869895358190     -3.26723036537604
  H           1.10115713016027      4.28675372816177      0.26146194900110
  H           0.27292957696658      5.56208211454281     -0.69249540440138
  H           1.68747292206045      4.70283166248664     -1.37283762136527
  H          -1.77996321859122      2.57397171161764      0.50278319975685
  H          -2.70112359903251      2.47126728043974     -0.99778543957380
  H          -2.42283879617700      4.07512125142679     -0.25597702619994
  H           0.00440930893260      3.94538668768857     -3.92592327909490
  H          -1.39765334666172      4.82109100927925     -3.23687826087838
  H          -1.57037877058473      3.11055132449371     -3.74486479415149
