69
Coordinates from ORCA-job my_molecule_product E -2464.527206990871
  Pt     -0.805223     -0.672734      1.753627
  O      -1.189406      0.878225      3.112417
  O      -2.513030     -1.884724      1.669074
  P       0.264007      1.474807      2.941603
  P      -1.885652     -2.793433      0.538399
  O      -1.869147     -4.372158      0.958353
  O      -0.422982     -2.212225      0.381195
  O       0.217536      3.045149      2.491585
  O       0.907464      0.542815      1.835605
  C       1.243208      1.559008      4.495987
  C      -2.862436     -2.833283     -1.019544
  C      -2.120510     -3.711571     -2.047457
  C      -2.965666     -1.377635     -1.519953
  C      -4.260564     -3.400370     -0.698914
  C       0.468432      2.424313      5.510500
  C       1.388256      0.112168      5.010633
  C       2.623908      2.166627      4.175712
  H      -1.362944     -4.495252      1.787626
  H      -0.361741      3.170747      1.708312
  H      -1.108572     -3.315189     -2.266103
  H      -2.695370     -3.720747     -2.997123
  H      -2.019591     -4.756907     -1.696030
  H      -1.964041     -0.946231     -1.715828
  H      -3.480656     -0.730288     -0.782850
  H      -3.544423     -1.359928     -2.466660
  H      -4.204390     -4.445690     -0.337548
  H      -4.880501     -3.384958     -1.619721
  H      -4.775815     -2.791370      0.070826
  H      -0.541013      2.010116      5.705299
  H       0.355415      3.467294      5.155712
  H       1.023207      2.444068      6.471846
  H       0.400310     -0.347645      5.210687
  H       1.967415      0.119504      5.957252
  H       1.922480     -0.525808      4.279555
  H       2.537784      3.207903      3.808802
  H       3.162041      1.570193      3.411571
  H       3.241419      2.175112      5.098302
  Si      2.799820     -0.085022     -2.320438
  C       4.135088     -0.087902     -3.674401
  C       3.626708     -0.138550     -0.613960
  C       1.677273     -1.601555     -2.532993
  H       4.796859      0.799614     -3.591723
  H       3.683212     -0.076294     -4.688338
  H       4.777418     -0.990563     -3.603646
  H       2.875425     -0.073821      0.200632
  H       4.339518      0.703882     -0.491544
  H       4.195159     -1.082346     -0.478650
  H       0.986159     -1.706792     -1.670353
  H       2.283633     -2.529833     -2.590319
  H       1.076563     -1.534919     -3.464537
  H      -0.221013      0.817379     -1.915568
  C       1.776505      1.523305     -2.480725
  C       0.515366      1.586701     -1.590202
  H       1.504474      1.660990     -3.551732
  H       2.466058      2.366856     -2.245522
  Si     -0.377288      3.264629     -1.530182
  H       0.760633      1.314603     -0.538908
  C       0.768976      4.572637     -0.760700
  C      -1.951610      3.090275     -0.467067
  C      -0.884072      3.834973     -3.268470
  H       1.096496      4.286815      0.260625
  H       0.268832      5.561320     -0.695489
  H       1.685162      4.702710     -1.373312
  H      -1.779977      2.572786      0.502876
  H      -2.701843      2.466337     -0.996838
  H      -2.425388      4.071834     -0.257366
  H       0.002595      3.941657     -3.927054
  H      -1.399936      4.817144     -3.238023
  H      -1.572201      3.106634     -3.745839
69
Coordinates from ORCA-job my_molecule_product E -2464.527209803013
  Pt     -0.804591     -0.673299      1.753898
  O      -1.189139      0.877969      3.112221
  O      -2.512393     -1.885428      1.669256
  P       0.264303      1.474539      2.941624
  P      -1.884974     -2.793961      0.538498
  O      -1.868403     -4.372738      0.958312
  O      -0.422312     -2.212710      0.381230
  O       0.217852      3.044832      2.491429
  O       0.907943      0.542517      1.835777
  C       1.243036      1.559119      4.496350
  C      -2.861792     -2.833700     -1.019466
  C      -2.119487     -3.711817     -2.047337
  C      -2.965694     -1.377972     -1.519343
  C      -4.259697     -3.401390     -0.698999
  C       0.468822      2.425927      5.509953
  C       1.386672      0.112450      5.011828
  C       2.624427      2.164994      4.175984
  H      -1.362030     -4.495919      1.787466
  H      -0.361600      3.170343      1.708268
  H      -1.106385     -3.316934     -2.263433
  H      -2.692683     -3.719067     -2.998079
  H      -2.020959     -4.757754     -1.696845
  H      -1.964450     -0.945824     -1.715514
  H      -3.480618     -0.731236     -0.781765
  H      -3.545010     -1.360080     -2.465671
  H      -4.203117     -4.447149     -0.339121
  H      -4.880158     -3.384817     -1.619422
  H      -4.774550     -2.793767      0.071980
  H      -0.541027      2.012645      5.704695
  H       0.356697      3.468727      5.154262
  H       1.023286      2.445815      6.471439
  H       0.398278     -0.346611      5.211492
  H       1.965071      0.119940      5.958917
  H       1.921166     -0.526300      4.281527
  H       2.539504      3.206136      3.808364
  H       3.161915      1.567602      3.412269
  H       3.241688      2.173500      5.098754
  Si      2.799223     -0.084877     -2.321238
  C       4.135220     -0.087775     -3.674480
  C       3.624772     -0.138392     -0.614181
  C       1.676436     -1.601141     -2.533930
  H       4.797091      0.799645     -3.591317
  H       3.683779     -0.076046     -4.688574
  H       4.777064     -0.990768     -3.603615
  H       2.872751     -0.069235      0.199419
  H       4.340314      0.701884     -0.492759
  H       4.189699     -1.083988     -0.476334
  H       0.985762     -1.706504     -1.671056
  H       2.282562     -2.529551     -2.591806
  H       1.075293     -1.533985     -3.465198
  H      -0.221397      0.817765     -1.915828
  C       1.776191      1.523525     -2.481634
  C       0.515186      1.587023     -1.590849
  H       1.504039      1.660920     -3.552646
  H       2.466011      2.366898     -2.246766
  Si     -0.377194      3.265105     -1.530241
  H       0.760543      1.314752     -0.539544
  C       0.769460      4.572654     -0.760562
  C      -1.951383      3.090892     -0.466940
  C      -0.883932      3.835863     -3.268313
  H       1.097441      4.286731      0.260650
  H       0.269601      5.561461     -0.694912
  H       1.685512      4.702715     -1.373385
  H      -1.779949      2.573031      0.502821
  H      -2.701797      2.467400     -0.997015
  H      -2.424918      4.072539     -0.257060
  H       0.002655      3.942607     -3.926973
  H      -1.399710      4.818097     -3.237808
  H      -1.572103      3.107564     -3.745743
69
Coordinates from ORCA-job my_molecule_product E -2464.527212597804
  Pt     -0.803397     -0.674437      1.754567
  O      -1.189006      0.877442      3.111855
  O      -2.510927     -1.886904      1.669840
  P       0.264473      1.474109      2.941862
  P      -1.883313     -2.795092      0.538991
  O      -1.866517     -4.373946      0.958599
  O      -0.420683     -2.213698      0.381749
  O       0.218111      3.044247      2.491102
  O       0.908734      0.541937      1.836558
  C       1.242075      1.559604      4.497408
  C      -2.860055     -2.834775     -1.019125
  C      -2.116602     -3.712034     -2.046980
  C      -2.965657     -1.378917     -1.517902
  C      -4.257447     -3.404060     -0.699195
  C       0.468720      2.429292      5.509060
  C       1.383017      0.113351      5.014826
  C       2.624783      2.162388      4.176910
  H      -1.359734     -4.497242      1.787483
  H      -0.361696      3.169404      1.708153
  H      -1.101724     -3.319223     -2.258549
  H      -2.686734     -3.716223     -2.999579
  H      -2.021543     -4.758834     -1.698019
  H      -1.965306     -0.944898     -1.714572
  H      -3.480768     -0.733514     -0.779301
  H      -3.546012     -1.360766     -2.463579
  H      -4.199819     -4.450540     -0.341623
  H      -4.878531     -3.385928     -1.619149
  H      -4.772286     -2.798767      0.073615
  H      -0.541868      2.017676      5.703670
  H       0.358227      3.471599      5.151483
  H       1.022504      2.449614      6.470906
  H       0.393815     -0.344253      5.213856
  H       1.960017      0.121295      5.962791
  H       1.917920     -0.526956      4.286169
  H       2.541996      3.203179      3.807686
  H       3.161342      1.563043      3.414148
  H       3.241412      2.171347      5.100094
  Si      2.797821     -0.084968     -2.323500
  C       4.134441     -0.087760     -3.676113
  C       3.621640     -0.139516     -0.615721
  C       1.673837     -1.600168     -2.536531
  H       4.796745      0.799209     -3.592009
  H       3.683239     -0.075299     -4.690312
  H       4.775126     -0.991603     -3.605682
  H       2.868787     -0.059977      0.196188
  H       4.344236      0.695101     -0.496934
  H       4.177856     -1.089461     -0.472716
  H       0.984376     -1.705769     -1.672756
  H       2.279036     -2.529068     -2.596225
  H       1.071367     -1.531395     -3.466841
  H      -0.221982      0.818700     -1.916134
  C       1.775767      1.524036     -2.483055
  C       0.515101      1.587766     -1.591854
  H       1.503289      1.661511     -3.553974
  H       2.466356      2.366802     -2.248420
  Si     -0.376513      3.266272     -1.530017
  H       0.760445      1.315141     -0.540601
  C       0.771020      4.572717     -0.759816
  C      -1.950641      3.092463     -0.466637
  C      -0.882893      3.837966     -3.267691
  H       1.099985      4.286626      0.261061
  H       0.271867      5.561835     -0.693244
  H       1.686787      4.702726     -1.373122
  H      -1.779937      2.573673      0.502705
  H      -2.701417      2.470118     -0.997599
  H      -2.423528      4.074339     -0.256359
  H       0.003641      3.944736     -3.926417
  H      -1.398452      4.820326     -3.237214
  H      -1.571110      3.109790     -3.745288
69
Coordinates from ORCA-job my_molecule_product E -2464.527213198513
  Pt     -0.803116     -0.674660      1.754825
  O      -1.189204      0.877388      3.111823
  O      -2.510506     -1.887402      1.670039
  P       0.264255      1.474193      2.942069
  P      -1.882695     -2.795480      0.539218
  O      -1.865792     -4.374351      0.958777
  O      -0.420070     -2.214024      0.382155
  O       0.217896      3.044239      2.490979
  O       0.908892      0.541922      1.837082
  C       1.241477      1.560065      4.497867
  C      -2.859283     -2.835258     -1.019028
  C      -2.115239     -3.711903     -2.046977
  C      -2.965640     -1.379357     -1.517468
  C      -4.256441     -3.405305     -0.699409
  C       0.468094      2.430298      5.509012
  C       1.382021      0.113989      5.015893
  C       2.624377      2.162483      4.177377
  H      -1.358842     -4.497661      1.787562
  H      -0.362056      3.169124      1.708083
  H      -1.100434     -3.318671     -2.258108
  H      -2.685041     -3.716074     -2.999759
  H      -2.019792     -4.758707     -1.698130
  H      -1.965618     -0.944572     -1.714114
  H      -3.481083     -0.734430     -0.778662
  H      -3.546092     -1.361245     -2.463091
  H      -4.198341     -4.451804     -0.341958
  H      -4.877371     -3.387353     -1.619472
  H      -4.771807     -2.800369      0.073344
  H      -0.542602      2.018930      5.703583
  H       0.357846      3.472462      5.150976
  H       1.021667      2.450840      6.470974
  H       0.392704     -0.343355      5.214923
  H       1.958833      0.122179      5.963974
  H       1.916949     -0.526695      4.287596
  H       2.541824      3.203117      3.807655
  H       3.160970      1.562711      3.414966
  H       3.240795      2.171835      5.100692
  Si      2.797237     -0.085386     -2.324411
  C       4.133430     -0.088091     -3.677432
  C       3.621282     -0.141192     -0.616749
  C       1.672285     -1.599815     -2.537741
  H       4.796090      0.798564     -3.593071
  H       3.681886     -0.075011     -4.691471
  H       4.773678     -0.992284     -3.607593
  H       2.868658     -0.058164      0.195033
  H       4.346782      0.691051     -0.498950
  H       4.174222     -1.092853     -0.472573
  H       0.983460     -1.705466     -1.673454
  H       2.276828     -2.529064     -2.598519
  H       1.069088     -1.530062     -3.467498
  H      -0.221980      0.819122     -1.915965
  C       1.775878      1.524202     -2.482923
  C       0.515282      1.588057     -1.591737
  H       1.503373      1.662299     -3.553756
  H       2.466847      2.366551     -2.247916
  Si     -0.375986      3.266762     -1.529616
  H       0.760489      1.315320     -0.540487
  C       0.771843      4.572851     -0.759297
  C      -1.950247      3.093143     -0.466418
  C      -0.882160      3.838699     -3.267230
  H       1.101157      4.286754      0.261462
  H       0.272930      5.562082     -0.692495
  H       1.687473      4.702832     -1.372838
  H      -1.779963      2.573972      0.502783
  H      -2.701124      2.471267     -0.997785
  H      -2.422839      4.075121     -0.255977
  H       0.004409      3.945387     -3.925923
  H      -1.397653      4.821091     -3.236878
  H      -1.570379      3.110551     -3.744865
