69
Coordinates from ORCA-job my_molecule_im2 E -2464.439667107167
  Pt          0.24798218943277     -0.93160966761708      0.44418465421154
  O           0.77973062715504     -0.04550261134015      2.20242980614304
  O          -2.90535607623646     -1.82409570464506      0.78037291672650
  P           1.81620732474730      1.14633040761020      2.48598491713185
  P          -2.20802848264373     -2.78199136744354     -0.18135964194860
  O          -2.01747265931901     -4.28723339873826      0.47624393328048
  O          -0.73606929405578     -2.34291481487056     -0.67296658551989
  O           0.99701833965305      2.54164213722569      2.05208547253053
  O           3.12722782741189      1.06869933485777      1.75216780560077
  C           1.90271197163851      1.26306932924138      4.34272004281273
  C          -3.09753121692838     -3.20214302147373     -1.75647663822383
  C          -2.27213638963654     -4.23371673899750     -2.55096561916979
  C          -3.24555378919312     -1.89241531516090     -2.55682425940369
  C          -4.48449671530700     -3.77463166558931     -1.40321066837565
  C           0.56996060176071      1.78042539065674      4.91520401043360
  C           2.22424011531888     -0.13866227197847      4.89881024756869
  C           3.05339719248344      2.23834707615182      4.66005351158132
  H          -2.06377076385054     -4.20415701376590      1.46976618723241
  H           1.46038370421029      2.89819504080214      1.27117758432518
  H          -1.26711784415448     -3.84301316060416     -2.80261986644951
  H          -2.79272773595164     -4.48041723072156     -3.50113604575889
  H          -2.14130905204605     -5.17248107047164     -1.97824320208906
  H          -2.25561769650422     -1.46875811365351     -2.82257433349226
  H          -3.80764661467279     -1.13237513205235     -1.97754502174416
  H          -3.80091513109093     -2.08961470435382     -3.49792873335370
  H          -4.40221960894298     -4.71770741021708     -0.82704480367421
  H          -5.04016526718067     -3.99169134882351     -2.34005683504612
  H          -5.08262369860856     -3.05668014542871     -0.80746820661942
  H          -0.27491370738438      1.10807410077998      4.66379364045323
  H           0.33409712263207      2.79244451601119      4.53316427437868
  H           0.64281473723268      1.83858057826910      6.02173358214848
  H           1.40219162685436     -0.85506813353492      4.70480029861213
  H           2.36925550376580     -0.06964031728987      5.99761849712582
  H           3.15669074052543     -0.54893792774810      4.46118488903388
  H           2.84676347360818      3.24912336482974      4.25380868390909
  H           4.00770777675933      1.87658009598960      4.22947824752101
  H           3.16926398218947      2.32848187292503      5.76103918153940
  Si          2.20746716633078     -1.06199108382532     -1.27769779830763
  C           3.52936866886844      0.00434441497380     -2.18974589256471
  C           3.12899872732353     -1.76155956694603      0.18345028385280
  C           1.56103314405376     -2.33421714189650     -2.50096230757147
  H           3.98591170695222      0.78397339255125     -1.54466514805109
  H           3.21341476868055      0.46425114941946     -3.15109486854573
  H           4.33836973912176     -0.72638633120972     -2.43206555366247
  H           2.52035582431530     -2.48427564121126      0.75857987789719
  H           3.40421898236614     -0.90995976560899      0.84439796085383
  H           4.02772942108603     -2.25664151138071     -0.23017392626226
  H           0.97445869107870     -3.08562380121474     -1.94130740916477
  H           2.45770945206323     -2.80413131384430     -2.95705126189299
  H           0.92030351492479     -1.93260753898400     -3.31148544103774
  H          -1.37764781070907      0.57849478043323     -1.19561430585097
  C           0.75390428067113      0.72924943270053     -1.19027631497502
  C          -0.59926929021011      1.29186983463229     -0.85645265361684
  H           0.86094566928039      0.60460352993326     -2.30264950318525
  H           1.59202716257202      1.39273953502014     -0.88092183461204
  Si         -1.09971556825460      3.03359350614015     -1.44825866542411
  H          -0.66251164058023      1.36167319287108      0.24846282908186
  C           0.26778051921415      4.30333364253755     -1.10700145137987
  C          -2.60708444935477      3.40659198003575     -0.37582614343394
  C          -1.54461517298021      3.03813473043763     -3.28767719602770
  H           0.49764078214588      4.36543606254186     -0.02221669030984
  H          -0.07608160638047      5.31021077603651     -1.42553242564746
  H           1.20350999804212      4.07860067105571     -1.66033317717404
  H          -2.32217665646586      3.38832274613775      0.69659042100154
  H          -3.39945550084977      2.64353893758330     -0.52058076464835
  H          -3.03759103733741      4.40144000860724     -0.60247953413058
  H          -0.66441446886654      2.82060784868569     -3.92755898104064
  H          -1.94093576582292      4.03142459752016     -3.58585493684876
  H          -2.32562236495089      2.28042396743653     -3.50739911075252
