69
Coordinates from ORCA-job my_molecule_im4 E -2464.446960317482
  Pt         -0.06310690560433     -1.27947279403878      1.15060813116607
  O           0.41421334127847      0.05614288627853      2.49523924068240
  O          -3.00709593362358     -1.87648317288459      0.86853654456124
  P           1.63073122737267      1.14776341508566      2.62814654090042
  P          -2.30661143663012     -2.88802373861136     -0.02487973565948
  O          -2.24219123680817     -4.40997243829529      0.60160467964201
  O          -0.73268548318566     -2.48164197025751     -0.25431853719101
  O           0.88621987176299      2.55903289372464      2.18350664401194
  O           2.89861192502296      0.93189045484057      1.84956146527037
  C           1.83075905621979      1.29708722177492      4.46078881437910
  C          -3.06647900608589     -3.21143477552210     -1.68386574432736
  C          -2.22832022462392     -4.23302111555804     -2.47615889460618
  C          -3.15644740149252     -1.87346754060964     -2.44562907190851
  C          -4.48298807807204     -3.76317370927265     -1.40988216848864
  C           0.53041650911969      1.83312367659730      5.08423642345728
  C           2.15892129677801     -0.11303319024173      4.98973307979194
  C           3.01665488813212      2.25327809378961      4.70705732679839
  H          -2.12087309432626     -4.34887734617041      1.57060161623369
  H           1.31709622527605      2.85530027650298      1.34889611449703
  H          -1.21595358934572     -3.84574224292133     -2.70318037583845
  H          -2.73388995535439     -4.44546529061965     -3.44252615257666
  H          -2.12151557231749     -5.18908128044426     -1.92785377580808
  H          -2.15297340295092     -1.46440035786696     -2.68062909351671
  H          -3.72106678490638     -1.11498607911297     -1.86766407803625
  H          -3.68758194916901     -2.04203824794597     -3.40623427846284
  H          -4.44365390047204     -4.72556714676543     -0.86295149298456
  H          -5.00559551588819     -3.93149817475049     -2.37522056340930
  H          -5.08316679659796     -3.04854880137580     -0.81263330590423
  H          -0.32763127703777      1.16685273048671      4.86373996165152
  H           0.29203065800778      2.84034043001326      4.69232755326763
  H           0.64516779737791      1.90431969825684      6.18638010588529
  H           1.32268125599409     -0.82038103216340      4.82762446751903
  H           2.35834629099015     -0.06492070328743      6.07914483742153
  H           3.06134979210288     -0.53201362227679      4.50312395485830
  H           2.80830717778315      3.26467853181801      4.30126568585035
  H           3.94204461561737      1.86907804290853      4.23160366027023
  H           3.18742984910754      2.34459707422616      5.80144039659901
  Si          2.22196426113875     -0.70811333974385     -1.70176511901995
  C           3.80378513420374     -0.05759834013615     -2.52813239952209
  C           2.76311966684377     -1.46755631960727     -0.04455826528888
  C           1.48728315034864     -2.15355830104911     -2.69197481784458
  H           4.26569792850527      0.72553533839772     -1.88831004132602
  H           3.57428072055236      0.38805530766230     -3.51949952283817
  H           4.53919484546868     -0.87452009090730     -2.67176093755736
  H           1.96295256300467     -1.99193028501902      0.56919384435775
  H           3.21734709308818     -0.71656112692548      0.63163018337670
  H           3.49324341365133     -2.27540708820501     -0.28888418438585
  H           0.80524547956708     -2.74831369033470     -2.04869663070858
  H           2.32263402982789     -2.81646501952841     -3.00387062598034
  H           0.93805119442601     -1.84472773589334     -3.60423730409579
  H          -0.99126971998827      0.37928820811647     -1.36334129550973
  C           1.14626079792856      0.89971166543892     -1.70358587518860
  C          -0.23132928887701      1.13096425438799     -1.04857562228374
  H           1.06819347635752      1.10433684729649     -2.80024357461512
  H           1.85476665853192      1.66920764919476     -1.31680507668800
  Si         -0.99382048643972      2.86866016192923     -1.41038208394429
  H          -0.18297339101830      1.06362565837667      0.06526486936499
  C           0.28303628956765      4.24235942476541     -1.07364179694382
  C          -2.50121806240073      3.18631753275988     -0.30375019541073
  C          -1.51831162222656      2.97041105201814     -3.23495942786374
  H           0.52729574347313      4.32550715553165      0.00736916390594
  H          -0.13292324525998      5.22475647873027     -1.38531288284675
  H           1.22506047109703      4.08382120086507     -1.63757269176890
  H          -2.21869916518734      3.16078953297648      0.76852515666599
  H          -3.30400257855848      2.43569808732831     -0.45269779562491
  H          -2.93550407822495      4.18798673670790     -0.51242078430333
  H          -0.66058830982821      2.79387171918340     -3.91594499411045
  H          -1.93060716715359      3.97541117100359     -3.46885173707994
  H          -2.29932003587035      2.21819549936785     -3.47374751091820
