69
Coordinates from ORCA-job my_molecule_im3 E -2464.434146930902
  Pt          0.03227555358986     -1.26601445977813      1.01345525484806
  O           0.61834011433157     -0.03005529222169      2.39808481302921
  O          -3.02855617490780     -1.87114004877077      0.80717221013294
  P           1.75029021722407      1.12888832844549      2.55123564188807
  P          -2.29884028907119     -2.83851363710852     -0.11364086468007
  O          -2.10537606238749     -4.34684954354645      0.52024334934590
  O          -0.76612988141683     -2.33893046750651     -0.41725386755469
  O           0.96922358590905      2.50082242885577      2.08656460713781
  O           3.07261872807520      0.96843276557010      1.78332697652172
  C           1.90047074181992      1.27234969219669      4.37918085708071
  C          -3.09689880364771     -3.21007165577847     -1.74285003895607
  C          -2.26042124685854     -4.23452623093374     -2.53425878545566
  C          -3.23296340911380     -1.89290069376698     -2.53373467902606
  C          -4.49398081693994     -3.78106024918503     -1.41302517648565
  C           0.56740855487962      1.79038436340002      4.94989474004204
  C           2.22623873197375     -0.13275662955750      4.92608454279012
  C           3.05641952101348      2.24657408235987      4.67438305203133
  H          -2.05113582435378     -4.26222997732469      1.49521972858979
  H           1.39323921510992      2.82645585808283      1.24663223145443
  H          -1.25576433787898     -3.83989356256243     -2.78368103831303
  H          -2.77926026175149     -4.47046604749930     -3.48830626062637
  H          -2.13434404773772     -5.17945051361813     -1.97116375579864
  H          -2.24447714092498     -1.46826788872308     -2.80102998037689
  H          -3.79866692895741     -1.13093117349034     -1.96156676433684
  H          -3.78336617669872     -2.09164945903563     -3.47781700637854
  H          -4.41739412653255     -4.72545866445661     -0.83865853407170
  H          -5.03816752261287     -3.99060761642727     -2.35810220656247
  H          -5.09109874211423     -3.06128286149560     -0.81801279506763
  H          -0.26997833545047      1.11396791511556      4.68888334881859
  H           0.33178037452325      2.79832096782636      4.55765101234256
  H           0.63408698553084      1.85177115067233      6.05694540867729
  H           1.40194730716760     -0.84534001899670      4.72796703121430
  H           2.37844826870428     -0.07466588876184      6.02352408796595
  H           3.15340467367348     -0.54169413051816      4.47473411035231
  H           2.85165686796040      3.25576478161721      4.26305439776678
  H           4.00754199890531      1.88158030816372      4.23780054876647
  H           3.18508428465829      2.34283382658668      5.77243831032289
  Si          2.11536066513630     -0.76680168766361     -1.46145722697784
  C           3.64819129278726     -0.00157925226235     -2.28756024745763
  C           2.88218827414561     -1.59342966501416      0.11588122748095
  C           1.52666939982969     -2.23643707397269     -2.51485391542605
  H           4.07799181052297      0.77473666915001     -1.62038778722376
  H           3.36810556490505      0.48106756170467     -3.24712797167679
  H           4.42939505000376     -0.76218673866707     -2.48718822475628
  H           2.32416565896003     -2.35690921469395      0.70837135601001
  H           3.28688661387231     -0.82708453776997      0.80600887247432
  H           3.72109125833396     -2.15361080006014     -0.36273610214486
  H           0.96915423297030     -2.96912575461529     -1.89920957951455
  H           2.43162318953126     -2.74138340843551     -2.91471329616951
  H           0.88621382159114     -1.94942779393952     -3.37239049896912
  H          -1.16795225688148      0.43994480760935     -1.24524902580226
  C           1.00408882827673      0.83092449523072     -1.50336113710198
  C          -0.39157125857341      1.17635119360018     -0.94363422225425
  H           0.99295671435268      0.99410597394432     -2.60705253162337
  H           1.72678475164923      1.59612012073837     -1.14213495248067
  Si         -1.05029781935848      2.92382636792805     -1.41849234727809
  H          -0.39215348329307      1.17236637436011      0.17029197190666
  C           0.27177240944425      4.25844658147713     -1.09649110046012
  C          -2.57085463782884      3.33657801338041     -0.36051078828217
  C          -1.52579402746374      2.99640889710595     -3.25865135666657
  H           0.51051790937752      4.35555092055611     -0.01584435317087
  H          -0.11433393142905      5.24742983591551     -1.42403877274430
  H           1.21404263441187      4.07084874900406     -1.65213462837868
  H          -2.30805990172574      3.34338788974138      0.71823438533995
  H          -3.38857186801248      2.60036430815769     -0.50688934909650
  H          -2.96484550917248      4.34210992340839     -0.62282402137122
  H          -0.65968176604934      2.80016688790920     -3.92453479249688
  H          -1.91813520465599      4.00539147930583     -3.50887158765346
  H          -2.31860401135123      2.25845911903775     -3.50182250346306
