69
Coordinates from ORCA-job my_molecule_im7 E -2464.513967177438
  Pt          0.61207310488844     -0.71338978461879     -0.07569801451242
  O           1.37304873652191      0.22415905584834      1.54108586860852
  O          -2.55796965358484     -1.10537135771423     -0.32026274112351
  P           2.70220102742610      1.09151180080754      1.65236077023111
  P          -1.82452851390493     -2.17269611870649     -1.12629360767697
  O          -1.81212050974088     -3.61860089808125     -0.30086429739553
  O          -0.31410802300241     -1.82793554169868     -1.52761720553846
  O           2.39920468828729      2.46531224464764      0.73545398016490
  O           4.03996819753992      0.51112152779371      1.23463954775706
  C           2.63260031853944      1.70414267705734      3.40606569368919
  C          -2.64885231270536     -2.61937293293450     -2.72515911881197
  C          -2.00071842818060     -3.84788209266962     -3.38854416855117
  C          -2.51338083176797     -1.37938073409625     -3.63109562505624
  C          -4.12768946129543     -2.90009194090922     -2.39458829224410
  C           1.25994813131225      2.34296125939138      3.68536775962528
  C           2.87225468914790      0.50708699855607      4.34661834504489
  C           3.76228430732934      2.73997544273391      3.55409559526730
  H          -2.09691858737550     -3.43878557798994      0.61711934613466
  H           3.21813060123998      2.61287598696913      0.22184630707822
  H          -0.92987086864877     -3.67656672925628     -3.61613883953156
  H          -2.52287540523020     -4.06343381458739     -4.34608246947811
  H          -2.08064494573762     -4.74764035955437     -2.74701143792889
  H          -1.45030845542037     -1.18716638419740     -3.87678503725893
  H          -2.92038583447690     -0.47629605096149     -3.13246671538492
  H          -3.07273365798258     -1.53403939132005     -4.57716112491286
  H          -4.22764672416923     -3.80955410901211     -1.76886012807358
  H          -4.70340140956877     -3.05833460887260     -3.33061390003724
  H          -4.57792780072871     -2.05321464416644     -1.84008439154970
  H           0.44512122891191      1.59859900777376      3.59117523212229
  H           1.05441857116448      3.17608274714182      2.98321857372502
  H           1.23963201946490      2.75230497340326      4.71800853601424
  H           2.07113342975488     -0.25241534990508      4.24917869784191
  H           2.88566838765764      0.85865693612339      5.40063883977545
  H           3.84308307503371      0.01488075710033      4.13739029652659
  H           3.59411771826513      3.60826966756210      2.88574736564976
  H           4.74324922254608      2.29180391155083      3.29904305812610
  H           3.80410334166792      3.11088005522106      4.59953293771293
  Si          2.44195890830863     -2.38721348682038     -0.23006881351115
  C           3.66161846816146     -1.78308408249104     -1.52588869494646
  C           3.30378458925154     -2.60091544638770      1.44941327442573
  C           1.75789210224385     -4.10426451684850     -0.69067561958124
  H           4.13461984512827     -0.85123557778782     -1.15970224373421
  H           3.16073891567131     -1.60439735570496     -2.49667719195932
  H           4.45027398120598     -2.55305481085746     -1.67362062155110
  H           2.62391760167252     -2.90249913935095      2.27079751343034
  H           3.85027244121687     -1.67865796229039      1.72562606016522
  H           4.04207151012042     -3.42527591959341      1.31044468585990
  H           0.99860811445148     -4.48413391706789      0.02121578693200
  H           2.62882703251026     -4.80009859590151     -0.65248613205054
  H           1.32337182123630     -4.14175996553432     -1.70664130956764
  H          -1.72065967202551      0.81436817709455     -0.05492261903328
  C           0.08323649540336      1.34207331619908     -1.06593444888573
  C          -0.99406054943473      1.66785333198883     -0.12479508385975
  H          -0.20011260113671      1.07637755253789     -2.10212282741830
  H           0.99482811852344      1.96382667080089     -0.98673509436196
  Si         -2.39823673870155      3.05172674977025     -0.39701500414828
  H          -0.58002814220300      1.93784207778318      0.86717042209839
  C          -1.80463445738391      4.80865729391303     -0.79852108858508
  C          -3.25768448221337      3.10591442008528      1.29262807697536
  C          -3.60452570480988      2.45575247435569     -1.72329316044424
  H          -1.07411267320894      5.19621695753889     -0.06036810855798
  H          -2.69574829261776      5.47492792396660     -0.75772418285327
  H          -1.36735069146584      4.90950177462995     -1.81158826701497
  H          -2.59477912898990      3.53069975626463      2.07483243192881
  H          -3.58236172015528      2.09911448193206      1.62382271175134
  H          -4.15999204303946      3.75212987113844      1.23296064190650
  H          -3.15729176055314      2.47810003049887     -2.73777525273293
  H          -4.50590726425368      3.10512483927279     -1.74007774746379
  H          -3.92869339609118      1.41792644843600     -1.50553772924160
