69
Coordinates from ORCA-job my_molecule_im3 E -2464.492425907823
  Pt          0.66300532148807     -1.12473777910808      0.06813701887336
  O           1.33984289222789      0.00337472472308      1.59204296210562
  O          -2.30536865807300     -1.30593553584077     -0.12213223737622
  P           2.64893225426561      0.94081191122359      1.63812308431417
  P          -1.78275670787652     -2.38420886660230     -1.06438276778435
  O          -1.93484797958132     -3.88475882981335     -0.35527985125211
  O          -0.22361843091465     -2.22827768810999     -1.41261673784602
  O           2.29252714364370      2.22781883252986      0.65166404198097
  O           3.98478395832770      0.34427241063938      1.23403425872992
  C           2.59358571362019      1.66261400082427      3.35219761373297
  C          -2.61965644904539     -2.60037202613559     -2.70583791158148
  C          -2.02009718395370     -3.82395786939483     -3.42724943653861
  C          -2.38722989612075     -1.31599900977304     -3.52460862117055
  C          -4.12392626297597     -2.81490982706470     -2.44567596207573
  C           1.23357534639478      2.34040504354531      3.59902463940837
  C           2.83528070838719      0.52659708229608      4.36354303032263
  C           3.73650627986516      2.69624372517320      3.42736754231044
  H          -2.44694239276111     -3.75658568248751      0.46768512809409
  H           3.10120256568455      2.42077777641886      0.13739440670660
  H          -0.93687008442424     -3.69244500730365     -3.61881926414896
  H          -2.52818222408963     -3.96099944160211     -4.40587848561613
  H          -2.15826769804588     -4.75028478808516     -2.83540328728269
  H          -1.31036105172375     -1.16409408488617     -3.73408817659045
  H          -2.76360349431672     -0.41913489542885     -2.99302883778946
  H          -2.92232321742518     -1.39182656954467     -4.49477218472099
  H          -4.30734518317720     -3.74803758860081     -1.87581251003822
  H          -4.65701918167999     -2.89943946187962     -3.41643426493517
  H          -4.56545663370294     -1.96867331899259     -1.88255503562164
  H           0.40330714974800      1.60907910902372      3.55619761878678
  H           1.03521025954820      3.13009539640738      2.84745461128422
  H           1.23076122731373      2.81135289124263      4.60527573882368
  H           2.02727608071030     -0.23000394628491      4.32080491603490
  H           2.86276928723302      0.94397196069926      5.39247999046031
  H           3.80124790269873      0.01636300396708      4.17519271999875
  H           3.56927488740374      3.53391921148255      2.72074156559071
  H           4.71459920577895      2.23148843319426      3.19188425803982
  H           3.78865991195653      3.12110697416208      4.45201381480320
  Si          2.50045701064353     -2.67545355303551     -0.06402382882617
  C           3.63256343776106     -2.03381787148537     -1.42934596360303
  C           3.36880992764038     -2.72903377897171      1.60251497390409
  C           1.74890912717801     -4.35566008584906     -0.48143282706703
  H           4.08333318448000     -1.07333671171756     -1.10910601420306
  H           3.09435905220964     -1.90082486461215     -2.38884882558921
  H           4.44882132067956     -2.76953870909702     -1.59493679438166
  H           2.67720721244342     -2.94252104808239      2.44122071612774
  H           3.88465134321488     -1.76301784029529      1.77521444816353
  H           4.11955360794461     -3.54843788742624      1.55729817408767
  H           0.96084372028881     -4.65333747622503      0.23827457393267
  H           2.56363721667462     -5.11103842575482     -0.43616446634896
  H           1.29998474870692     -4.35706598189901     -1.49189318371841
  H           1.38784963022262     -0.35779460073657     -1.02925890199972
  C          -0.02743073450005      2.60927457641259     -1.43861702129392
  C          -0.95639227434645      2.34020492452292     -0.49870970111483
  H           0.90092079291709      2.02077976631276     -1.53524835764517
  H          -0.13535286168397      3.44983326758365     -2.14756104177203
  Si         -2.57078720751118      3.30820053249218     -0.32582791089960
  H          -0.76977083070438      1.48443288674641      0.17983948614371
  C          -2.22089749733877      5.12233015269882     -0.76480150041548
  C          -3.24785980917363      3.20156844190701      1.44198303503330
  C          -3.81519335393131      2.52721034451724     -1.52619964550980
  H          -1.45666898324812      5.53843649799893     -0.07557230859543
  H          -3.13216862620870      5.74963230922537     -0.68374960624463
  H          -1.83050870944710      5.22719717795971     -1.79806084386255
  H          -2.55210805126550      3.65073160475938      2.18038075567341
  H          -3.42963767848101      2.14806893160614      1.73872547084990
  H          -4.21391661383139      3.74414070231904      1.51575015056381
  H          -3.42777106751374      2.57890364512751     -2.56465178329372
  H          -4.80915427354109      3.01913855277841     -1.49830496093516
  H          -3.94475812668688      1.45518424960579     -1.26756968519302
