69
Coordinates from ORCA-job my_molecule_im8 E -2464.548132039519
  Pt          0.40972765095059     -0.85767926686246      0.19271898774549
  O           1.24314595054683      0.01380620489317      1.80625863127785
  O          -2.86490541900495     -1.30096449732548      0.20128713049780
  P           2.41179167194140      1.08127345296564      2.01262501435078
  P          -2.07541452399371     -2.33595684202715     -0.58238919685877
  O          -1.66870973370912     -3.61657874202927      0.41065787927769
  O          -0.67663489350622     -1.87235802511399     -1.21540113426268
  O           1.80229414272732      2.50070000576275      1.36308491397923
  O           3.78651506559987      0.80430796072920      1.43492880985187
  C           2.40414817635296      1.36816898974132      3.84956489867762
  C          -2.99088570325532     -3.11089777896773     -1.99843463067085
  C          -2.14624050209217     -4.23337383860570     -2.62586778255996
  C          -3.28641648015485     -2.00064214217686     -3.02605513419660
  C          -4.30637356651539     -3.67035612293306     -1.42134326304101
  C           0.99775858460119      1.77987634079930      4.31851657084631
  C           2.84995449479301      0.05859423719462      4.52888251268494
  C           3.42473847036775      2.48925992124242      4.12891257770209
  H          -2.16664105616663     -3.49049339816849      1.24297930346199
  H           2.54993006182012      2.93746925610721      0.90882404745439
  H          -1.19966079831296     -3.84051774179992     -3.04602989205141
  H          -2.71562127141899     -4.71750313735562     -3.44802506171707
  H          -1.89405506674272     -5.01069236980120     -1.87748823804946
  H          -2.35129312135765     -1.59169118809176     -3.45725360142757
  H          -3.84787575994914     -1.16512533486664     -2.56108683599723
  H          -3.90026254740596     -2.41035345843199     -3.85612731171473
  H          -4.11148002869709     -4.47183654560678     -0.68039205896764
  H          -4.92165737515458     -4.10288535929327     -2.23833949026001
  H          -4.89395012185780     -2.87366539421868     -0.92331537015052
  H           0.25631782455514      0.98220423555691      4.11727604058402
  H           0.65936673149267      2.70347958687893      3.80782517675933
  H           1.00969511031094      1.97613834540641      5.41196229073311
  H           2.13241728845080     -0.76232613823601      4.33231747820274
  H           2.91126261162768      0.20839918687371      5.62782831289739
  H           3.84866216827801     -0.26030698993783      4.16883235039355
  H           3.11741789249926      3.44169848534874      3.65116005605287
  H           4.42925769747383      2.21811546561600      3.74789916683465
  H           3.49899213510461      2.66621925093698      5.22260316256608
  Si          2.38985520634081     -1.65322103187373     -0.87910136753172
  C           3.26794694607612     -0.18576970957598     -1.67433490901604
  C           3.41521226803682     -2.40368126879801      0.51720198845873
  C           1.93718981237726     -2.95577244174544     -2.16807560192263
  H           3.59864144533531      0.51170635430442     -0.87839526366210
  H           2.63288564078213      0.33885927694563     -2.41557861592659
  H           4.16801896252732     -0.56639330787788     -2.20425232115320
  H           2.84180752704572     -3.13190161584722      1.12488262583778
  H           3.79635569310359     -1.58806269373134      1.16340114582551
  H           4.27689576983270     -2.94103750941627      0.06432624161875
  H           1.39342720349798     -3.80673448982568     -1.71443778448038
  H           2.88063010096369     -3.33549034685678     -2.61739889436972
  H           1.30392166148927     -2.53401945152310     -2.97179689069642
  H          -2.06128677274428      0.82200680610916     -0.06223895243154
  C          -0.03623237364084      0.87504253475707     -0.84216465357458
  C          -1.18433642164297      1.50594487525709     -0.12153154339220
  H          -0.27163994435861      0.51527350043375     -1.86353228415505
  H           0.89798863552969      1.46650761974418     -0.81018879150251
  Si         -1.79375547623329      3.12850454019484     -0.97364119919982
  H          -0.89199719258886      1.81284368095574      0.90483748360797
  C          -0.34874483756664      4.35160562780081     -1.06489429323513
  C          -3.18003199097501      3.82155203738045      0.11246217189859
  C          -2.44752978407084      2.73432715918730     -2.70780730631146
  H           0.14222227161171      4.43868586217770     -0.07368816549242
  H          -0.69138556674063      5.36056895501289     -1.37452471716338
  H           0.41804050896731      4.01857723123557     -1.79461308053908
  H          -2.81170795641663      4.05476138949468      1.13253761331905
  H          -4.01278427741409      3.09527019000770      0.20934873499851
  H          -3.59064340283155      4.75662764285527     -0.32242750788692
  H          -1.64729054979927      2.34070770007385     -3.36786516258241
  H          -2.86130575408544      3.64419264449310     -3.19032297521715
  H          -3.25568311260719      1.97501162444681     -2.66558203502872
