69
Coordinates from ORCA-job my_molecule_im0 E -2464.517687878347
  Pt          1.05499903220867     -1.31229507467413     -0.37534722704118
  O           1.38030104315518      0.07625009233407      1.05546892110993
  O          -1.24102054892516     -1.26970246658516     -0.55748250265005
  P           2.75490979715703      0.91195052590447      0.97361368815179
  P          -1.14389895677294     -2.29515243530968     -1.72761618036096
  O          -1.98768014550427     -3.66434274945929     -1.39888664919200
  O           0.41347939158218     -2.61670941228659     -1.88656369217806
  O           2.52970214662947      1.97299825230355     -0.29431349189993
  O           4.04631773158425      0.13928335779286      0.77451457342106
  C           2.70762037955328      1.98244912055109      2.49146523074551
  C          -1.85399826627732     -1.78749551217104     -3.34909633052452
  C          -1.53476958144831     -2.89060982530237     -4.37935370353879
  C          -1.17197434741949     -0.45981653154332     -3.73933789306939
  C          -3.37553773059808     -1.59683716230949     -3.19523257328987
  C           1.41592545907833      2.81749920995760      2.52600768995002
  C           2.79438090039699      1.06022524199599      3.72304553931049
  C           3.94799034712342      2.89563529477162      2.41852496540212
  H          -1.90518914821105     -3.87894979282114     -0.44696127949480
  H           3.33272975830484      1.90845977080724     -0.84885916470775
  H          -0.44269442862386     -3.05150912344390     -4.47417356042968
  H          -1.92762121933784     -2.58566770936871     -5.37190409848726
  H          -2.00726090827477     -3.85442343859448     -4.10505294845377
  H          -0.07459494469493     -0.58032374421171     -3.83789720841362
  H          -1.36895347064942      0.33867356183394     -2.99624937416157
  H          -1.56697860922619     -0.12186439191888     -4.71987373990583
  H          -3.87619451257706     -2.54124531083924     -2.90636836567543
  H          -3.79958062549372     -1.26241045279772     -4.16518326232933
  H          -3.61550891551285     -0.82691056395917     -2.43553681705368
  H           0.51804789671471      2.17334246335422      2.59803564328478
  H           1.30991240527993      3.44552007676036      1.61988364181725
  H           1.43344630454777      3.48798457475454      3.41185927891783
  H           1.90847262920579      0.39858697385740      3.79257060423692
  H           2.83645474586822      1.67721101288679      4.64572900031117
  H           3.70254558305342      0.42566061841510      3.69205346326659
  H           3.89804971878272      3.57173707728448      1.54139419453171
  H           4.87908021148675      2.29930575584145      2.34535631523944
  H           4.00252442882316      3.52438514510585      3.33216473119433
  Si          2.00961427316382     -3.19728264308806      0.70029515949331
  C           3.08173873216615     -4.11252462418638     -0.55302500747776
  C           2.98733032466341     -2.65459016015907      2.20890356275841
  C           0.50799774227372     -4.25701560008402      1.18008306465837
  H           4.00121851271945     -3.54044398161534     -0.78831878542147
  H           2.51733626493560     -4.28599284728084     -1.49026629278728
  H           3.38337973537628     -5.09582007964055     -0.13272722083355
  H           2.33080743840100     -2.20242330352326      2.97778431255831
  H           3.74401761077443     -1.90098336034852      1.90851897744847
  H           3.49338728983604     -3.54065793702660      2.64872771387598
  H          -0.21800463185786     -3.68566503024615      1.79310696874076
  H           0.85509792542139     -5.12435542167086      1.78212409298631
  H           0.00678036788913     -4.65013809424788      0.27285252050950
  H           2.58378214489961     -1.28017083540657     -0.61436013966860
  C          -0.60331955664720      3.57220952550044     -1.07825654719231
  C          -1.18980820710028      2.63934682380362     -0.29840562655513
  H           0.44397433244168      3.46568029839650     -1.41275944240637
  H          -1.13449769538944      4.48533812977546     -1.40306002734918
  Si         -2.94293730312189      2.69751110632550      0.39929317447248
  H          -0.57419152338704      1.76171970947438     -0.01717583606784
  C          -3.78473299641173      4.33268926053730     -0.06670049776243
  C          -2.83692591632895      2.53641031520413      2.28876720060225
  C          -3.92792483484615      1.22819561804539     -0.28974052338619
  H          -3.22867055741106      5.20240737950737      0.34013407916469
  H          -4.81739821825886      4.37380841655243      0.33764268978382
  H          -3.85068979120370      4.45586037500854     -1.16759027669125
  H          -2.26836866584313      3.37980423628171      2.73189433577639
  H          -2.32061861091789      1.59546873770571      2.57151230481342
  H          -3.84594229062634      2.52165121481475      2.75126791815764
  H          -4.12764726764114      1.36536442842006     -1.37283736931126
  H          -4.90407209562970      1.11115786355751      0.22545562488054
  H          -3.34414608332814      0.29254805069683     -0.16353752580326
