69
Coordinates from ORCA-job my_molecule_im5 E -2464.511704336273
  Pt          0.79550018821423     -1.01882728424808      0.08042005881845
  O           1.46321475186587      0.04018246150585      1.63412095941291
  O          -2.45983177203916     -1.08735858936496     -0.36703224584526
  P           2.73506963126442      1.00120634151884      1.68311296978253
  P          -1.70140778329300     -2.28575437017997     -1.18047085446729
  O          -1.97407412841026     -3.61648029801932     -0.28521084166953
  O          -0.22991896097151     -1.94988218839602     -1.50812640936034
  O           2.35745129320121      2.32918538211810      0.73403808800623
  O           4.09815438496809      0.46982170489554      1.28212716452581
  C           2.64616662136615      1.67623689075985      3.41677489823875
  C          -2.63942526474097     -2.63724167538992     -2.72279230224561
  C          -2.02190937342376     -3.86805276443279     -3.42245968997249
  C          -2.48666003150340     -1.37956314901101     -3.60460642993432
  C          -4.11754539868116     -2.89568861488416     -2.36991259766050
  C           1.27270725145174      2.32072399144425      3.67935609257077
  C           2.88444091675182      0.49872098229028      4.38113694872037
  C           3.76871809477055      2.72174300523451      3.55384429545751
  H          -1.69413408143444     -3.50664105339791      0.64812057007646
  H           3.15863206282809      2.51217698311209      0.20401908319112
  H          -0.95216298645442     -3.71337667382446     -3.66461063943658
  H          -2.56536499041200     -4.04263506267147     -4.37522756001836
  H          -2.11209315440601     -4.78408491526353     -2.80618701261110
  H          -1.42438203364311     -1.19445455664296     -3.85746574776383
  H          -2.88713240604138     -0.47714438675854     -3.10043473299022
  H          -3.05203757785231     -1.52217562139382     -4.54798320066854
  H          -4.23581200275985     -3.81003145606326     -1.75631392894000
  H          -4.69340097058684     -3.03249933555737     -3.30874872167379
  H          -4.56325617320946     -2.04547624864656     -1.81703697881191
  H           0.45449359780625      1.58085140340790      3.57878955578937
  H           1.07794677894667      3.15430885023534      2.97482932371989
  H           1.24400932085877      2.73240887708508      4.71155787217734
  H           2.08434039800864     -0.26184702189345      4.28779561755393
  H           2.89675533892994      0.86595897266766      5.42961719167900
  H           3.85484357988366      0.00326753224847      4.17696288202053
  H           3.59636413750749      3.58372095305698      2.87797430692109
  H           4.75409893488374      2.27993545781974      3.30591677936326
  H           3.80482064360881      3.10436565857122      4.59588321294436
  Si          2.50134734254918     -2.59703153899906     -0.10741997458218
  C           3.64865455304223     -1.90001542426352     -1.44584793196896
  C           3.42575192409393     -2.76582145837655      1.52978420895280
  C           1.82881526219460     -4.29455035780143     -0.64810281845786
  H           4.08847354894852     -0.95308190968592     -1.07301470062144
  H           3.10308394330506     -1.70374919351266     -2.39046656311086
  H           4.47157551958877     -2.61651956052453     -1.65864541871855
  H           2.75051980129423     -3.03666169629983      2.36532432955038
  H           3.91822234383099     -1.79783582742467      1.75442666594754
  H           4.20282519595785     -3.55468997661160      1.43360822705435
  H           1.06474570030950     -4.69018702350740      0.05087733232545
  H           2.67370309013128     -5.01715245138986     -0.66674044123768
  H           1.38436278062725     -4.25421267397296     -1.66182775439394
  H          -1.88618489178787     -0.29535073079385     -0.24108873010696
  C          -0.08689253563156      2.05283171397309     -1.37952713069582
  C          -0.82804330561377      2.39813647724871     -0.29850613272816
  H          -0.49774209067300      2.07507396202545     -2.41049192076386
  H           0.98370621936050      1.79368172119521     -1.26147759798463
  Si         -2.50482239277262      3.27474991241666     -0.37138452084333
  H          -0.29347222629997      2.38009964078905      0.67514270647462
  C          -2.06723413768008      5.07172087611290     -0.79212046481071
  C          -3.34503350320199      3.18544432660062      1.32063433004293
  C          -3.62757724648467      2.52905446702431     -1.70697732172048
  H          -1.31895644437687      5.45762478970937     -0.06947710866810
  H          -2.94859630799792      5.74292396090360     -0.77335598973841
  H          -1.60458497531537      5.12333392722811     -1.79906358897393
  H          -2.67719873081876      3.58728042327649      2.11013172463459
  H          -3.60792801102150      2.14464293753811      1.59907073187958
  H          -4.27711025845363      3.78496818613892      1.32757958835015
  H          -3.14588333420372      2.53954869835993     -2.70628561904986
  H          -4.56924075222452      3.10969622093529     -1.78333573877222
  H          -3.89646491792917      1.48044739975586     -1.46320035416449
