69
Coordinates from ORCA-job my_molecule_im4 E -2464.498079062842
  Pt          0.83805470545559     -1.17942215357766      0.13599181458220
  O           1.41135096852053     -0.01680685047289      1.63456491854620
  O          -2.04069713149350     -1.00154147637997     -0.45818577607443
  P           2.69074136968916      0.95080004575681      1.65179261211105
  P          -1.62184941120122     -2.38910243103022     -1.20018547682589
  O          -2.15766361342993     -3.63507720052637     -0.30041599803485
  O          -0.09283258742608     -2.31783753842895     -1.44471970213615
  O           2.31554003465476      2.24592779829456      0.67410258559274
  O           4.04247116500001      0.38575479994625      1.25788480903061
  C           2.61390688146029      1.67554119715293      3.36395150803552
  C          -2.58420629777598     -2.60956487324744     -2.75047774073163
  C          -2.00935242580599     -3.84473305446025     -3.47096072615113
  C          -2.36909770441016     -1.32431221718664     -3.57592653464039
  C          -4.08194499547227     -2.80980020095574     -2.43402561326664
  C           1.24756662631672      2.34304788409982      3.60595370779302
  C           2.84847128601377      0.53413730994401      4.37124244026829
  C           3.74913779985809      2.71353583497666      3.45323314761113
  H          -2.00841249529479     -3.54670788718824      0.66062256355818
  H           3.10056194255397      2.39695175537415      0.11165014047194
  H          -0.92892305395903     -3.72463387982964     -3.67822613038646
  H          -2.53767050177933     -3.97975349352543     -4.43603408874227
  H          -2.15014411933972     -4.76549265434153     -2.87155892496698
  H          -1.29613135183252     -1.15997636020284     -3.79538938870779
  H          -2.75548668140059     -0.43074374906811     -3.04566965250319
  H          -2.91216490921721     -1.41485330024574     -4.53847986738209
  H          -4.26168149350420     -3.73840120758875     -1.85856851306314
  H          -4.63678661926965     -2.88877397140611     -3.39283524253626
  H          -4.51182705726913     -1.95748730731764     -1.86931025889285
  H           0.42334450412106      1.60488151343559      3.55467790135268
  H           1.04789922645937      3.13550532234786      2.85730459479418
  H           1.23359567096907      2.80891500073143      4.61508232329281
  H           2.04067230517548     -0.22177145089714      4.31513578006411
  H           2.87161284194910      0.94341286913679      5.40384379270977
  H           3.81348738218333      0.02252004304996      4.18193895838339
  H           3.58100754911114      3.55038626131158      2.74570985464930
  H           4.72770185932209      2.25103685782811      3.21552524580115
  H           3.79741774976679      3.13489254508414      4.47954255763878
  Si          2.56805845943058     -2.72980021679016     -0.07854949993052
  C           3.67967988518561     -2.05969467354761     -1.44997476270005
  C           3.43915187740947     -2.77614864152685      1.59053144456687
  C           1.82474660859007     -4.41866691294410     -0.50415762205045
  H           4.10638888767339     -1.09316845145068     -1.11379519493257
  H           3.11436468168796     -1.90304591720086     -2.39033200296730
  H           4.51014824809703     -2.76932710745062     -1.65194268548710
  H           2.72668342717629     -2.98092926794536      2.41380779885901
  H           3.92561996058618     -1.79404421780332      1.76111262860683
  H           4.20765442725325     -3.57776760706829      1.57691801441622
  H           1.04009462979909     -4.70040309225135      0.22662921288274
  H           2.62085951306647     -5.19070770719534     -0.46869912824510
  H           1.36775360942892     -4.41323313023502     -1.51126816088624
  H          -1.11756100947662     -0.50921749305354     -0.46166428446652
  C          -0.02242828778692      2.56335399865536     -1.42988291724007
  C          -0.94887910732625      2.33486676356279     -0.48117537568557
  H           0.90522908965402      1.97015277235059     -1.49454519754713
  H          -0.13306204565036      3.37675135982713     -2.17083419742334
  Si         -2.55891709642220      3.31400185580166     -0.32972588986591
  H          -0.73209756874434      1.52729668624399      0.24931367735318
  C          -2.19650256473945      5.12362789685274     -0.77112621686991
  C          -3.25448754174322      3.21165681577478      1.43130419602814
  C          -3.80248037792461      2.54531391226593     -1.54317414768291
  H          -1.43473369596862      5.53570739794961     -0.07686031477447
  H          -3.10481922797387      5.75664480294234     -0.69909990948374
  H          -1.79645120568802      5.22150801875557     -1.80135819934727
  H          -2.55951030035559      3.65631016064900      2.17338791402239
  H          -3.44476082103980      2.16026608622197      1.73127748584394
  H          -4.21754725255105      3.76053990905562      1.49873609023762
  H          -3.40478010189600      2.59230869736492     -2.57801003084512
  H          -4.79017574521833      3.05018271331686     -1.52607533005800
  H          -3.95490877323207      1.47521080827884     -1.28954901557252
