69
Coordinates from ORCA-job my_molecule_im2 E -2464.499217349806
  Pt          0.72122546398474     -1.10899171223137     -0.11762492348581
  O           1.28410737268961      0.07603437927094      1.42692981188160
  O          -1.84575269747440     -1.32215961354037     -0.14272524926598
  P           2.63931875752629      0.94370516714847      1.48685208992471
  P          -1.58085629043043     -2.38301499488775     -1.23346687294953
  O          -1.93634983963509     -3.87915090920400     -0.61955218465852
  O          -0.03494925344306     -2.30060716104002     -1.63296996352145
  O           2.38131888724982      2.21742561248367      0.44980311099676
  O           3.95802747007208      0.27746853666498      1.13552084054429
  C           2.59028457371979      1.71896090639188      3.18125805449388
  C          -2.49912567290472     -2.42010478713504     -2.84319979395676
  C          -1.97711551503717     -3.65027393024946     -3.62289471581234
  C          -2.18301662912988     -1.12381846074653     -3.61201091653777
  C          -4.01133364778896     -2.55722783899277     -2.58624230352047
  C           1.24511612244878      2.43439793678080      3.39759016865723
  C           2.80225057626833      0.61262303404902      4.23217003801613
  C           3.75578514282604      2.72923369089639      3.23872292082813
  H          -2.21160076608300     -3.75508953125056      0.31093239377790
  H           3.22419700607253      2.35765245970307     -0.02542812086118
  H          -0.88619518345999     -3.58392053353007     -3.80310508521573
  H          -2.48728487962501     -3.69874467498380     -4.60808582226761
  H          -2.18419002690300     -4.59411328276147     -3.08132270505280
  H          -1.09820574874221     -1.03433439951544     -3.81510268204770
  H          -2.50637019949818     -0.22373045638618     -3.05203610051893
  H          -2.71808310051448     -1.13560630247482     -4.58485103595866
  H          -4.24882775063806     -3.49692125040055     -2.04941315790121
  H          -4.54276865696429     -2.57952803360855     -3.56142318246015
  H          -4.41224097312811     -1.70478087654353     -2.00221754172075
  H           0.39955484267067      1.72010056524105      3.37125809818753
  H           1.06900500449195      3.20404973797804      2.61987379311883
  H           1.24683313055695      2.93730404763985      4.38851495748573
  H           1.98393340937495     -0.13361535829783      4.20647471987124
  H           2.82476705618530      1.06483611448950      5.24679297280681
  H           3.76281326550519      0.08281639418365      4.07327913833224
  H           3.61702493257920      3.54920080803125      2.50594263808469
  H           4.72702185670052      2.23660716391006      3.03286283402996
  H           3.80417700749549      3.18337196633954      4.25131498586765
  Si          2.41803931725369     -2.80485968731055      0.11019691308129
  C           3.62425574974752     -2.51177835820749     -1.31609705039191
  C           3.29426485272788     -2.70320657896575      1.76831288816321
  C           1.52897059733271     -4.46295670330218     -0.05838406560450
  H           4.17210251132627     -1.56255395639677     -1.14646820107008
  H           3.10194378688443     -2.47043256123640     -2.29288899371184
  H           4.36413600629618     -3.33942866301364     -1.35460771292152
  H           2.60102137789703     -2.78070930470300      2.62836899019611
  H           3.86326906319528     -1.75398786286339      1.82819752581820
  H           3.99959414622694     -3.56245638712750      1.81039078371360
  H           0.74214351170362     -4.59494612455211      0.71027582734574
  H           2.28621017362044     -5.26388221132887      0.08729774008819
  H           1.06148480756767     -4.57439444714695     -1.05368574297680
  H           1.94158637244474     -0.62252850904904     -0.89123673072565
  C          -0.10085968920484      2.87501768923117     -1.39117696162408
  C          -0.99267698424655      2.42822781343875     -0.48296952155827
  H           0.86596350236468      2.37130788512463     -1.55443307272358
  H          -0.28595606028611      3.78063515510479     -1.99604572087062
  Si         -2.67591078210387      3.22327001100150     -0.17785114205146
  H          -0.72485844207347      1.51893723979625      0.09061057805551
  C          -2.57133113596135      5.05746406588516     -0.65479150117382
  C          -3.18269481727794      3.07039473504885      1.64362427552913
  C          -3.93575721889489      2.29557805243766     -1.25431025906063
  H          -1.80543806712811      5.56770175334527     -0.03410268641757
  H          -3.53811698889529      5.57866757622309     -0.50003893136350
  H          -2.28346654543521      5.19104439422361     -1.71789830402645
  H          -2.47416718329608      3.59938754900630      2.31380913133367
  H          -3.22291564772389      2.00786468865648      1.96065721225588
  H          -4.19049653108577      3.50864170840065      1.80283691149376
  H          -3.66737765311630      2.39026902756794     -2.32683278146217
  H          -4.97226108955922      2.66733439620628     -1.11933396974724
  H          -3.91319598731836      1.21632320108323     -0.99384663678453
