69
Coordinates from ORCA-job my_molecule_im1 E -2464.509878314993
  Pt          0.85467996737960     -1.14766663537342     -0.26080136544144
  O           1.26099401257049      0.13784464583926      1.25066820897555
  O          -1.49780142763277     -1.29331519479652     -0.30319041959545
  P           2.64625211509497      0.95780422844797      1.29236623928687
  P          -1.36711775609751     -2.35162453539423     -1.43730687786909
  O          -1.92667918515999     -3.80557384350236     -0.90173313458743
  O           0.18999926087120     -2.40701747417829     -1.79202638855865
  O           2.45832192630909      2.19465584438692      0.19439068523735
  O           3.93649222944426      0.21794691248712      0.98369284837701
  C           2.60553178467212      1.80678715042958      2.94878500582867
  C          -2.28953812997817     -2.19344387384277     -3.02974073062964
  C          -1.86178031919318     -3.39984340688404     -3.89832948950689
  C          -1.86140493414251     -0.86969379056217     -3.69148824902129
  C          -3.80903888035306     -2.22319551890757     -2.78008103202242
  C           1.28083420406501      2.57053341715604      3.12354527325719
  C           2.77317996861151      0.73899305940567      4.04703268136939
  C           3.80235391462540      2.78004682554799      2.97260068045122
  H          -1.88480256854017     -3.82291181634132      0.07565861586078
  H           3.30143342907358      2.24462020619709     -0.29870717429752
  H          -0.76563326390230     -3.41562401423533     -4.05719661553467
  H          -2.35531626812783     -3.32626771924869     -4.88994491030485
  H          -2.16104244804677     -4.36079580638981     -3.43566821619049
  H          -0.77000653734686     -0.84909008798201     -3.87850923808615
  H          -2.12304129936145      0.00650605156153     -3.06518605590117
  H          -2.38089412465612     -0.76549151147985     -4.66684279364792
  H          -4.12286545553121     -3.16725718157661     -2.29362771597807
  H          -4.33320840704768     -2.15063414569978     -3.75653413432335
  H          -4.14526521237722     -1.37297763473596     -2.15353003531695
  H           0.41473912527467      1.88056430396941      3.12917460496760
  H           1.12600759267925      3.30698483441303      2.30999506812533
  H           1.29531461116193      3.11961164364378      4.08955861069252
  H           1.93070387104848      0.01962615537055      4.04603301643550
  H           2.80282133787751      1.23317098773076      5.04157367871971
  H           3.71660440400039      0.17189728620169      3.91843241470694
  H           3.69746039790841      3.56673623227336      2.19913488552887
  H           4.75774195077445      2.24530048784607      2.80001950954186
  H           3.85672962988319      3.27927231288298      3.96318720382368
  Si          2.30205149501875     -2.96721772715912      0.30785256553964
  C           3.52020279388306     -3.13798995145433     -1.12594810268135
  C           3.18998600089725     -2.67651052141625      1.93619692426252
  C           1.17626615632432     -4.48352383033101      0.44699986070386
  H           4.21746247567471     -2.27569985486776     -1.13138655063883
  H           2.98673492071666     -3.17999935972852     -2.09617495757478
  H           4.11692317822491     -4.06736741171730     -1.01131487815813
  H           2.48651681392662     -2.56183142721247      2.78407050376760
  H           3.82054860859569     -1.76830154587936      1.85843013356901
  H           3.83115448171472     -3.56409621618826      2.12957524388343
  H           0.43048493570732     -4.36047388612985      1.25891843836109
  H           1.81297446889019     -5.35532972784352      0.71222361430984
  H           0.65044707464741     -4.69717623552515     -0.50184003930989
  H           2.30369857536594     -0.87900148134105     -0.70633373097276
  C          -0.23731622814196      3.15004591827191     -1.30161861940446
  C          -1.03240108182415      2.53109267210133     -0.40353503469212
  H           0.78585133238024      2.79392847085498     -1.50707415196192
  H          -0.56339819463458      4.05266001748438     -1.84898286297508
  Si         -2.78745329467132      3.07105879742453      0.02608562125260
  H          -0.61856928091525      1.64079242781831      0.10988825789865
  C          -3.01292062751554      4.88245993076328     -0.49216814087624
  C          -3.08714735968045      2.89586961456572      1.89206654178207
  C          -3.99976959185759      1.93901398800378     -0.90096105808186
  H          -2.28248367082659      5.52690874755099      0.03987737048526
  H          -4.03094650549826      5.25286417127104     -0.25441659491061
  H          -2.84990635314718      5.01892174389141     -1.58111009709228
  H          -2.39757340944438      3.53779128315907      2.47809738495049
  H          -2.93701804204250      1.84699544256439      2.22165043048794
  H          -4.12631216832763      3.18721723312688      2.15270963065827
  H          -3.88438908538705      2.06092768147728     -1.99795001293590
  H          -5.05720685501239      2.14948739783964     -0.63846768186068
  H          -3.77925107887166      0.88000524396492     -0.65076466215800
