69
Coordinates from ORCA-job my_molecule_im6 E -2464.478366680920
  Pt          0.74380981378446     -1.10879180124178      0.04836549533391
  O           1.40762649199798      0.06041708035101      1.55510478086414
  O          -2.37328807549257     -1.00945169369319     -0.39315263835456
  P           2.69609692622793      0.99241348515223      1.64102045660124
  P          -1.77613185002453     -2.22123903825933     -1.11753633105054
  O          -2.02176543102825     -3.63047782566116     -0.28234223805321
  O          -0.20918447238356     -2.10537160412553     -1.43635319439274
  O           2.33567642213919      2.33281021048017      0.68176530810124
  O           4.06055005545937      0.46497914433277      1.24562139825027
  C           2.62155571856498      1.67455681509983      3.37518789680360
  C          -2.61374409250195     -2.61493607092079     -2.72520438959851
  C          -1.99293355616200     -3.84712141755842     -3.40848249875610
  C          -2.45426951969980     -1.36646573351398     -3.61580841877096
  C          -4.10172506694985     -2.86751276507863     -2.40639618313761
  C           1.25311419180743      2.32480644999013      3.64539579029178
  C           2.86301357857452      0.50336885609326      4.34779767234035
  C           3.75050537135123      2.71449146978587      3.50308569231219
  H          -1.97270108390057     -3.45212144104556      0.67757406657921
  H           3.15641012587418      2.49269447023417      0.17333673693201
  H          -0.91879660812027     -3.69426455496530     -3.63180105619650
  H          -2.52252518110125     -4.03767637013708     -4.36765782380404
  H          -2.08982615260632     -4.75383432682185     -2.77945629208255
  H          -1.38811345899104     -1.18224900195938     -3.85698573907959
  H          -2.85795034201870     -0.46486506308907     -3.11257853714825
  H          -3.00833178156625     -1.50725905128741     -4.56724320406049
  H          -4.22659619153580     -3.78134363317153     -1.79294052166240
  H          -4.67285136312862     -2.99858667685053     -3.34947032159706
  H          -4.54124054464553     -2.01795861304460     -1.84639767405484
  H           0.43201117366461      1.58626385549851      3.55742501297706
  H           1.05805717467834      3.15567550642044      2.93737319115881
  H           1.23493844180423      2.74341560674766      4.67484546245717
  H           2.06409993921255     -0.26023232101206      4.26785174866025
  H           2.87765359013096      0.88212258429545      5.39242101968203
  H           3.83433602245860      0.00777018604326      4.14882304483734
  H           3.58362868607655      3.57347548186525      2.82253285591954
  H           4.73259907889738      2.26499606607564      3.25725910181184
  H           3.79064649527631      3.10249736884557      4.54272658110121
  Si          2.53418485659430     -2.61773178372228     -0.11633426350579
  C           3.68175014935208     -1.93846021052070     -1.45879966746557
  C           3.44269953036095     -2.76038568062074      1.53670148975828
  C           1.85670425991341     -4.32435060822007     -0.61046914085195
  H           4.11725936922541     -0.98387602987898     -1.10151073906448
  H           3.12795613530437     -1.76140430982175     -2.40241764713413
  H           4.50564275904152     -2.65611859529474     -1.66379062169619
  H           2.75648715362320     -3.02298429119789      2.36651293086104
  H           3.94197867203266     -1.79733361602886      1.76270215526400
  H           4.21318963528507     -3.55854877171620      1.45778264282283
  H           1.08719049227519     -4.68891587613493      0.09953337358486
  H           2.69391505179996     -5.05678476285118     -0.61703079581959
  H           1.39720800169112     -4.29430828796060     -1.61737184231586
  H          -1.57968657617262      0.94486048631935     -0.29813368795889
  C          -0.10558294203447      2.09255537453041     -1.34072709453423
  C          -0.98676032968977      1.90058998756830     -0.25240274566711
  H          -0.36535296412415      1.75428976464377     -2.36221106481588
  H           0.81269054760548      2.68631699094440     -1.19966396559976
  Si         -2.54281751518089      3.17187181916086     -0.35909260579543
  H          -0.53109368003679      2.09239935094103      0.73890445404391
  C          -1.97143412725705      4.92507891653581     -0.76818943807763
  C          -3.31141203513059      3.12492769183975      1.36167427914665
  C          -3.69073803974643      2.48632057052300     -1.68308219395577
  H          -1.21914439444194      5.30373091055833     -0.04754737278760
  H          -2.84248201459777      5.61334847592835     -0.72671329327320
  H          -1.54033812976308      5.00072588159637     -1.78600614567049
  H          -2.62519685756268      3.54507595374868      2.12489235994217
  H          -3.57645115718970      2.09143979360223      1.65868980577061
  H          -4.23867657135763      3.73766185505801      1.36129623829973
  H          -3.22203677799617      2.52216049408667     -2.68775491273666
  H          -4.62744609230075      3.08090556505653     -1.72187796538320
  H          -3.94656093564618      1.43194730745303     -1.45326877659993
