69
Coordinates from ORCA-job my_molecule_initial_path E   0.000000000000
  Pt      1.054999     -1.312295     -0.375347
  O       1.380301      0.076250      1.055469
  O      -1.241021     -1.269702     -0.557483
  P       2.754910      0.911951      0.973614
  P      -1.143899     -2.295152     -1.727616
  O      -1.987680     -3.664343     -1.398887
  O       0.413479     -2.616709     -1.886564
  O       2.529702      1.972998     -0.294313
  O       4.046318      0.139283      0.774515
  C       2.707620      1.982449      2.491465
  C      -1.853998     -1.787496     -3.349096
  C      -1.534770     -2.890610     -4.379354
  C      -1.171974     -0.459817     -3.739338
  C      -3.375538     -1.596837     -3.195233
  C       1.415925      2.817499      2.526008
  C       2.794381      1.060225      3.723046
  C       3.947990      2.895635      2.418525
  H      -1.905189     -3.878950     -0.446961
  H       3.332730      1.908460     -0.848859
  H      -0.442694     -3.051509     -4.474174
  H      -1.927621     -2.585668     -5.371904
  H      -2.007261     -3.854423     -4.105053
  H      -0.074595     -0.580324     -3.837897
  H      -1.368953      0.338674     -2.996249
  H      -1.566979     -0.121864     -4.719874
  H      -3.876195     -2.541245     -2.906368
  H      -3.799581     -1.262410     -4.165183
  H      -3.615509     -0.826911     -2.435537
  H       0.518048      2.173342      2.598036
  H       1.309912      3.445520      1.619884
  H       1.433446      3.487985      3.411859
  H       1.908473      0.398587      3.792571
  H       2.836455      1.677211      4.645729
  H       3.702546      0.425661      3.692053
  H       3.898050      3.571737      1.541394
  H       4.879080      2.299306      2.345356
  H       4.002524      3.524385      3.332165
  Si      2.009614     -3.197283      0.700295
  C       3.081739     -4.112525     -0.553025
  C       2.987330     -2.654590      2.208904
  C       0.507998     -4.257016      1.180083
  H       4.001219     -3.540444     -0.788319
  H       2.517336     -4.285993     -1.490266
  H       3.383380     -5.095820     -0.132727
  H       2.330807     -2.202423      2.977784
  H       3.744018     -1.900983      1.908519
  H       3.493387     -3.540658      2.648728
  H      -0.218005     -3.685665      1.793107
  H       0.855098     -5.124355      1.782124
  H       0.006780     -4.650138      0.272853
  H       2.583782     -1.280171     -0.614360
  C      -0.603320      3.572210     -1.078257
  C      -1.189808      2.639347     -0.298406
  H       0.443974      3.465680     -1.412759
  H      -1.134498      4.485338     -1.403060
  Si     -2.942937      2.697511      0.399293
  H      -0.574192      1.761720     -0.017176
  C      -3.784733      4.332689     -0.066700
  C      -2.836926      2.536410      2.288767
  C      -3.927925      1.228196     -0.289741
  H      -3.228671      5.202407      0.340134
  H      -4.817398      4.373808      0.337643
  H      -3.850690      4.455860     -1.167590
  H      -2.268369      3.379804      2.731894
  H      -2.320619      1.595469      2.571512
  H      -3.845942      2.521651      2.751268
  H      -4.127647      1.365364     -1.372837
  H      -4.904072      1.111158      0.225456
  H      -3.344146      0.292548     -0.163538
69
Coordinates from ORCA-job my_molecule_initial_path E   0.000000000000
  Pt      0.876845     -1.244144     -0.228760
  O       1.388655      0.096380      1.193592
  O      -1.485004     -1.261024     -0.488207
  P       2.744332      0.966828      1.170364
  P      -1.330623     -2.323569     -1.600013
  O      -2.073734     -3.727168     -1.182670
  O       0.238298     -2.500549     -1.802157
  O       2.555353      2.126225     -0.008077
  O       4.065963      0.263312      0.913896
  C       2.696956      1.930651      2.754851
  C      -2.080211     -2.025336     -3.253762
  C      -1.700910     -3.179392     -4.203856
  C      -1.504364     -0.695896     -3.772062
  C      -3.608894     -1.956900     -3.097924
  C       1.386211      2.727749      2.839861
  C       2.807269      0.933027      3.922734
  C       3.910648      2.881979      2.752171
  H      -2.106310     -3.819297     -0.209985
  H       3.381888      2.154770     -0.531533
  H      -0.602685     -3.257262     -4.321839
  H      -2.138164     -2.993917     -5.207571
  H      -2.081137     -4.154175     -3.840339
  H      -0.405736     -0.739657     -3.908403
  H      -1.707458      0.135088     -3.071227
  H      -1.959587     -0.454953     -4.754599
  H      -4.039799     -2.905795     -2.723785
  H      -4.076306     -1.731174     -4.078849
  H      -3.893937     -1.151337     -2.397126
  H       0.511116      2.050709      2.859111
  H       1.271965      3.408403      1.973981
  H       1.386079      3.330995      3.772705
  H       1.937677      0.247520      3.947167
  H       2.837849      1.483786      4.886871
  H       3.734684      0.331274      3.846031
  H       3.841156      3.624779      1.932173
  H       4.857186      2.318697      2.631987
  H       3.952634      3.442851      3.709678
  Si      2.166133     -3.082195      0.489027
  C       3.341423     -3.696498     -0.853541
  C       3.112266     -2.678280      2.059546
  C       0.843508     -4.379266      0.893052
  H       4.190408     -2.999729     -1.006443
  H       2.803169     -3.834165     -1.811386
  H       3.764723     -4.682296     -0.563555
  H       2.429536     -2.381738      2.879059
  H       3.809136     -1.842953      1.850764
  H       3.699701     -3.562084      2.391763
  H       0.089736     -3.978233      1.599454
  H       1.314189     -5.272057      1.360168
  H       0.360874     -4.733500     -0.037584
  H       2.313399     -0.835234     -1.042783
  C      -0.405595      3.332526     -1.180136
  C      -1.104815      2.545313     -0.323031
  H       0.476526      2.996836     -1.746847
  H      -0.707806      4.358771     -1.451535
  Si     -2.856084      2.874791      0.251776
  H      -0.559518      1.712490      0.151070
  C      -3.387099      4.611912     -0.290457
  C      -3.002775      2.703674      2.132614
  C      -3.997394      1.582814     -0.523237
  H      -2.732186      5.380958      0.168485
  H      -4.428737      4.828477      0.024739
  H      -3.351093      4.733212     -1.393011
  H      -2.382292      3.469377      2.639926
  H      -2.667232      1.701323      2.469071
  H      -4.047009      2.847351      2.482424
  H      -4.067389      1.724820     -1.620062
  H      -5.030925      1.637705     -0.121857
  H      -3.574686      0.582405     -0.301902
69
Coordinates from ORCA-job my_molecule_initial_path E   0.000000000000
  Pt      0.726644     -1.231768     -0.049579
  O       1.378860      0.096123      1.330211
  O      -1.719782     -1.243841     -0.409497
  P       2.709765      1.001728      1.343644
  P      -1.499438     -2.350649     -1.452041
  O      -2.124916     -3.770089     -0.910304
  O       0.065455     -2.407823     -1.698552
  O       2.517348      2.244262      0.253592
  O       4.051969      0.361194      1.035778
  C       2.668187      1.863287      2.987050
  C      -2.287333     -2.255424     -3.113658
  C      -1.857681     -3.447029     -3.992092
  C      -1.816921     -0.949986     -3.772388
  C      -3.812591     -2.284896     -2.924179
  C       1.336124      2.611948      3.137263
  C       2.814053      0.800808      4.091425
  C       3.855188      2.846967      3.039852
  H      -2.232845     -3.752138      0.060697
  H       3.352713      2.338825     -0.248443
  H      -0.761264     -3.456883     -4.143051
  H      -2.335079     -3.376442     -4.992644
  H      -2.156446     -4.413220     -3.541363
  H      -0.725091     -0.924912     -3.955366
  H      -2.031600     -0.089681     -3.116653
  H      -2.329213     -0.805309     -4.745136
  H      -4.167415     -3.232274     -2.472984
  H      -4.322289     -2.163135     -3.902386
  H      -4.139063     -1.458032     -2.268996
  H       0.479171      1.912687      3.110963
  H       1.209064      3.346215      2.318952
  H       1.326685      3.152934      4.107444
  H       1.964104      0.090987      4.079018
  H       2.840333      1.289746      5.088569
  H       3.759350      0.235507      3.970515
  H       3.760000      3.643122      2.274302
  H       4.815651      2.320066      2.873854
  H       3.892781      3.346253      4.031109
  Si      2.307773     -2.958110      0.288431
  C       3.549352     -3.221883     -1.112064
  C       3.216818     -2.701998      1.913668
  C       1.199010     -4.474166      0.511301
  H       4.303641     -2.409138     -1.146140
  H       3.044287     -3.304289     -2.094389
  H       4.102267     -4.174675     -0.962164
  H       2.514572     -2.567764      2.758739
  H       3.852244     -1.800755      1.819515
  H       3.880233     -3.567266      2.135423
  H       0.428399     -4.291910      1.284756
  H       1.795163     -5.359879      0.824900
  H       0.734778     -4.757289     -0.450387
  H       1.906007     -0.477439     -1.271533
  C      -0.247413      3.102442     -1.255845
  C      -1.044753      2.427779     -0.370506
  H       0.379787      2.645646     -2.034453
  H      -0.273582      4.198132     -1.393028
  Si     -2.751188      3.034348      0.085772
  H      -0.563695      1.708820      0.306761
  C      -2.960205      4.832859     -0.476969
  C      -3.149129      2.876172      1.927193
  C      -3.991147      1.955573     -0.840967
  H      -2.241114      5.483926      0.061473
  H      -3.979495      5.211901     -0.256306
  H      -2.809193      4.959758     -1.569336
  H      -2.496370      3.547360      2.519458
  H      -3.002523      1.838102      2.288189
  H      -4.195144      3.172757      2.155900
  H      -3.916740      2.100218     -1.935947
  H      -5.044956      2.171609     -0.567285
  H      -3.752163      0.910030     -0.569086
69
Coordinates from ORCA-job my_molecule_initial_path E   0.000000000000
  Pt      0.545567     -1.314101      0.244061
  O       1.350188      0.074957      1.491933
  O      -1.951533     -1.229794     -0.331136
  P       2.662376      1.007016      1.514068
  P      -1.661864     -2.386365     -1.289219
  O      -2.127748     -3.818016     -0.630213
  O      -0.114606     -2.384935     -1.573247
  O       2.455889      2.299356      0.491924
  O       4.026101      0.432506      1.168320
  C       2.627106      1.787601      3.197712
  C      -2.473888     -2.472539     -2.941579
  C      -1.996524     -3.682765     -3.765933
  C      -2.112565     -1.200293     -3.721727
  C      -3.987372     -2.582651     -2.691868
  C       1.275566      2.485362      3.404440
  C       2.817195      0.670471      4.239446
  C       3.787768      2.799926      3.288856
  H      -2.281982     -3.713051      0.328973
  H       3.289328      2.435076     -0.004176
  H      -0.909310     -3.624640     -3.963755
  H      -2.513176     -3.715958     -4.749238
  H      -2.215481     -4.631419     -3.239651
  H      -1.032239     -1.099217     -3.938225
  H      -2.372705     -0.325431     -3.107449
  H      -2.669071     -1.149546     -4.679185
  H      -4.256412     -3.522797     -2.170698
  H      -4.537474     -2.562019     -3.655536
  H      -4.348111     -1.740513     -2.073750
  H       0.432993      1.770981      3.343597
  H       1.129467      3.263628      2.631634
  H       1.261468      2.970813      4.403472
  H       1.989302     -0.063959      4.199208
  H       2.843495      1.105929      5.261036
  H       3.777364      0.141387      4.078070
  H       3.663270      3.633228      2.568316
  H       4.761382      2.311597      3.085418
  H       3.824248      3.247695      4.304457
  Si      2.425280     -2.822166      0.096269
  C       3.673167     -2.688673     -1.326493
  C       3.307875     -2.727138      1.752383
  C       1.549572     -4.491898      0.053317
  H       4.319488     -1.793943     -1.213241
  H       3.192778     -2.672868     -2.325399
  H       4.347238     -3.573096     -1.330682
  H       2.604585     -2.766177      2.606258
  H       3.876193     -1.778870      1.789401
  H       4.044725     -3.555306      1.852190
  H       0.771942     -4.568184      0.835853
  H       2.268659     -5.327449      0.207614
  H       1.115244     -4.671062     -0.945305
  H       1.351890     -0.278631     -1.228654
  C      -0.113958      2.890326     -1.331215
  C      -0.987144      2.306113     -0.422020
  H       0.214076      2.466472     -2.295228
  H       0.094819      3.976862     -1.345342
  Si     -2.624193      3.165083     -0.101831
  H      -0.579839      1.747893      0.431654
  C      -2.522412      4.988003     -0.625609
  C      -3.266048      3.052819      1.670270
  C      -3.883282      2.301065     -1.210494
  H      -1.771733      5.511135      0.002020
  H      -3.491842      5.511648     -0.492265
  H      -2.256272      5.127242     -1.694637
  H      -2.608064      3.618239      2.359068
  H      -3.311688      2.004369      2.026789
  H      -4.280984      3.493283      1.775064
  H      -3.643654      2.430113     -2.283574
  H      -4.920833      2.673606     -1.080764
  H      -3.853599      1.233671     -0.923751
69
Coordinates from ORCA-job my_molecule_initial_path E   0.000000000000
  Pt      0.417578     -1.542170      0.692777
  O       1.355635      0.035986      1.681158
  O      -2.185038     -1.289797     -0.240511
  P       2.626734      1.013588      1.668172
  P      -1.809143     -2.462971     -1.145512
  O      -2.103405     -3.904148     -0.406858
  O      -0.279217     -2.478032     -1.517573
  O       2.373080      2.336358      0.703181
  O       4.003712      0.496028      1.290977
  C       2.592516      1.718878      3.385605
  C      -2.641329     -2.670158     -2.781708
  C      -2.108365     -3.879682     -3.569938
  C      -2.392261     -1.418326     -3.637845
  C      -4.135863     -2.855166     -2.467108
  C       1.225601      2.369353      3.641010
  C       2.832116      0.557176      4.367247
  C       3.727261      2.757085      3.504672
  H      -2.308891     -3.752295      0.536025
  H       3.208308      2.521498      0.225958
  H      -1.038945     -3.749846     -3.823353
  H      -2.658149     -3.999299     -4.528280
  H      -2.239437     -4.810782     -2.986541
  H      -1.327726     -1.232749     -3.871650
  H      -2.733088     -0.551647     -3.053353
  H      -2.969673     -1.452617     -4.583816
  H      -4.317332     -3.785285     -1.892782
  H      -4.715186     -2.922518     -3.411490
  H      -4.529975     -2.005314     -1.878268
  H       0.396545      1.641756      3.555378
  H       1.052212      3.184316      2.912876
  H       1.209964      2.803229      4.663474
  H       2.026699     -0.200886      4.311202
  H       2.860823      0.945297      5.407569
  H       3.802761      0.061383      4.166465
  H       3.570693      3.618739      2.824800
  H       4.711455      2.306190      3.268282
  H       3.765458      3.158723      4.539279
  Si      2.489911     -2.645582     -0.079544
  C       3.651115     -2.102825     -1.476044
  C       3.396230     -2.736161      1.566819
  C       1.842257     -4.384441     -0.432196
  H       4.214110     -1.186862     -1.205877
  H       3.128087     -1.920611     -2.435639
  H       4.414889     -2.888469     -1.671711
  H       2.735273     -2.960566      2.426726
  H       3.896503     -1.764752      1.740131
  H       4.195967     -3.509534      1.527797
  H       1.079084     -4.713430      0.297318
  H       2.662596     -5.137556     -0.416492
  H       1.442808     -4.434569     -1.460426
  H       0.457191     -0.236960     -0.799542
  C       0.005326      2.666187     -1.423531
  C      -0.921901      2.243848     -0.434033
  H       0.218962      2.203736     -2.407312
  H       0.409278      3.693320     -1.431041
  Si     -2.490384      3.265020     -0.294675
  H      -0.589654      1.896156      0.557403
  C      -2.081108      5.060384     -0.758571
  C      -3.341688      3.225298      1.389778
  C      -3.686734      2.561684     -1.571284
  H      -1.321263      5.456706     -0.053945
  H      -2.978957      5.709912     -0.699246
  H      -1.706749      5.185432     -1.796672
  H      -2.708846      3.695336      2.168366
  H      -3.561979      2.190166      1.718863
  H      -4.298598      3.790351      1.375871
  H      -3.291726      2.626806     -2.603944
  H      -4.667486      3.081868     -1.585998
  H      -3.858642      1.508213     -1.280871
69
Coordinates from ORCA-job my_molecule_initial_path E   0.000000000000
  Pt      0.740089     -1.051332      0.009562
  O       1.462598      0.084937      1.599098
  O      -2.695751     -1.536864     -0.239651
  P       2.671075      1.078008      1.727673
  P      -1.861227     -2.500813     -1.089749
  O      -2.040504     -3.962230     -0.337234
  O      -0.350183     -2.128843     -1.392545
  O       2.340540      2.419440      0.819329
  O       4.033060      0.560012      1.315639
  C       2.603609      1.686524      3.477116
  C      -2.721782     -2.774219     -2.696437
  C      -2.105324     -3.956817     -3.455079
  C      -2.548601     -1.520994     -3.567359
  C      -4.209562     -3.055465     -2.399735
  C       1.245250      2.323292      3.795724
  C       2.858875      0.490568      4.412091
  C       3.722384      2.737534      3.625595
  H      -2.302005     -3.864229      0.598334
  H       3.169183      2.642147      0.347261
  H      -1.047159     -3.752706     -3.701770
  H      -2.644768     -4.132565     -4.410725
  H      -2.177376     -4.881921     -2.852676
  H      -1.494532     -1.272640     -3.784991
  H      -2.974483     -0.682523     -2.997076
  H      -3.109472     -1.607222     -4.520258
  H      -4.331410     -3.979412     -1.799615
  H      -4.773795     -3.176617     -3.348160
  H      -4.695418     -2.224682     -1.851385
  H       0.430271      1.582137      3.717449
  H       1.042025      3.162812      3.105325
  H       1.230553      2.716256      4.835108
  H       2.064062     -0.275240      4.322495
  H       2.888927      0.833393      5.468348
  H       3.834646      0.016745      4.186981
  H       3.546334      3.620607      2.978322
  H       4.708466      2.305759      3.364255
  H       3.765645      3.099366      4.674512
  Si      2.527159     -2.462348     -0.231821
  C       3.674321     -1.762445     -1.546386
  C       3.394608     -2.699045      1.420094
  C       1.922119     -4.164739     -0.751735
  H       4.197772     -0.862899     -1.167836
  H       3.132098     -1.508092     -2.477159
  H       4.458552     -2.509053     -1.801541
  H       2.691203     -2.992387      2.223206
  H       3.891892     -1.745704      1.680097
  H       4.192742     -3.470946      1.344302
  H       1.169492     -4.569779     -0.053437
  H       2.750123     -4.906409     -0.813632
  H       1.509804     -4.083072     -1.770440
  H      -1.123862     -0.194731      0.769254
  C       0.086766      2.120675     -1.302648
  C      -0.953790      2.053071     -0.332359
  H       0.103960      1.461069     -2.175818
  H       0.543821      3.098448     -1.538762
  Si     -2.393586      3.268354     -0.397839
  H      -0.505217      2.128287      0.674641
  C      -1.730270      4.979588     -0.850172
  C      -3.379764      3.351449      1.214389
  C      -3.531838      2.672262     -1.774434
  H      -0.972367      5.301413     -0.107914
  H      -2.551629      5.726104     -0.862190
  H      -1.257720      5.008743     -1.853403
  H      -2.774187      3.773451      2.041354
  H      -3.738112      2.352732      1.536145
  H      -4.276007      4.000577      1.114012
  H      -3.027108      2.664979     -2.760365
  H      -4.444040      3.295158     -1.886314
  H      -3.861173      1.653085     -1.497062
69
Coordinates from ORCA-job my_molecule_initial_path E   0.000000000000
  Pt      0.569420     -0.949930      0.089001
  O       1.366315      0.092413      1.660353
  O      -2.799640     -1.555715     -0.083457
  P       2.584504      1.094325      1.831930
  P      -1.941836     -2.481334     -0.927228
  O      -1.906849     -3.913718     -0.099855
  O      -0.477243     -2.030688     -1.317051
  O       2.200529      2.497839      1.027647
  O       3.960620      0.651372      1.377650
  C       2.545226      1.594544      3.620135
  C      -2.838939     -2.912719     -2.483233
  C      -2.156904     -4.079468     -3.208992
  C      -2.827145     -1.688969     -3.412909
  C      -4.285043     -3.299629     -2.108466
  C       1.169948      2.163152      3.996148
  C       2.851667      0.349047      4.472085
  C       3.636570      2.665684      3.820557
  H      -2.231976     -3.804493      0.813881
  H       3.012964      2.795817      0.570028
  H      -1.132524     -3.799301     -3.514754
  H      -2.713962     -4.352208     -4.131180
  H      -2.117091     -4.972016     -2.556434
  H      -1.805312     -1.374972     -3.691911
  H      -3.318942     -0.865419     -2.869195
  H      -3.405738     -1.876450     -4.341317
  H      -4.297721     -4.197088     -1.458245
  H      -4.873376     -3.518363     -3.024538
  H      -4.811475     -2.481797     -1.577586
  H       0.379091      1.400440      3.875015
  H       0.926256      3.039857      3.367051
  H       1.160302      2.490847      5.057838
  H       2.078170     -0.432828      4.341443
  H       2.888456      0.624640      5.547668
  H       3.837324     -0.079464      4.203150
  H       3.424369      3.583277      3.235081
  H       4.630302      2.281163      3.517370
  H       3.686797      2.962348      4.889466
  Si      2.498532     -2.170070     -0.446811
  C       3.626269     -1.222191     -1.623293
  C       3.390014     -2.626146      1.151947
  C       2.025198     -3.795711     -1.270327
  H       4.079641     -0.361129     -1.094839
  H       3.087262     -0.873074     -2.525338
  H       4.465785     -1.868866     -1.963738
  H       2.703374     -3.066358      1.901147
  H       3.848635     -1.701582      1.551264
  H       4.215799     -3.348889      0.966561
  H       1.320538     -4.380945     -0.654361
  H       2.906158     -4.447868     -1.465100
  H       1.581934     -3.551212     -2.250484
  H      -1.579206      0.097989      0.773289
  C       0.090479      1.626905     -1.153766
  C      -0.999314      1.846152     -0.227360
  H      -0.107374      1.064923     -2.076721
  H       0.734883      2.490507     -1.404347
  Si     -2.210782      3.252866     -0.583974
  H      -0.570012      2.059979      0.772158
  C      -1.227587      4.825020     -0.951992
  C      -3.370849      3.521185      0.886351
  C      -3.212520      2.773100     -2.105278
  H      -0.526963      5.050876     -0.122917
  H      -1.913617      5.688965     -1.072821
  H      -0.628434      4.742887     -1.881799
  H      -2.822618      3.864195      1.786979
  H      -3.920133      2.596781      1.158106
  H      -4.133975      4.295346      0.657930
  H      -2.591136      2.638665     -3.012813
  H      -3.986619      3.528490     -2.355454
  H      -3.740479      1.829011     -1.869347
69
Coordinates from ORCA-job my_molecule_initial_path E   0.000000000000
  Pt      0.460576     -0.904997      0.161707
  O       1.288165      0.062510      1.735067
  O      -2.828728     -1.518774      0.119431
  P       2.492560      1.091488      1.926853
  P      -2.002980     -2.439142     -0.754415
  O      -1.753168     -3.811767      0.146260
  O      -0.578963     -1.957744     -1.263610
  O       2.013899      2.521539      1.211026
  O       3.874853      0.730411      1.420599
  C       2.468512      1.482932      3.744071
  C      -2.922716     -3.018813     -2.250958
  C      -2.168173     -4.166015     -2.938376
  C      -3.070923     -1.838041     -3.226290
  C      -4.309395     -3.501395     -1.779808
  C       1.072427      1.969017      4.164672
  C       2.839541      0.198852      4.509740
  C       3.527062      2.577136      3.989231
  H      -2.165748     -3.701434      1.024726
  H       2.796182      2.895129      0.757662
  H      -1.180624     -3.823109     -3.298678
  H      -2.736402     -4.536189     -3.818606
  H      -2.019908     -5.013559     -2.241769
  H      -2.089033     -1.470447     -3.579013
  H      -3.602329     -1.015561     -2.711934
  H      -3.669197     -2.130433     -4.115065
  H      -4.214926     -4.361118     -1.086622
  H      -4.918689     -3.818330     -2.652476
  H      -4.864656     -2.696815     -1.258177
  H       0.305478      1.189530      3.993124
  H       0.786423      2.877423      3.599809
  H       1.069917      2.228982      5.244858
  H       2.092141     -0.601519      4.342666
  H       2.885289      0.410051      5.599415
  H       3.834059     -0.176935      4.197121
  H       3.271243      3.518104      3.461166
  H       4.528239      2.248059      3.647141
  H       3.585568      2.811576      5.073034
  Si      2.456824     -1.901979     -0.660107
  C       3.500819     -0.694737     -1.666610
  C       3.397824     -2.532811      0.850740
  C       2.033178     -3.376041     -1.754375
  H       3.888204      0.097292     -0.995934
  H       2.941005     -0.248683     -2.512054
  H       4.380896     -1.225390     -2.093682
  H       2.756241     -3.120837      1.536320
  H       3.815679     -1.655365      1.381531
  H       4.246777     -3.179627      0.536691
  H       1.402131     -4.110470     -1.221487
  H       2.955368     -3.908037     -2.077887
  H       1.511047     -3.011060     -2.657448
  H      -1.955896      0.456704      0.375946
  C       0.034639      1.218953     -0.989214
  C      -1.067786      1.694403     -0.148843
  H      -0.227669      0.770785     -1.962330
  H       0.853086      1.947429     -1.132380
  Si     -2.015329      3.215007     -0.774829
  H      -0.705257      1.940195      0.870883
  C      -0.765157      4.613736     -1.017088
  C      -3.310733      3.683235      0.523431
  C      -2.840556      2.795195     -2.419356
  H      -0.159702      4.761636     -0.099832
  H      -1.290902      5.564917     -1.240520
  H      -0.064330      4.405754     -1.851426
  H      -2.842737      3.959206      1.490375
  H      -4.022610      2.854734      0.717139
  H      -3.906756      4.555351      0.181704
  H      -2.116634      2.532488     -3.217110
  H      -3.446469      3.646663     -2.793392
  H      -3.530766      1.940749     -2.272439
69
Coordinates from ORCA-job my_molecule_initial_path E   0.000000000000
  Pt      0.410919     -0.857793      0.189639
  O       1.238755      0.007621      1.809307
  O      -2.862855     -1.307411      0.188172
  P       2.404831      1.076340      2.023565
  P      -2.069478     -2.337149     -0.598490
  O      -1.662693     -3.621684      0.389450
  O      -0.670078     -1.867861     -1.225905
  O       1.794158      2.497657      1.379294
  O       3.781474      0.804766      1.447893
  C       2.392202      1.354494      3.861819
  C      -2.980029     -3.107115     -2.020408
  C      -2.131705     -4.224971     -2.651111
  C      -3.275227     -1.992565     -3.043460
  C      -4.295817     -3.671836     -1.449166
  C       0.983895      1.761264      4.329311
  C       2.838901      0.042571      4.535992
  C       3.409944      2.476205      4.148954
  H      -2.162872     -3.500511      1.221151
  H       2.542039      2.938015      0.928923
  H      -1.184878     -3.828305     -3.067110
  H      -2.698163     -4.706284     -3.476932
  H      -1.879822     -5.005346     -1.905821
  H      -2.339861     -1.579774     -3.470447
  H      -3.839420     -1.160349     -2.575894
  H      -3.886275     -2.399510     -3.876950
  H      -4.101161     -4.476447     -0.711557
  H      -4.908290     -4.101663     -2.269692
  H      -4.886132     -2.878652     -0.948789
  H       0.244487      0.963133      4.122493
  H       0.644950      2.686627      3.822190
  H       0.992815      1.952354      5.423699
  H       2.123430     -0.778784      4.333797
  H       2.897269      0.187274      5.635780
  H       3.839087     -0.272695      4.176853
  H       3.101935      3.430307      3.674983
  H       4.415899      2.208806      3.769093
  H       3.481217      2.648112      5.243647
  Si      2.395157     -1.644425     -0.881144
  C       3.272322     -0.171531     -1.667275
  C       3.418592     -2.399532      0.514060
  C       1.948123     -2.941708     -2.177374
  H       3.599746      0.522791     -0.867238
  H       2.638038      0.355388     -2.407556
  H       4.174402     -0.547902     -2.196810
  H       2.845134     -3.131730      1.116887
  H       3.796597     -1.586261      1.165042
  H       4.282401     -2.933073      0.060729
  H       1.404916     -3.795857     -1.729098
  H       2.893375     -3.317472     -2.626207
  H       1.315981     -2.517363     -2.980616
  H      -2.062713      0.818325     -0.063330
  C      -0.035894      0.878959     -0.838087
  C      -1.186949      1.504221     -0.117253
  H      -0.268141      0.523592     -1.861716
  H       0.897100      1.472060     -0.801043
  Si     -1.797447      3.129631     -0.963126
  H      -0.897680      1.806805      0.911265
  C      -0.354592      4.355926     -1.045075
  C      -3.187674      3.814844      0.122891
  C      -2.446273      2.742436     -2.700719
  H       0.133813      4.439243     -0.052282
  H      -0.698436      5.365686     -1.350743
  H       0.414592      4.027843     -1.774505
  H      -2.822264      4.043915      1.144949
  H      -4.019250      3.086512      0.214313
  H      -3.599043      4.751181     -0.308549
  H      -1.643686      2.353496     -3.360696
  H      -2.860643      3.653783     -3.179912
  H      -3.253054      1.981377     -2.664054
