26
image1
O    -1.2417164637   -0.0810637195    1.8635419604
Si   -0.1820769689    0.8346710742    2.7720950570
Si   -2.8004147626   -0.6596667646    1.8885709525
C     0.8583004785    1.9579697324    1.6558178605
C     1.7869951499    1.2339026406    0.7407797304
H     1.4140042253    2.5794771587    2.3862827065
H     1.9767586880    1.6137074213   -0.2378125377
H     2.4728299607    0.4948906018    1.1439702648
Si    0.1795372805   -1.4628686476   -1.2050664889
O    -0.5741500631   -0.0460564297   -1.5007045647
O     1.5741695564   -1.6537104593   -2.0622293089
Si    2.9717327781   -0.8558963991   -2.4315248977
Si   -1.9707024474    0.5415848954   -2.1509967414
H     0.2002168728    2.6467192067    1.1051445451
H    -3.7245801786    0.3607433278    2.4408445839
H    -0.9457153526    1.6512136555    3.7717479742
H    -2.8551258863   -1.8942083844    2.7145924456
H     0.7410616586   -0.0977180515    3.4881078086
H    -1.6904071924    1.0027397964   -3.5357405074
H    -3.0092017857   -0.4927202040   -2.1734250371
H    -2.4007485435    1.6639506910   -1.2942697773
H     2.7125215592    0.5929973111   -2.6113844234
H     3.9566113590   -1.0628642100   -1.3401130782
H     3.5003380679   -1.4114753349   -3.6793085575
H     0.3408204680   -1.7765696665    0.1376331478
H    -3.1447038839   -0.9833191851    0.4795657874
