26
efinal
O    -1.2096948122   -0.4952678959    2.1272133649
Si   -0.1555307606    0.6126509656    2.8200107046
Si   -2.9393100545   -0.5973616267    2.0077314956
C     0.7711536515    1.6310452245    1.4677906114
C     1.6316373058    0.8089652344    0.5147411115
H     1.4018996934    2.2991929348    2.0828640987
H     2.1515980141    1.4920528708   -0.1830886116
H     2.4078288547    0.2464794646    1.0617438923
Si    0.7294355229   -0.3999313912   -0.6490990624
O    -0.3703621954    0.4937453982   -1.5139428174
O     1.8412742986   -1.1214099430   -1.6607668877
Si    3.2174672186   -0.7992384663   -2.5603185344
Si   -1.9365683714    0.4166143790   -2.1299012283
H     0.0479646158    2.2612227025    0.9337683773
H    -3.5663119862    0.5772916017    2.6743077072
H    -0.8510855112    1.5324622701    3.7709155087
H    -3.2468541459   -1.8781626493    2.7084535327
H     0.8921081157   -0.2082381134    3.5021711994
H    -1.8310400518    0.7172980024   -3.5908916342
H    -2.5184064292   -0.9394687229   -1.9213051812
H    -2.7679085542    1.4488837351   -1.4399999958
H     3.2605474855    0.6518352153   -2.9277258906
H     4.4109728402   -1.1576294659   -1.7399535744
H     3.2084959592   -1.6437466442   -3.7926148091
H     0.0745263977   -1.5293869671    0.0512618795
H    -3.2464121173   -0.6914193025    0.5514006735
