26
einitial
O    -1.2481207940    0.0017771158    1.8108076795
Si   -0.1873862105    0.8790750959    2.7625119275
Si   -2.7726357042   -0.6721277921    1.8647388440
C     0.8757298439    2.0233546340    1.6934233103
C     1.8180667187    1.3188901219    0.7859874542
H     1.4164251317    2.6355340035    2.4469664280
H     1.9417908228    1.6380383313   -0.2487573230
H     2.4858301819    0.5445728292    1.1604155394
Si    0.0695576320   -1.6754560989   -1.3162599742
O    -0.6149076366   -0.1540167953   -1.4980569142
O     1.5207486080   -1.7601705625   -2.1425217931
Si    2.9225858899   -0.8672279856   -2.4057661703
Si   -1.9775292626    0.5665789986   -2.1552158440
H     0.2306673242    2.7238185075    1.1394197787
H    -3.7562338171    0.3174336731    2.3941519592
H    -0.9646413209    1.6749639326    3.7719144672
H    -2.7767802344   -1.8974175315    2.7158202282
H     0.7108523672   -0.0756140392    3.4852951304
H    -1.6622806205    1.0598281552   -3.5247102820
H    -3.1073608571   -0.4033705002   -2.2238490083
H    -2.3273165414    1.7069640822   -1.2651237336
H     2.6029163739    0.5812297303   -2.5481161300
H     3.8657390627   -1.0439111588   -1.2601449790
H     3.5587064896   -1.3650210730   -3.6566473072
H     0.3940792820   -1.8260062064    0.1549074014
H    -3.1243622372   -1.0416991617    0.4651988102
