26
image5
O    -1.2160991425   -0.4124270606    2.0744790840
Si   -0.1608400023    0.6570549873    2.8104275751
Si   -2.9115309961   -0.6098226543    1.9838993870
C     0.7885830169    1.6964301260    1.5053960612
C     1.6627088746    0.8939527157    0.5599488353
H     1.4043205998    2.3552497796    2.1435478202
H     2.1166301489    1.5163837809   -0.1940333969
H     2.4208290759    0.2961616920    1.0781891668
Si    0.6194558744   -0.6125188424   -0.7602925477
O    -0.4111197689    0.3857850326   -1.5112951668
O     1.7878533502   -1.2278700463   -1.7410593719
Si    3.1683203305   -0.8105700529   -2.5345598071
Si   -1.9433951865    0.4416084823   -2.1341203309
H     0.0784150672    2.3383220033    0.9680436109
H    -3.5979656247    0.5339819469    2.6276150826
H    -0.8700114795    1.5562125472    3.7710820018
H    -3.1685084940   -1.8813717964    2.7096813153
H     0.8618988243   -0.1861341010    3.4993585212
H    -1.8029134799    0.7743863612   -3.5798614088
H    -2.6165655005   -0.8501190191   -1.9717291524
H    -2.6944765521    1.4918971263   -1.4108539521
H     3.1509423002    0.6400676345   -2.8644575971
H     4.3201005440   -1.1386764148   -1.6599854752
H     3.2668643809   -1.5972923823   -3.7699535588
H     0.1277852118   -1.5788235070    0.0685361332
H    -3.2260704706   -0.7497992790    0.5370336963
