66
Coordinates from ORCA-job my_molecule_product E -2537.179388478770
  O      -1.731102     -0.449279     -0.107910
  Si     -0.706246      0.124521      1.097612
  Si     -2.546790     -0.286814     -1.563864
  C      -1.748673      0.365978      2.650291
  C      -1.820946      1.502768      3.373881
  C      -4.051124      0.826503     -1.294978
  C      -4.347731      1.463469     -0.137343
  C       0.593212     -1.206526      1.405140
  C       0.095186      1.750828      0.569534
  C      -1.426971      0.484601     -2.874928
  C      -3.121720     -1.999081     -2.102904
  H      -2.345851     -0.500154      2.998373
  H      -1.261374      2.412743      3.092789
  H      -2.442445      1.586911      4.283602
  H      -4.753615      0.977890     -2.139631
  H      -3.717694      1.362105      0.764994
  H      -5.235305      2.114831     -0.041559
  H       0.114246     -2.163587      1.696235
  H       1.285335     -0.908909      2.219560
  H       1.194563     -1.392105      0.491300
  H      -0.666360      2.528581      0.355889
  H       0.698575      1.603693     -0.349736
  H       0.773988      2.142256      1.355268
  H      -1.073344      1.487985     -2.562291
  H      -1.969033      0.601549     -3.836271
  H      -0.538895     -0.154163     -3.061243
  H      -3.805096     -2.442066     -1.350564
  H      -2.257637     -2.682146     -2.234051
  H      -3.666987     -1.945293     -3.068101
  Pt     -7.650473      1.032462      1.942041
  O      -8.412149      0.100094      0.488374
  O      -6.864878      1.743863      3.505602
  P      -7.610228     -0.533487     -0.828999
  P      -7.664335      2.425553      4.795594
  O      -8.953637      1.455358      5.099652
  O      -7.977226      3.868532      4.491568
  O      -6.214076     -1.163877     -0.269362
  O      -7.474821      0.537014     -1.887384
  C      -8.610474     -2.018707     -1.272847
  C      -6.561040      2.085705      6.233356
  C      -7.272743      2.635537      7.487156
  C      -5.253110      2.861621      5.970911
  C      -6.290601      0.575665      6.363310
  C      -8.692454     -2.989115     -0.080427
  C     -10.009835     -1.509727     -1.674850
  C      -7.910699     -2.679883     -2.478964
  H      -9.647504      1.604061      4.422695
  H      -5.504229     -0.463567     -0.271620
  H      -7.512581      3.711533      7.373138
  H      -6.606412      2.520539      8.367535
  H      -8.214670      2.089889      7.693804
  H      -5.448476      3.943295      5.832414
  H      -4.736111      2.486773      5.065040
  H      -4.571965      2.737546      6.838525
  H      -7.225761      0.005041      6.525922
  H      -5.621634      0.397460      7.231433
  H      -5.790955      0.172895      5.459765
  H      -9.189391     -2.521149      0.792690
  H      -7.687851     -3.332972      0.234818
  H      -9.286304     -3.880709     -0.372754
  H     -10.528884     -1.033527     -0.819979
  H     -10.626311     -2.364395     -2.023585
  H      -9.945895     -0.768041     -2.495515
  H      -6.904234     -3.057526     -2.210151
  H      -7.801743     -1.966457     -3.320231
  H      -8.519895     -3.538790     -2.830229
66
Coordinates from ORCA-job my_molecule_product E -2537.179389100621
  O      -1.731166     -0.449515     -0.107989
  Si     -0.706283      0.124211      1.097531
  Si     -2.546876     -0.286475     -1.563873
  C      -1.748612      0.365966      2.650216
  C      -1.820745      1.502885      3.373612
  C      -4.051229      0.826750     -1.294564
  C      -4.347879      1.463295     -0.136702
  C       0.592943     -1.207043      1.405251
  C       0.095489      1.750348      0.569447
  C      -1.427066      0.485486     -2.874649
  C      -3.121688     -1.998539     -2.103594
  H      -2.345731     -0.500130      2.998485
  H      -1.261240      2.412817      3.092250
  H      -2.442205      1.587273      4.283338
  H      -4.753602      0.978436     -2.139262
  H      -3.717723      1.361590      0.765501
  H      -5.235487      2.114576     -0.040660
  H       0.113835     -2.163977      1.696520
  H       1.285150     -0.909418      2.219597
  H       1.194250     -1.392880      0.491433
  H      -0.665817      2.528326      0.355766
  H       0.698940      1.603153     -0.349773
  H       0.774307      2.141498      1.355309
  H      -1.073355      1.488685     -2.561505
  H      -1.969218      0.603009     -3.835873
  H      -0.539043     -0.153218     -3.061411
  H      -3.805139     -2.441741     -1.351458
  H      -2.257558     -2.681513     -2.234853
  H      -3.666830     -1.944450     -3.068841
  Pt     -7.650355      1.031188      1.942471
  O      -8.412251      0.099468      0.488512
  O      -6.864563      1.743547      3.505631
  P      -7.610384     -0.533799     -0.829106
  P      -7.663928      2.425699      4.795439
  O      -8.953474      1.455795      5.099548
  O      -7.976543      3.868641      4.491195
  O      -6.214157     -1.164309     -0.269888
  O      -7.475085      0.536844     -1.887337
  C      -8.610599     -2.019052     -1.273051
  C      -6.560996      2.086041      6.233584
  C      -7.272944      2.636181      7.487071
  C      -5.252945      2.861788      5.971250
  C      -6.290621      0.576009      6.364053
  C      -8.692471     -2.989681     -0.080805
  C     -10.010014     -1.510155     -1.674929
  C      -7.910841     -2.680092     -2.479273
  H      -9.647073      1.604384      4.422288
  H      -5.504344     -0.463968     -0.271896
  H      -7.512818      3.712143      7.372754
  H      -6.606745      2.521521      8.367595
  H      -8.214908      2.090600      7.693703
  H      -5.448140      3.943496      5.832721
  H      -4.735796      2.486941      5.065463
  H      -4.571940      2.737681      6.838977
  H      -7.225810      0.005447      6.526657
  H      -5.621867      0.398263      7.232432
  H      -5.790716      0.172972      5.460776
  H      -9.189549     -2.521997      0.792380
  H      -7.687834     -3.333430      0.234436
  H      -9.286167     -3.881296     -0.373382
  H     -10.529193     -1.034381     -0.819901
  H     -10.626262     -2.364818     -2.024090
  H      -9.946218     -0.768181     -2.495351
  H      -6.904362     -3.057733     -2.210525
  H      -7.801901     -1.966594     -3.320486
  H      -8.520028     -3.538967     -2.830628
