66
Coordinates from ORCA-job my_molecule_reactant E -2537.143798097153
  O          -2.41556402003304      0.23246957779339     -0.04031071431388
  Si         -1.54952142867050      1.37879608753502      0.83138578129682
  Si         -2.45438882728539     -1.35894124007466     -0.59219751747754
  C          -2.69123423045141      2.86786643098033      1.07323490733068
  C          -3.90829100130849      3.07469499612313      0.34554063657819
  C          -3.39591928246658     -1.34773667541521     -2.22094027786551
  C          -3.88764315809131     -0.23589574638134     -2.80528357647952
  C          -0.99015751727383      0.67500255291046      2.49255374782283
  C          -0.04674097955302      1.93459632621579     -0.17385994254224
  C          -0.69450609269668     -1.99437924507679     -0.87676690384035
  C          -3.34394709972865     -2.44023936104806      0.67192321165217
  H          -2.19424972267384      3.77931777231457      1.46851401936439
  H          -4.26868792273021      2.32013595464036     -0.37620842150610
  H          -4.29573014563597      4.09411714451249      0.16539956361507
  H          -3.55479272848044     -2.31627790311453     -2.73569537440390
  H          -3.76049089778592      0.75677076972739     -2.33923140157323
  H          -4.43387817045091     -0.26119925244522     -3.76485325812737
  H          -1.85427959155098      0.26455216561080      3.05349829076904
  H          -0.52202550581788      1.46365789938102      3.11783166843647
  H          -0.24419887054904     -0.13541190624603      2.35676641231672
  H          -0.35751537038645      2.31607929805897     -1.16778420133237
  H           0.66003748079371      1.09430400424423     -0.33445100179442
  H           0.50454076145704      2.74573548958611      0.34595823771743
  H          -0.14514073883598     -1.34512801481238     -1.58858536309974
  H          -0.71118764934151     -3.02048880186741     -1.30002852721048
  H          -0.12037897510617     -2.03420845448004      0.07252612349141
  H          -4.34871012147734     -2.01944261013422      0.87992444184934
  H          -2.78012366719418     -2.48737144371043      1.62655437281136
  H          -3.46684290403995     -3.47763664075569      0.29707541481270
  Pt         -4.34699945998458      2.49979340796899      2.29937385017473
  O          -8.00966805902853      1.20287957374019      2.10864256843566
  O          -8.10263857420629      0.02522909090489      3.04137837733615
  P          -7.31047771837122      0.77911096689250      0.61861808236577
  P          -7.89380619317555      0.59577294082180      4.61629732588285
  O          -8.18285976643503     -0.85478756734216      5.33003215480394
  O          -8.76168595692934      1.74392169002566      5.02521854305589
  O          -5.88741765415402      0.07416392730697      0.97150502905566
  O          -7.28245506184656      2.08943951538340     -0.11829900715866
  C          -8.31101454589752     -0.57406535487496     -0.15558174637665
  C          -6.06855878963872      0.81106130689170      4.89559956506841
  C          -5.87340096637347      0.96465498083904      6.42036215244527
  C          -5.64858884936545      2.13465230795591      4.20586948632930
  C          -5.29285049237534     -0.40369147466609      4.36148832973241
  C          -8.07660890117507     -1.94171940715646      0.51178923013520
  C          -9.78967181636146     -0.14825764585696     -0.04679508304740
  C          -7.86721180105794     -0.61044394776630     -1.63554448105082
  H          -9.13273625441893     -0.90886483774417      5.56117574842646
  H          -5.23164855388126      0.78083501810037      1.31883814242370
  H          -6.48173701169795      1.79857675413989      6.82325679684971
  H          -4.80470523563806      1.17131087748347      6.63925778644838
  H          -6.16063388145908      0.03655192350174      6.95171345422689
  H          -6.06672887269756      3.02114655987054      4.71998958912842
  H          -6.08469636625902      2.19452876878917      3.14671125348006
  H          -4.51227309570948      2.23140282662498      4.29085175478717
  H          -5.62263677139685     -1.33176551816362      4.86781929138410
  H          -4.20904704829044     -0.26776153865776      4.56148788506164
  H          -5.43033258849616     -0.53443619337782      3.27210832992503
  H          -8.35979542665313     -1.93307601971806      1.58131657729162
  H          -7.01754187442235     -2.25551403827819      0.43488482387997
  H          -8.69809525379357     -2.70262921553313     -0.00636837916791
  H         -10.13247665315408     -0.13455795779528      1.00615592136001
  H         -10.41927119488251     -0.86861626109822     -0.60962056707229
  H          -9.95200494780004      0.86058540794587     -0.47630710409112
  H          -6.79885040559717     -0.89060596660487     -1.73644114038185
  H          -8.01088873701676      0.37433976026069     -2.12160515226330
  H          -8.47435684299211     -1.36528383488591     -2.17802973718305
