66
Coordinates from ORCA-job my_molecule_initial_path E   0.000000000000
  O       2.517435      0.047809     -1.388487
  Si      3.383478      1.194135     -0.516791
  Si      2.478610     -1.543602     -1.940374
  C       2.241765      2.683206     -0.274941
  C       1.024708      2.890034     -1.002636
  C       1.537080     -1.532398     -3.569117
  C       1.045356     -0.420557     -4.153460
  C       3.942842      0.490342      1.144377
  C       4.886258      1.749935     -1.522036
  C       4.238493     -2.179040     -2.224943
  C       1.589052     -2.624900     -0.676253
  H       2.738749      3.594657      0.120338
  H       0.664311      2.135475     -1.724385
  H       0.637269      3.909456     -1.182777
  H       1.378206     -2.500939     -4.083872
  H       1.172508      0.572110     -3.687408
  H       0.499121     -0.445860     -5.113030
  H       3.078719      0.079891      1.705322
  H       4.410974      1.278997      1.769655
  H       4.688800     -0.320073      1.008590
  H       4.575484      2.131418     -2.515961
  H       5.593037      0.909643     -1.682627
  H       5.437540      2.561075     -1.002218
  H       4.787858     -1.529789     -2.936762
  H       4.221811     -3.205150     -2.648205
  H       4.812620     -2.218869     -1.275650
  H       0.584289     -2.204104     -0.468252
  H       2.152875     -2.672032      0.278378
  H       1.466156     -3.662298     -1.051101
  Pt      0.586000      2.315132      0.951197
  O      -3.076669      1.018219      0.760466
  O      -3.169639     -0.159432      1.693202
  P      -2.377479      0.594450     -0.729558
  P      -2.960807      0.411112      3.268121
  O      -3.249861     -1.039448      3.981856
  O      -3.828687      1.559261      3.677042
  O      -0.954419     -0.110497     -0.376671
  O      -2.349456      1.904779     -1.466475
  C      -3.378015     -0.758726     -1.503758
  C      -1.135560      0.626400      3.547423
  C      -0.940402      0.779994      5.072186
  C      -0.715590      1.949991      2.857693
  C      -0.359851     -0.588352      3.013312
  C      -3.143610     -2.126380     -0.836387
  C      -4.856673     -0.332919     -1.394971
  C      -2.934213     -0.795105     -2.983721
  H      -4.199737     -1.093526      4.212999
  H      -0.298649      0.596174     -0.029338
  H      -1.548738      1.613916      5.475080
  H       0.128294      0.986650      5.291081
  H      -1.227635     -0.148109      5.603537
  H      -1.133730      2.836486      3.371813
  H      -1.151697      2.009868      1.798535
  H       0.420726      2.046742      2.942675
  H      -0.689638     -1.516426      3.519643
  H       0.723952     -0.452422      3.213312
  H      -0.497333     -0.719097      1.923932
  H      -3.426796     -2.117737      0.233140
  H      -2.084543     -2.440175     -0.913292
  H      -3.765096     -2.887290     -1.354545
  H      -5.199478     -0.319219     -0.342020
  H      -5.486272     -1.053277     -1.957797
  H      -5.019006      0.675924     -1.824483
  H      -1.865851     -1.075267     -3.084618
  H      -3.077890      0.189679     -3.469782
  H      -3.541358     -1.549945     -3.526206
66
Coordinates from ORCA-job my_molecule_initial_path E   0.000000000000
  O       2.616908      0.024742     -1.384317
  Si      3.544009      1.098370     -0.492997
  Si      2.515738     -1.486005     -2.105030
  C       2.470567      2.606443     -0.146850
  C       1.364774      3.070406     -0.914643
  C       1.501146     -1.295609     -3.671494
  C       1.027126     -0.122793     -4.132351
  C       4.197936      0.267588      1.071314
  C       5.001164      1.714854     -1.531896
  C       4.240108     -2.092426     -2.595956
  C       1.661854     -2.688010     -0.939104
  H       2.941724      3.396785      0.475831
  H       0.958935      2.486084     -1.752437
  H       0.947038      4.089743     -0.838492
  H       1.327777     -2.191732     -4.300336
  H       1.238219      0.815222     -3.595226
  H       0.497413     -0.016932     -5.094766
  H       3.364940     -0.176627      1.651895
  H       4.718988      0.991604      1.732023
  H       4.921949     -0.540906      0.837118
  H       4.650962      2.167138     -2.482134
  H       5.691771      0.885427     -1.789502
  H       5.593213      2.480174     -0.987380
  H       4.762080     -1.364041     -3.249906
  H       4.182312     -3.054807     -3.146510
  H       4.867813     -2.267475     -1.697868
  H       0.674208     -2.289962     -0.632714
  H       2.271150     -2.854414     -0.027470
  H       1.513387     -3.674075     -1.426303
  Pt      0.460155      2.084830      0.967721
  O      -3.156089      0.985619      0.494197
  O      -3.128911     -0.037261      1.868792
  P      -2.422860      0.402663     -0.909743
  P      -3.046715      0.646145      3.394362
  O      -3.430694     -0.762285      4.147697
  O      -3.912793      1.834486      3.675919
  O      -1.008767     -0.283518     -0.504521
  O      -2.413617      1.666213     -1.725438
  C      -3.442294     -0.992700     -1.576904
  C      -1.241692      0.811795      3.795572
  C      -1.145611      1.018173      5.323729
  C      -0.765202      2.116245      3.110993
  C      -0.464967     -0.435265      3.348724
  C      -3.215007     -2.305950     -0.808691
  C      -4.925044     -0.569547     -1.527978
  C      -3.007496     -1.153784     -3.049659
  H      -4.403546     -0.788568      4.258820
  H      -0.335718      0.428964     -0.227147
  H      -1.755506      1.879456      5.662519
  H      -0.087767      1.199448      5.608027
  H      -1.497454      0.117398      5.862772
  H      -1.169502      3.037573      3.576276
  H      -1.227639      2.160194      2.065968
  H       0.362070      2.181230      3.270757
  H      -0.849434     -1.336746      3.865323
  H       0.605353     -0.318365      3.618306
  H      -0.530681     -0.617671      2.260609
  H      -3.512019     -2.213762      0.252595
  H      -2.154784     -2.620352     -0.848030
  H      -3.828696     -3.110365     -1.267379
  H      -5.277910     -0.467019     -0.483843
  H      -5.551535     -1.336146     -2.030684
  H      -5.085637      0.400091     -2.040502
  H      -1.937649     -1.431375     -3.113933
  H      -3.158011     -0.212260     -3.612646
  H      -3.601538     -1.956350     -3.535077
66
Coordinates from ORCA-job my_molecule_initial_path E   0.000000000000
  O       2.708871     -0.017000     -1.369710
  Si      3.670936      1.001648     -0.459621
  Si      2.549091     -1.428427     -2.255066
  C       2.602876      2.454412      0.077485
  C       1.684405      3.209421     -0.691202
  C       1.464785     -1.046934     -3.734495
  C       1.006259      0.177572     -4.051595
  C       4.413304      0.054618      0.998918
  C       5.083629      1.677653     -1.523988
  C       4.232456     -1.991389     -2.914037
  C       1.730441     -2.756443     -1.211808
  H       3.088224      3.106385      0.836951
  H       1.378799      2.910058     -1.703288
  H       1.310194      4.208805     -0.400762
  H       1.275689     -1.852111     -4.472301
  H       1.284824      1.045449     -3.435278
  H       0.470518      0.406399     -4.988536
  H       3.605283     -0.421544      1.588905
  H       4.986932      0.713274      1.684501
  H       5.113371     -0.743748      0.673581
  H       4.705418      2.184920     -2.434916
  H       5.764411      0.869266     -1.863484
  H       5.701766      2.409927     -0.962911
  H       4.735263     -1.195983     -3.501635
  H       4.132535     -2.879752     -3.572722
  H       4.902617     -2.283779     -2.079643
  H       0.754181     -2.411500     -0.819260
  H       2.374357     -3.028543     -0.350929
  H       1.559262     -3.679201     -1.804458
  Pt     -0.015949      1.931040      0.726570
  O      -3.211315      0.884384      0.246031
  O      -3.055484      0.167283      1.997788
  P      -2.475537      0.188525     -1.093932
  P      -3.088601      0.886665      3.497737
  O      -3.562303     -0.495194      4.248377
  O      -3.954979      2.094442      3.684184
  O      -1.084752     -0.519852     -0.653886
  O      -2.493698      1.407631     -1.977553
  C      -3.509915     -1.237280     -1.658389
  C      -1.308630      1.022905      4.003993
  C      -1.306228      1.242931      5.534616
  C      -0.760666      2.315992      3.356956
  C      -0.543928     -0.254604      3.632799
  C      -3.297192     -2.486231     -0.786502
  C      -4.988991     -0.799625     -1.653788
  C      -3.071738     -1.516929     -3.111250
  H      -4.542020     -0.510014      4.251775
  H      -0.355372      0.161837     -0.489372
  H      -1.917286      2.119838      5.829398
  H      -0.262831      1.401165      5.879782
  H      -1.716852      0.361220      6.063798
  H      -1.111560      3.259170      3.829432
  H      -1.253614      2.436946      2.343384
  H       0.363230      2.319400      3.492582
  H      -0.975679     -1.136991      4.147021
  H       0.511963     -0.153119      3.958631
  H      -0.545527     -0.481106      2.551641
  H      -3.599826     -2.301691      0.261220
  H      -2.241635     -2.818341     -0.792802
  H      -3.914994     -3.319684     -1.183433
  H      -5.346333     -0.611528     -0.623304
  H      -5.619126     -1.598953     -2.097664
  H      -5.141219      0.127361     -2.242102
  H      -2.004760     -1.806813     -3.147972
  H      -3.219949     -0.622958     -3.747191
  H      -3.667403     -2.351277     -3.537269
66
Coordinates from ORCA-job my_molecule_initial_path E   0.000000000000
  O       2.770505     -0.071670     -1.328043
  Si      3.780971      0.895889     -0.421951
  Si      2.562397     -1.363785     -2.368658
  C       2.698199      2.253947      0.303442
  C       1.833010      3.156981     -0.334879
  C       1.413862     -0.797714     -3.733120
  C       0.989590      0.468220     -3.900866
  C       4.610135     -0.144951      0.928819
  C       5.138103      1.635729     -1.512414
  C       4.197783     -1.886596     -3.169930
  C       1.768558     -2.792206     -1.450062
  H       3.229554      2.789458      1.124563
  H       1.774017      3.187841     -1.434750
  H       1.580075      4.139717      0.112159
  H       1.195001     -1.503093     -4.559512
  H       1.308633      1.256425     -3.201860
  H       0.440990      0.804807     -4.797146
  H       3.832462     -0.655447      1.531092
  H       5.235698      0.455873      1.622777
  H       5.282505     -0.928258      0.519202
  H       4.726937      2.183898     -2.384314
  H       5.811402      0.853338     -1.922047
  H       5.775545      2.345797     -0.944352
  H       4.690187     -1.040529     -3.691813
  H       4.050090     -2.696632     -3.915255
  H       4.902775     -2.280636     -2.409195
  H       0.813348     -2.481462     -0.985315
  H       2.440975     -3.164578     -0.650596
  H       1.566552     -3.644009     -2.132240
  Pt     -0.919757      2.282947      0.211917
  O      -3.335629      0.679798      0.027119
  O      -2.944953      0.433175      2.057696
  P      -2.541626     -0.023443     -1.278890
  P      -3.060674      1.141244      3.542199
  O      -3.642710     -0.222654      4.261512
  O      -3.882769      2.385085      3.625972
  O      -1.118159     -0.641988     -0.803345
  O      -2.659498      1.125550     -2.255987
  C      -3.572162     -1.476707     -1.744837
  C      -1.329275      1.213226      4.173522
  C      -1.436758      1.430846      5.699279
  C      -0.648409      2.466162      3.597247
  C      -0.578874     -0.081615      3.837663
  C      -3.357139     -2.646161     -0.772716
  C      -5.053277     -1.044390     -1.783777
  C      -3.110790     -1.856277     -3.165694
  H      -4.619258     -0.219718      4.182585
  H      -0.405537      0.045799     -0.594641
  H      -2.039444      2.329663      5.939403
  H      -0.420172      1.555671      6.127715
  H      -1.908460      0.560177      6.194455
  H      -1.090050      3.423839      3.931208
  H      -0.814097      2.487075      2.491708
  H       0.447053      2.471953      3.864915
  H      -1.075879     -0.955867      4.302096
  H       0.448779     -0.022967      4.251844
  H      -0.500653     -0.247027      2.747881
  H      -3.671111     -2.381881      0.254498
  H      -2.298775     -2.966029     -0.741110
  H      -3.966159     -3.510960     -1.111317
  H      -5.426632     -0.786713     -0.773788
  H      -5.674637     -1.877017     -2.175089
  H      -5.210042     -0.165888     -2.441396
  H      -2.043333     -2.145185     -3.165357
  H      -3.256345     -1.016862     -3.872492
  H      -3.702645     -2.719216     -3.535735
66
Coordinates from ORCA-job my_molecule_initial_path E   0.000000000000
  O       2.853905     -0.156963     -1.291323
  Si      3.921391      0.748212     -0.388532
  Si      2.554733     -1.274857     -2.494248
  C       2.866306      2.028774      0.490824
  C       1.997559      3.024293      0.030065
  C       1.330446     -0.497647     -3.674750
  C       0.949029      0.792975     -3.652550
  C       4.835433     -0.394334      0.822025
  C       5.190364      1.592417     -1.502169
  C       4.120231     -1.725646     -3.459710
  C       1.789618     -2.798853     -1.718963
  H       3.382576      2.389969      1.409940
  H       2.075974      3.345765     -1.023636
  H       1.757461      3.911441      0.652073
  H       1.046078     -1.070432     -4.579466
  H       1.319304      1.466606     -2.864716
  H       0.379865      1.265213     -4.471422
  H       4.098356     -0.947494      1.438610
  H       5.519494      0.146606      1.510484
  H       5.470314     -1.145434      0.306227
  H       4.722520      2.192047     -2.308999
  H       5.849006      0.851547     -2.002770
  H       5.848057      2.274381     -0.923350
  H       4.601987     -0.827802     -3.897949
  H       3.901805     -2.426053     -4.293456
  H       4.861767     -2.230577     -2.806760
  H       0.868502     -2.527087     -1.169586
  H       2.492011     -3.283464     -1.010473
  H       1.541940     -3.553397     -2.493648
  Pt     -1.416920      2.475657      0.069119
  O      -3.396939      0.483912     -0.131770
  O      -2.800384      0.707569      2.068283
  P      -2.599647     -0.215944     -1.428577
  P      -3.041846      1.401697      3.537417
  O      -3.732625      0.076417      4.227760
  O      -3.824829      2.675471      3.535790
  O      -1.155182     -0.745862     -0.928164
  O      -2.769877      0.860595     -2.470444
  C      -3.600975     -1.716694     -1.810662
  C      -1.362680      1.414475      4.295942
  C      -1.589549      1.698133      5.797021
  C      -0.585769      2.595505      3.686012
  C      -0.643076      0.076376      4.073201
  C      -3.390480     -2.802479     -0.745055
  C      -5.089269     -1.318760     -1.909672
  C      -3.111647     -2.202264     -3.188297
  H      -4.696010      0.102809      4.050866
  H      -0.489060     -0.011100     -0.739076
  H      -2.161710      2.635001      5.949608
  H      -0.610188      1.797470      6.310119
  H      -2.139110      0.868820      6.283652
  H      -1.074278      3.568504      3.877581
  H      -0.519220      2.489314      2.570969
  H       0.440687      2.634426      4.151150
  H      -1.217266     -0.759444      4.518057
  H       0.346051      0.110572      4.575118
  H      -0.482277     -0.132266      2.998852
  H      -3.732279     -2.465323      0.251724
  H      -2.326539     -3.092578     -0.663046
  H      -3.974308     -3.705192     -1.023636
  H      -5.484928     -0.984842     -0.930932
  H      -5.691126     -2.190528     -2.242095
  H      -5.248023     -0.500113     -2.639787
  H      -2.041947     -2.477075     -3.144095
  H      -3.246632     -1.423567     -3.963224
  H      -3.686176     -3.098900     -3.501483
66
Coordinates from ORCA-job my_molecule_initial_path E   0.000000000000
  O       2.950643     -0.281740     -1.284642
  Si      4.047917      0.588707     -0.382964
  Si      2.542851     -1.190922     -2.621095
  C       2.960610      1.753067      0.612435
  C       2.248077      2.913428      0.333683
  C       1.241868     -0.233955     -3.563593
  C       0.903504      1.048275     -3.328179
  C       5.054568     -0.631990      0.672071
  C       5.220641      1.569282     -1.483866
  C       4.030732     -1.495928     -3.749619
  C       1.825585     -2.813622     -2.020890
  H       3.346552      1.799072      1.652668
  H       2.439502      3.454282     -0.610421
  H       2.005625      3.661526      1.113307
  H       0.857553     -0.667959     -4.507018
  H       1.328229      1.587214     -2.466900
  H       0.294858      1.649683     -4.024812
  H       4.374171     -1.259058      1.284152
  H       5.769249     -0.124069      1.354716
  H       5.669688     -1.317399      0.052051
  H       4.701063      2.213940     -2.221351
  H       5.873224      0.892622     -2.075178
  H       5.877650      2.223927     -0.874248
  H       4.489376     -0.544479     -4.087727
  H       3.740405     -2.065316     -4.657618
  H       4.812615     -2.089781     -3.232565
  H       0.940303     -2.635165     -1.381851
  H       2.568675     -3.392406     -1.434907
  H       1.531534     -3.446729     -2.882871
  Pt     -1.641450      2.371876     -0.002192
  O      -3.391571      0.307398     -0.256156
  O      -2.663692      0.948013      2.077250
  P      -2.623472     -0.425042     -1.548412
  P      -3.028373      1.663249      3.512963
  O      -3.819250      0.382458      4.175992
  O      -3.769343      2.962006      3.431767
  O      -1.180535     -0.942800     -1.038060
  O      -2.799012      0.592867     -2.643327
  C      -3.616817     -1.946416     -1.866603
  C      -1.421594      1.641732      4.414003
  C      -1.753664      1.979341      5.883694
  C      -0.564283      2.773423      3.815767
  C      -0.735158      0.272672      4.292050
  C      -3.434277     -2.961518     -0.727749
  C      -5.099958     -1.548731     -2.022768
  C      -3.101425     -2.522989     -3.198818
  H      -4.756199      0.418518      3.890870
  H      -0.509717     -0.211591     -0.875074
  H      -2.299502      2.940428      5.965023
  H      -0.813913      2.061234      6.468951
  H      -2.372172      1.186395      6.347847
  H      -1.037010      3.766682      3.936001
  H      -0.413414      2.622085      2.715065
  H       0.413721      2.804419      4.369676
  H      -1.372083     -0.530659      4.710863
  H       0.210368      0.289452      4.872955
  H      -0.494106      0.022951      3.241286
  H      -3.799095     -2.558197      0.236126
  H      -2.373475     -3.248402     -0.600632
  H      -4.015414     -3.879227     -0.958895
  H      -5.510200     -1.143898     -1.077421
  H      -5.701147     -2.438003     -2.306480
  H      -5.239190     -0.782360     -2.811142
  H      -2.036218     -2.804951     -3.112944
  H      -3.206455     -1.794636     -4.025649
  H      -3.678176     -3.432285     -3.468595
66
Coordinates from ORCA-job my_molecule_initial_path E   0.000000000000
  O       3.055492     -0.419290     -1.309443
  Si      4.165375      0.444315     -0.411378
  Si      2.524150     -1.114223     -2.725510
  C       3.072242      1.482635      0.692433
  C       2.532394      2.744295      0.676102
  C       1.158189     -0.028723     -3.400613
  C       0.848645      1.201525     -2.943431
  C       5.263626     -0.794844      0.515571
  C       5.221228      1.577969     -1.473817
  C       3.928014     -1.237773     -3.985528
  C       1.857309     -2.814800     -2.308929
  H       3.033572      1.019012      1.692630
  H       2.785142      3.443572     -0.138450
  H       2.331501      3.306176      1.604437
  H       0.672609     -0.335974     -4.346900
  H       1.316718      1.603566     -2.029749
  H       0.181969      1.893605     -3.486219
  H       4.667717     -1.530779      1.094561
  H       5.949302     -0.269804      1.213686
  H       5.894332     -1.378481     -0.186481
  H       4.632723      2.253574     -2.126822
  H       5.865701      0.979506     -2.151339
  H       5.877769      2.206394     -0.837443
  H       4.354734     -0.242141     -4.222773
  H       3.567177     -1.678914     -4.938139
  H       4.748912     -1.884591     -3.612364
  H       1.015470     -2.748125     -1.593888
  H       2.643151     -3.459363     -1.864193
  H       1.505694     -3.317207     -3.233048
  Pt     -1.945508      2.232299     -0.069302
  O      -3.376599      0.141113     -0.368281
  O      -2.490355      1.158370      2.085628
  P      -2.633138     -0.620269     -1.656507
  P      -2.981674      1.912535      3.467353
  O      -3.875310      0.685400      4.098721
  O      -3.668255      3.235977      3.307099
  O      -1.196771     -1.144190     -1.131749
  O      -2.772935      0.335469     -2.811453
  C      -3.626842     -2.151090     -1.925614
  C      -1.462445      1.866053      4.509448
  C      -1.893976      2.267021      5.936230
  C      -0.513823      2.935917      3.932661
  C      -0.832520      0.463979      4.500485
  C      -3.482616     -3.105354     -0.729198
  C      -5.099731     -1.742609     -2.137041
  C      -3.081687     -2.802625     -3.211193
  H      -4.771513      0.720813      3.703457
  H      -0.516095     -0.418557     -1.015298
  H      -2.402289      3.251616      5.941332
  H      -0.999552      2.333876      6.590471
  H      -2.582714      1.518182      6.374321
  H      -0.956401      3.950208      3.972879
  H      -0.281732      2.732863      2.856663
  H       0.412141      2.955747      4.564341
  H      -1.531598     -0.300473      4.892595
  H       0.066385      0.466092      5.151477
  H      -0.526033      0.159919      3.481463
  H      -3.868505     -2.647155      0.201755
  H      -2.428210     -3.395198     -0.558877
  H      -4.067920     -4.028397     -0.926061
  H      -5.524222     -1.281071     -1.224459
  H      -5.706352     -2.638351     -2.386557
  H      -5.209960     -1.019268     -2.969306
  H      -2.024476     -3.098855     -3.080510
  H      -3.148620     -2.117682     -4.078337
  H      -3.669004     -3.713420     -3.451600
66
Coordinates from ORCA-job my_molecule_initial_path E   0.000000000000
  O       3.144273     -0.536324     -1.355912
  Si      4.241074      0.316257     -0.423118
  Si      2.488553     -1.019083     -2.808304
  C       3.189536      1.156350      0.865812
  C       2.801891      2.449183      1.035104
  C       1.063382      0.133336     -3.200554
  C       0.767902      1.262347     -2.520830
  C       5.425501     -0.928782      0.364635
  C       5.182954      1.595349     -1.426769
  C       3.789215     -0.922934     -4.175239
  C       1.873503     -2.778528     -2.597831
  H       2.841476      0.448944      1.639636
  H       3.112434      3.258615      0.354844
  H       2.549324      2.831915      2.037006
  H       0.486364     -0.059508     -4.125803
  H       1.282837      1.527757     -1.581194
  H       0.021650      1.992113     -2.880201
  H       4.892757     -1.736668      0.907560
  H       6.103021     -0.418128      1.080064
  H       6.049423     -1.421243     -0.409519
  H       4.519881      2.295684     -1.973924
  H       5.809906      1.090433     -2.190838
  H       5.852577      2.193724     -0.775337
  H       4.179018      0.107948     -4.297090
  H       3.356062     -1.231102     -5.149513
  H       4.646539     -1.594418     -3.961676
  H       1.086500     -2.840122     -1.821680
  H       2.699494     -3.462028     -2.312488
  H       1.453823     -3.144311     -3.557129
  Pt     -2.297531      1.945657     -0.069704
  O      -3.390457     -0.037337     -0.480575
  O      -2.255556      1.358771      2.091103
  P      -2.645167     -0.802943     -1.766227
  P      -2.882641      2.158442      3.395438
  O      -3.891939      1.003449      3.983473
  O      -3.489867      3.508259      3.137503
  O      -1.215123     -1.326208     -1.212698
  O      -2.723291      0.105122     -2.967771
  C      -3.629220     -2.346238     -1.994583
  C      -1.469953      2.087454      4.579175
  C      -2.002885      2.576912      5.941777
  C      -0.416497      3.076086      4.038941
  C      -0.916437      0.656908      4.691038
  C      -3.527824     -3.239770     -0.746912
  C      -5.090846     -1.937482     -2.270543
  C      -3.041238     -3.058996     -3.228488
  H      -4.732598      1.039462      3.480382
  H      -0.525054     -0.605798     -1.178861
  H      -2.453417      3.585842      5.859014
  H      -1.165561      2.629294      6.668818
  H      -2.769055      1.886717      6.346405
  H      -0.811588      4.108799      3.972993
  H      -0.087274      2.792537      3.011043
  H       0.445924      3.091548      4.749209
  H      -1.686029     -0.053512      5.051371
  H      -0.071932      0.647521      5.411230
  H      -0.540330      0.286417      3.718052
  H      -3.943337     -2.736157      0.147601
  H      -2.480434     -3.523332     -0.527213
  H      -4.109138     -4.170384     -0.918058
  H      -5.540134     -1.430844     -1.394317
  H      -5.695046     -2.841109     -2.496012
  H      -5.166811     -1.253945     -3.139357
  H      -1.993047     -3.362503     -3.046074
  H      -3.067316     -2.413066     -4.127592
  H      -3.632221     -3.972353     -3.449292
66
Coordinates from ORCA-job my_molecule_initial_path E   0.000000000000
  O       3.212548     -0.638978     -1.411080
  Si      4.284021      0.192686     -0.423323
  Si      2.441888     -0.918456     -2.865503
  C       3.255075      0.810713      1.011734
  C       3.031704      2.096583      1.367609
  C       0.958361      0.233563     -2.975209
  C       0.665784      1.213613     -2.090058
  C       5.564000     -1.044616      0.200647
  C       5.106080      1.617708     -1.340067
  C       3.618058     -0.570614     -4.302148
  C       1.878017     -2.711351     -2.877296
  H       2.783201      0.023192      1.630637
  H       3.415388      2.969135      0.813898
  H       2.625991      2.345383      2.361404
  H       0.300225      0.142947     -3.861774
  H       1.247776      1.355276     -1.161887
  H      -0.169957      1.918950     -2.243256
  H       5.086603     -1.912531      0.699947
  H       6.251499     -0.564502      0.927206
  H       6.168997     -1.440192     -0.641085
  H       4.368604      2.328378     -1.765796
  H       5.711445      1.228457     -2.184610
  H       5.786021      2.185450     -0.671871
  H       3.968106      0.481534     -4.296387
  H       3.111672     -0.748961     -5.273430
  H       4.507314     -1.232956     -4.258094
  H       1.157901     -2.913872     -2.060113
  H       2.740202     -3.399862     -2.762053
  H       1.382609     -2.946270     -3.841755
  Pt     -2.534096      1.425555      0.153178
  O      -3.437638     -0.225999     -0.609394
  O      -1.989648      1.607352      2.084610
  P      -2.647851     -0.976638     -1.873932
  P      -2.753013      2.401741      3.319102
  O      -3.870034      1.321590      3.843047
  O      -3.255095      3.766390      2.933559
  O      -1.222518     -1.487199     -1.282737
  O      -2.660519     -0.069754     -3.080859
  C      -3.625055     -2.527415     -2.075145
  C      -1.454422      2.309679      4.626397
  C      -2.078185      2.902209      5.906052
  C      -0.293748      3.202187      4.139756
  C      -1.001925      0.855778      4.848633
  C      -3.572272     -3.367615     -0.787008
  C      -5.072758     -2.121959     -2.420554
  C      -2.985154     -3.282546     -3.257365
  H      -4.647312      1.351005      3.246143
  H      -0.527053     -0.776604     -1.345785
  H      -2.453683      3.930351      5.732942
  H      -1.306221      2.943917      6.702619
  H      -2.920231      2.281020      6.269554
  H      -0.622155      4.244608      3.959038
  H       0.133792      2.823003      3.185879
  H       0.498376      3.219213      4.922081
  H      -1.842822      0.210796      5.170387
  H      -0.223943      0.835285      5.640237
  H      -0.563510      0.414820      3.931892
  H      -4.022716     -2.830610      0.071063
  H      -2.533745     -3.639968     -0.515537
  H      -4.146120     -4.305315     -0.943332
  H      -5.556689     -1.585530     -1.580972
  H      -5.670069     -3.032456     -2.636012
  H      -5.108113     -1.467518     -3.313987
  H      -1.946995     -3.588114     -3.023120
  H      -2.970367     -2.663732     -4.176186
  H      -3.575626     -4.197934     -3.470530
66
Coordinates from ORCA-job my_molecule_initial_path E   0.000000000000
  O       3.256934     -0.720282     -1.487553
  Si      4.299988      0.056964     -0.419493
  Si      2.382977     -0.797216     -2.916484
  C       3.305376      0.481105      1.125363
  C       3.212171      1.706654      1.682528
  C       0.844285      0.288130     -2.745224
  C       0.563477      1.073004     -1.678006
  C       5.663835     -1.168672      0.019431
  C       5.013674      1.618425     -1.205955
  C       3.421473     -0.181300     -4.369139
  C       1.860833     -2.588585     -3.183376
  H       2.757857     -0.347070      1.617615
  H       3.722729      2.586421      1.251800
  H       2.621071      1.898145      2.596239
  H       0.106088      0.291692     -3.572813
  H       1.229566      1.124513     -0.797618
  H      -0.346436      1.698882     -1.638337
  H       5.235868     -2.090604      0.463268
  H       6.372063     -0.732582      0.753685
  H       6.238891     -1.461810     -0.883092
  H       4.213381      2.329752     -1.495853
  H       5.589065      1.362807     -2.119394
  H       5.703606      2.142445     -0.512581
  H       3.744184      0.868531     -4.216533
  H       2.840458     -0.222454     -5.313818
  H       4.327992     -0.807733     -4.500332
  H       1.224114     -2.943719     -2.348085
  H       2.747349     -3.251706     -3.252397
  H       1.279331     -2.693160     -4.122910
  Pt     -2.640704      0.824661      0.577558
  O      -3.415249     -0.332783     -0.696407
  O      -1.829208      1.781674      1.989646
  P      -2.635914     -1.119100     -1.943194
  P      -2.609088      2.612442      3.201889
  O      -3.845253      1.650292      3.694118
  O      -2.992356      3.984623      2.709345
  O      -1.195305     -1.612132     -1.359001
  O      -2.583731     -0.207083     -3.147329
  C      -3.588795     -2.687762     -2.129770
  C      -1.441631      2.522514      4.626334
  C      -2.130042      3.220666      5.817732
  C      -0.177388      3.299299      4.202192
  C      -1.104034      1.057540      4.958296
  C      -3.586949     -3.479720     -0.809514
  C      -5.021825     -2.292559     -2.540966
  C      -2.906224     -3.489257     -3.258180
  H      -4.568500      1.675117      3.032199
  H      -0.515824     -0.894175     -1.489992
  H      -2.418516      4.259757      5.562049
  H      -1.428210      3.257554      6.677011
  H      -3.040361      2.676734      6.138839
  H      -0.422366      4.342214      3.919883
  H       0.321803      2.817345      3.337940
  H       0.539158      3.325543      5.049537
  H      -2.008141      0.482833      5.239121
  H      -0.397462      1.030385      5.814407
  H      -0.620794      0.547442      4.101246
  H      -4.071148     -2.909899      0.008485
  H      -2.558110     -3.738252     -0.490939
  H      -4.153183     -4.424901     -0.947584
  H      -5.529086     -1.718139     -1.741150
  H      -5.614165     -3.210122     -2.739299
  H      -5.018735     -1.674080     -3.460293
  H      -1.875818     -3.787908     -2.980855
  H      -2.857624     -2.900293     -4.195914
  H      -3.491417     -4.411046     -3.458379
