66
Coordinates from ORCA-job my_molecule E -2537.179388488999
  O          -1.73110156098967     -0.44927885569183     -0.10791022493108
  Si         -0.70624596703679      0.12452132643611      1.09761202251830
  Si         -2.54679018088346     -0.28681370352435     -1.56386350933980
  C          -1.74867284392905      0.36597822721171      2.65029109253752
  C          -1.82094633268319      1.50276841007337      3.37388055462957
  C          -4.05112375643166      0.82650291414988     -1.29497825158726
  C          -4.34773100430389      1.46346897811919     -0.13734261877155
  C           0.59321152158651     -1.20652624269311      1.40514038053545
  C           0.09518569528400      1.75082847713846      0.56953393641602
  C          -1.42697097027301      0.48460134200150     -2.87492821178219
  C          -3.12171993927851     -1.99908097067956     -2.10290360941273
  H          -2.34585079046562     -0.50015447042115      2.99837343013766
  H          -1.26137362265815      2.41274332906747      3.09278882264541
  H          -2.44244547776262      1.58691103685796      4.28360229270857
  H          -4.75361530555004      0.97789040926248     -2.13963123973108
  H          -3.71769370072468      1.36210523556719      0.76499408960712
  H          -5.23530476314729      2.11483093839109     -0.04155934116401
  H           0.11424562925132     -2.16358714104499      1.69623524416055
  H           1.28533457650016     -0.90890910791399      2.21955970886348
  H           1.19456254861230     -1.39210518408475      0.49130005790588
  H          -0.66636000728893      2.52858089636439      0.35588874333351
  H           0.69857490394037      1.60369347965226     -0.34973624660140
  H           0.77398805422588      2.14225576782133      1.35526773876106
  H          -1.07334446674065      1.48798475314926     -2.56229058654181
  H          -1.96903320265579      0.60154872546655     -3.83627124475875
  H          -0.53889528784578     -0.15416271530393     -3.06124303127890
  H          -3.80509595970736     -2.44206592899799     -1.35056388280813
  H          -2.25763725745528     -2.68214649582516     -2.23405059431093
  H          -3.66698741986896     -1.94529346744285     -3.06810120135213
  Pt         -7.65047250793147      1.03246207088438      1.94204053824562
  O          -8.41214884471849      0.10009359933569      0.48837362948830
  O          -6.86487766710127      1.74386306837754      3.50560214782013
  P          -7.61022847997547     -0.53348708043291     -0.82899900250941
  P          -7.66433505240637      2.42555340190997      4.79559352974196
  O          -8.95363681904645      1.45535841731728      5.09965208172581
  O          -7.97722601801179      3.86853176642482      4.49156782815135
  O          -6.21407569654199     -1.16387652791322     -0.26936207523143
  O          -7.47482073148815      0.53701413537731     -1.88738373294251
  C          -8.61047358071881     -2.01870684658034     -1.27284655912104
  C          -6.56103994618997      2.08570479102129      6.23335580692680
  C          -7.27274336116524      2.63553744564623      7.48715629327190
  C          -5.25311031153617      2.86162113591107      5.97091121217821
  C          -6.29060074016322      0.57566542480397      6.36331002872112
  C          -8.69245419166899     -2.98911480111082     -0.08042745944567
  C         -10.00983507010174     -1.50972696082114     -1.67485014550945
  C          -7.91069913442126     -2.67988337620231     -2.47896445780228
  H          -9.64750412323285      1.60406127337733      4.42269520801301
  H          -5.50422928074183     -0.46356681184959     -0.27161986948301
  H          -7.51258070912373      3.71153284041425      7.37313757203016
  H          -6.60641225687358      2.52053910149656      8.36753473732811
  H          -8.21466992077544      2.08988900828755      7.69380419439766
  H          -5.44847558036339      3.94329468279842      5.83241373229138
  H          -4.73611141107851      2.48677260692538      5.06504027489338
  H          -4.57196459465926      2.73754647405085      6.83852511944582
  H          -7.22576107735507      0.00504126822486      6.52592239839710
  H          -5.62163417971804      0.39745963312583      7.23143326711677
  H          -5.79095486784025      0.17289509460370      5.45976487809465
  H          -9.18939074989828     -2.52114859164882      0.79269010798975
  H          -7.68785070780413     -3.33297197726161      0.23481758119069
  H          -9.28630391792568     -3.88070863181357     -0.37275414468812
  H         -10.52888398392266     -1.03352659382365     -0.81997862869102
  H         -10.62631062954339     -2.36439479446246     -2.02358528933952
  H          -9.94589461854750     -0.76804119620149     -2.49551487627564
  H          -6.90423436648047     -3.05752550249155     -2.21015091229037
  H          -7.80174288131510     -1.96645704673109     -3.32023073268742
  H          -8.51989510133052     -3.53879046407644     -2.83022860183216
