30
.geom to .xyz and scaled by factor of 0.529177
O -0.7445889780 -0.0021310461 0.5128660082
Si -0.4699496180 1.6543748953 0.5888533374
Si -1.0311217429 -1.3856196402 -0.3927488959
C -1.8165337164 2.4655805348 1.6355865182
C -3.1429965927 2.4704136813 1.1816291566
C -2.2123366312 -0.9192671690 -1.7572100157
C -3.4803147935 -0.5572521346 -1.5097669802
C 1.1994153949 1.7899645886 1.4143703650
C -0.5285942331 2.3708276766 -1.1475370952
C 0.6068254332 -1.8762074411 -1.1297185055
C -1.7673408344 -2.6763693258 0.7286949151
H -1.5998565903 3.0623737723 2.5372775896
H -3.3636391858 2.1283285030 0.1636131554
H -3.8895303792 3.1292151723 1.6228236713
H -1.8626352326 -0.8617761610 -2.7983657385
H -3.8717224371 -0.6064497277 -0.4884741039
H -4.1180593936 -0.1567977573 -2.3051266662
H 1.1240969007 1.3922810949 2.4348013827
H 1.6052489801 2.8130469276 1.4078585864
H 1.8886799284 1.1347764465 0.8672168962
H -1.5456878348 2.3641347219 -1.5783129494
H 0.1226979548 1.8279057751 -1.8452908541
H -0.1516394873 3.4003797129 -1.1206148617
H 0.8859933316 -1.1232430428 -1.8757861851
H 0.6072356162 -2.8565989949 -1.6167553117
H 1.3828786349 -1.8743268147 -0.3593635592
H -2.7571923927 -2.3657343350 1.1012723677
H -1.1222963823 -2.8623239842 1.5988581066
H -1.8760063948 -3.6051377059 0.1515205214
Pt -3.0996864196 0.6159850606 2.3540373667
