26
Coordinates from ORCA-job my_molecule E -1757.327487816669
  O      -1.832485      0.447382      1.861951
  Si     -0.291333      0.407070      2.542523
  Si     -3.445904      0.484272      2.326379
  C       0.834478      1.584919      1.622840
  C       2.069099      1.244875      1.188876
  H       0.478376      2.618290      1.449316
  H       2.735011      1.966598      0.679360
  H       2.478602      0.230168      1.331878
  Si      0.964350     -1.756529     -1.220821
  O      -0.349455     -0.887092     -0.706927
  O       1.981424     -0.775107     -2.087486
  Si      3.453730     -0.050717     -2.404808
  Si     -1.864850     -0.407078     -1.271082
  H       1.666894     -2.262411     -0.004326
  H      -3.587310      1.186419      3.649177
  H      -0.419404      0.825249      3.985134
  H      -4.000965     -0.913311      2.450953
  H       0.282534     -0.976749      2.493311
  H      -1.987371     -0.788833     -2.720849
  H      -2.931446     -1.116712     -0.509676
  H      -2.017123      1.087281     -1.152976
  H       3.266590      1.434240     -2.534100
  H       4.442979     -0.330314     -1.300151
  H       4.005853     -0.590746     -3.689631
  H       0.510085     -2.876631     -2.118330
  H      -4.223146      1.224571      1.283880
26
Coordinates from ORCA-job my_molecule E -1757.327677553712
  O      -1.833383      0.447989      1.861966
  Si     -0.291484      0.407773      2.540706
  Si     -3.445218      0.484071      2.328682
  C       0.835206      1.585281      1.621143
  C       2.067377      1.245582      1.189300
  H       0.481387      2.619443      1.447625
  H       2.732396      1.965590      0.680400
  H       2.475309      0.228999      1.331659
  Si      0.965394     -1.757563     -1.221943
  O      -0.352365     -0.889120     -0.707621
  O       1.983515     -0.777071     -2.091503
  Si      3.454413     -0.050683     -2.404465
  Si     -1.865287     -0.406659     -1.272970
  H       1.670719     -2.264289     -0.003121
  H      -3.586082      1.186134      3.653104
  H      -0.419469      0.827607      3.984446
  H      -3.997144     -0.912456      2.453595
  H       0.281299     -0.978927      2.491280
  H      -1.989358     -0.787596     -2.725028
  H      -2.939752     -1.113357     -0.508818
  H      -2.012490      1.083945     -1.151929
  H       3.262832      1.434020     -2.531649
  H       4.438587     -0.329319     -1.296437
  H       4.011709     -0.588432     -3.690468
  H       0.514848     -2.877895     -2.117847
  H      -4.223745      1.226036      1.284308
26
Coordinates from ORCA-job my_molecule E -1757.327794372646
  O      -1.835106      0.449267      1.861702
  Si     -0.292114      0.409693      2.537714
  Si     -3.444507      0.482786      2.331907
  C       0.836683      1.586312      1.618953
  C       2.067865      1.246030      1.190291
  H       0.486788      2.621996      1.445970
  H       2.734209      1.964633      0.682035
  H       2.471998      0.227213      1.330714
  Si      0.966892     -1.760806     -1.222857
  O      -0.357547     -0.894429     -0.708358
  O       1.985330     -0.782409     -2.099079
  Si      3.453155     -0.050353     -2.403739
  Si     -1.865181     -0.405797     -1.276758
  H       1.676623     -2.265914     -0.000665
  H      -3.585538      1.183765      3.658829
  H      -0.420637      0.832909      3.982451
  H      -3.990776     -0.913107      2.456437
  H       0.278684     -0.980867      2.488409
  H      -1.992050     -0.785792     -2.731548
  H      -2.952837     -1.104536     -0.509657
  H      -2.002345      1.080312     -1.150254
  H       3.252957      1.433799     -2.526863
  H       4.429711     -0.327694     -1.290394
  H       4.019403     -0.582194     -3.691326
  H       0.522267     -2.882991     -2.115036
  H      -4.224712      1.227278      1.285535
26
Coordinates from ORCA-job my_molecule E -1757.327823225991
  O      -1.835329      0.450209      1.860959
  Si     -0.292008      0.411145      2.536153
  Si     -3.444027      0.481826      2.332317
  C       0.838229      1.586816      1.617933
  C       2.070160      1.245446      1.190915
  H       0.490346      2.623249      1.445436
  H       2.738128      1.963480      0.683801
  H       2.472174      0.225739      1.330457
  Si      0.967114     -1.763954     -1.222367
  O      -0.359839     -0.898842     -0.708269
  O       1.984012     -0.786623     -2.102829
  Si      3.449728     -0.049249     -2.402732
  Si     -1.864301     -0.405457     -1.278942
  H       1.678612     -2.265470      0.000811
  H      -3.585816      1.181709      3.660001
  H      -0.421110      0.836582      3.980441
  H      -3.987922     -0.914707      2.456187
  H       0.277759     -0.980201      2.487620
  H      -1.992276     -0.785626     -2.733869
  H      -2.957377     -1.098280     -0.512003
  H      -1.995703      1.080546     -1.150341
  H       3.244483      1.434532     -2.523165
  H       4.424081     -0.326179     -1.287529
  H       4.020350     -0.576203     -3.690721
  H       0.524493     -2.888331     -2.112014
  H      -4.224749      1.226947      1.286164
26
Coordinates from ORCA-job my_molecule E -1757.327911535106
  O      -1.834432      0.454466      1.856775
  Si     -0.290250      0.417135      2.529834
  Si     -3.441290      0.478228      2.331484
  C       0.846233      1.588174      1.613668
  C       2.080965      1.241736      1.193656
  H       0.506532      2.627593      1.443240
  H       2.756254      1.957689      0.692668
  H       2.474719      0.218670      1.330484
  Si      0.966921     -1.778743     -1.218998
  O      -0.368176     -0.918918     -0.707095
  O       1.975319     -0.805888     -2.117170
  Si      3.431132     -0.042930     -2.397340
  Si     -1.859471     -0.404274     -1.287749
  H       1.685103     -2.262302      0.007265
  H      -3.586639      1.173265      3.661542
  H      -0.421853      0.852061      3.971208
  H      -3.976879     -0.921666      2.452309
  H       0.275483     -0.975960      2.485541
  H      -1.990525     -0.785818     -2.741910
  H      -2.971858     -1.071904     -0.523724
  H      -1.967114      1.083520     -1.153082
  H       3.204017      1.438897     -2.505564
  H       4.399368     -0.318092     -1.276295
  H       4.019054     -0.547225     -3.686545
  H       0.530582     -2.913406     -2.097416
  H      -4.223985      1.224795      1.287626
26
Coordinates from ORCA-job my_molecule E -1757.327978394981
  O      -1.831917      0.458196      1.852368
  Si     -0.287596      0.421563      2.525078
  Si     -3.438273      0.476055      2.328341
  C       0.854105      1.588426      1.610353
  C       2.090236      1.237626      1.196003
  H       0.520748      2.630162      1.441652
  H       2.771684      1.952150      0.701087
  H       2.478034      0.212204      1.331566
  Si      0.965795     -1.791880     -1.215222
  O      -0.373774     -0.936327     -0.705368
  O       1.965700     -0.822761     -2.127623
  Si      3.412247     -0.036249     -2.392010
  Si     -1.854598     -0.403412     -1.294378
  H       1.689332     -2.258977      0.012915
  H      -3.586456      1.167232      3.659797
  H      -0.421183      0.864070      3.963594
  H      -3.968776     -0.926571      2.446676
  H       0.275335     -0.972044      2.484984
  H      -1.986280     -0.786381     -2.747359
  H      -2.979847     -1.051451     -0.534278
  H      -1.943402      1.086790     -1.157863
  H       3.166508      1.443502     -2.489037
  H       4.378080     -0.309702     -1.268027
  H       4.013201     -0.520326     -3.682170
  H       0.532941     -2.935693     -2.083668
  H      -4.222631      1.222902      1.287004
26
Coordinates from ORCA-job my_molecule E -1757.328061044753
  O      -1.827356      0.462135      1.846827
  Si     -0.283657      0.425187      2.521005
  Si     -3.434351      0.474897      2.322363
  C       0.863208      1.587780      1.607536
  C       2.099640      1.232539      1.198382
  H       0.535573      2.631648      1.440790
  H       2.787300      1.945992      0.710560
  H       2.482566      0.205251      1.333610
  Si      0.963596     -1.805822     -1.210511
  O      -0.377995     -0.954566     -0.702815
  O       1.953226     -0.840346     -2.136966
  Si      3.389578     -0.028038     -2.385813
  Si     -1.848932     -0.402468     -1.300128
  H       1.692990     -2.254954      0.018918
  H      -3.584832      1.162614      3.654730
  H      -0.419071      0.874613      3.956534
  H      -3.961999     -0.929996      2.438461
  H       0.277405     -0.968163      2.485726
  H      -1.978806     -0.787030     -2.751745
  H      -2.983873     -1.033378     -0.545326
  H      -1.919791      1.090668     -1.165816
  H       3.124967      1.449219     -2.470096
  H       4.355523     -0.299530     -1.260833
  H       4.002203     -0.490628     -3.677137
  H       0.532716     -2.959690     -2.067745
  H      -4.220613      1.221170      1.283903
26
Coordinates from ORCA-job my_molecule E -1757.328137869209
  O      -1.821304      0.466256      1.840526
  Si     -0.278992      0.427809      2.517873
  Si     -3.429634      0.474801      2.314357
  C       0.872814      1.586500      1.605558
  C       2.108505      1.227072      1.200644
  H       0.550120      2.632263      1.440945
  H       2.801861      1.939589      0.719878
  H       2.487617      0.198249      1.336022
  Si      0.960756     -1.819826     -1.205466
  O      -0.381378     -0.972811     -0.699608
  O       1.939488     -0.858357     -2.146136
  Si      3.364660     -0.019052     -2.379335
  Si     -1.842848     -0.401034     -1.304922
  H       1.697421     -2.250991      0.025159
  H      -3.581432      1.159721      3.647615
  H      -0.416127      0.882902      3.951054
  H      -3.956019     -0.931317      2.428433
  H       0.281178     -0.965410      2.487571
  H      -1.968664     -0.786788     -2.755980
  H      -2.986013     -1.018203     -0.555659
  H      -1.896358      1.094096     -1.176460
  H       3.080371      1.455180     -2.449360
  H       4.331566     -0.287911     -1.254276
  H       3.988291     -0.459545     -3.672346
  H       0.531514     -2.984388     -2.049878
  H      -4.218181      1.220298      1.278205
26
Coordinates from ORCA-job my_molecule E -1757.328220342991
  O      -1.813123      0.472690      1.831556
  Si     -0.272862      0.431767      2.513392
  Si     -3.422604      0.474861      2.303402
  C       0.886463      1.584894      1.603027
  C       2.121561      1.219419      1.203932
  H       0.571212      2.633356      1.441170
  H       2.822611      1.929972      0.731734
  H       2.494587      0.188046      1.338834
  Si      0.957446     -1.840188     -1.198437
  O      -0.387274     -0.998955     -0.694829
  O       1.922569     -0.886652     -2.160756
  Si      3.328304     -0.006628     -2.370130
  Si     -1.833320     -0.398558     -1.312313
  H       1.705498     -2.246384      0.034261
  H      -3.576433      1.155567      3.638620
  H      -0.412914      0.894674      3.943844
  H      -3.945682     -0.932701      2.413666
  H       0.285252     -0.962489      2.489968
  H      -1.953880     -0.785476     -2.763580
  H      -2.991416     -0.994725     -0.569952
  H      -1.859934      1.097530     -1.191111
  H       3.010931      1.461699     -2.418011
  H       4.295137     -0.270491     -1.243914
  H       3.968834     -0.412450     -3.666093
  H       0.532262     -3.020022     -2.023257
  H      -4.214013      1.220346      1.269393
26
Coordinates from ORCA-job my_molecule E -1757.328299788519
  O      -1.803269      0.480825      1.820803
  Si     -0.265956      0.435927      2.508858
  Si     -3.413809      0.476242      2.289951
  C       0.902355      1.582693      1.601168
  C       2.137088      1.210258      1.207855
  H       0.595319      2.633979      1.441893
  H       2.846117      1.917950      0.743388
  H       2.503028      0.176118      1.341887
  Si      0.954423     -1.864352     -1.190299
  O      -0.394028     -1.028848     -0.688953
  O       1.905737     -0.922167     -2.178249
  Si      3.284008      0.008026     -2.359168
  Si     -1.820775     -0.395734     -1.320818
  H       1.716246     -2.242398      0.044387
  H      -3.569952      1.152143      3.627694
  H      -0.409840      0.906355      3.936853
  H      -3.933177     -0.932516      2.394760
  H       0.288985     -0.960320      2.493104
  H      -1.935628     -0.783915     -2.772826
  H      -2.997060     -0.967267     -0.585730
  H      -1.815458      1.100172     -1.208384
  H       2.922700      1.466908     -2.379460
  H       4.250910     -0.248286     -1.231612
  H       3.943665     -0.353789     -3.658889
  H       0.534856     -3.061738     -1.991192
  H      -4.207273      1.222839      1.257395
26
Coordinates from ORCA-job my_molecule E -1757.328368272061
  O      -1.787707      0.493874      1.804110
  Si     -0.255595      0.441529      2.502839
  Si     -3.399725      0.480916      2.268273
  C       0.926560      1.578521      1.599817
  C       2.160953      1.195796      1.214257
  H       0.631120      2.633463      1.442927
  H       2.880509      1.898463      0.758146
  H       2.516523      0.157800      1.347185
  Si      0.951762     -1.901288     -1.177961
  O      -0.402550     -1.072173     -0.680137
  O       1.885568     -0.978489     -2.202779
  Si      3.213456      0.030617     -2.341640
  Si     -1.798889     -0.392775     -1.333612
  H       1.732751     -2.238862      0.058392
  H      -3.559981      1.149684      3.609572
  H      -0.405723      0.920906      3.927678
  H      -3.914682     -0.929348      2.363602
  H       0.292772     -0.958181      2.497988
  H      -1.906771     -0.783719     -2.786236
  H      -3.001354     -0.926122     -0.608809
  H      -1.746366      1.101947     -1.233779
  H       2.778704      1.469585     -2.317756
  H       4.183417     -0.211784     -1.213991
  H       3.897450     -0.258697     -3.647241
  H       0.540386     -3.123199     -1.943334
  H      -4.193374      1.230640      1.236902
26
Coordinates from ORCA-job my_molecule E -1757.328389326178
  O      -1.781874      0.498762      1.798461
  Si     -0.252463      0.441923      2.502709
  Si     -3.394846      0.485424      2.259727
  C       0.934311      1.575769      1.601825
  C       2.168423      1.190034      1.217169
  H       0.641096      2.631227      1.444237
  H       2.889675      1.890367      0.760348
  H       2.521469      0.151549      1.350386
  Si      0.952458     -1.914383     -1.173395
  O      -0.403334     -1.085508     -0.676974
  O       1.880608     -0.997073     -2.209893
  Si      3.188705      0.039644     -2.336856
  Si     -1.789941     -0.392944     -1.337042
  H       1.739482     -2.240281      0.062616
  H      -3.556401      1.152091      3.601973
  H      -0.405042      0.920942      3.927456
  H      -3.910911     -0.924579      2.351097
  H       0.292623     -0.959290      2.500657
  H      -1.896828     -0.785462     -2.789513
  H      -2.999510     -0.914116     -0.614745
  H      -1.722781      1.101442     -1.242255
  H       2.726804      1.469980     -2.300116
  H       4.161104     -0.194478     -1.209727
  H       3.878650     -0.225813     -3.644323
  H       0.543805     -3.143785     -1.927508
  H      -4.186067      1.237664      1.228100
26
Coordinates from ORCA-job my_molecule E -1757.328427912273
  O      -1.774886      0.505011      1.793085
  Si     -0.250353      0.438840      2.507230
  Si     -3.389844      0.496514      2.248910
  C       0.940959      1.569951      1.609704
  C       2.174170      1.182306      1.221877
  H       0.646087      2.624335      1.447966
  H       2.892913      1.879052      0.756229
  H       2.527131      0.144739      1.357199
  Si      0.956579     -1.929422     -1.167969
  O      -0.399641     -1.096946     -0.673372
  O       1.878285     -1.014700     -2.215927
  Si      3.163108      0.052276     -2.335636
  Si     -1.778214     -0.395615     -1.338482
  H       1.749434     -2.247352      0.066172
  H      -3.552412      1.161226      3.591906
  H      -0.406205      0.909510      3.934282
  H      -3.912638     -0.911479      2.334303
  H       0.289009     -0.964763      2.505681
  H      -1.887562     -0.791122     -2.790063
  H      -2.992047     -0.905584     -0.616010
  H      -1.698383      1.098974     -1.250747
  H       2.669589      1.471991     -2.293404
  H       4.138887     -0.164527     -1.208286
  H       3.857699     -0.193386     -3.644193
  H       0.550935     -3.165548     -1.911967
  H      -4.173387      1.254821      1.215927
26
Coordinates from ORCA-job my_molecule E -1757.328447449734
  O      -1.772328      0.508207      1.792407
  Si     -0.250667      0.435273      2.512243
  Si     -3.388479      0.505046      2.244952
  C       0.941804      1.565879      1.616412
  C       2.173855      1.178768      1.224595
  H       0.643473      2.618622      1.450195
  H       2.888340      1.873876      0.749893
  H       2.529120      0.142140      1.362729
  Si      0.960754     -1.934869     -1.166367
  O      -0.394498     -1.098385     -0.672625
  O       1.880611     -1.019384     -2.216948
  Si      3.156458      0.058407     -2.338477
  Si     -1.773007     -0.398842     -1.337561
  H       1.754075     -2.253666      0.066373
  H      -3.551631      1.168316      3.588394
  H      -0.408251      0.897202      3.941744
  H      -3.917034     -0.901280      2.326515
  H       0.284512     -0.969717      2.508095
  H      -1.886897     -0.797021     -2.787838
  H      -2.985929     -0.905236     -0.612133
  H      -1.691659      1.096440     -1.252407
  H       2.650637      1.474014     -2.302677
  H       4.133042     -0.145323     -1.209347
  H       3.853397     -0.185911     -3.645714
  H       0.555210     -3.171678     -1.909303
  H      -4.165693      1.268227      1.211264
26
Coordinates from ORCA-job my_molecule E -1757.328459286198
  O      -1.771121      0.510733      1.792879
  Si     -0.251040      0.432921      2.515722
  Si     -3.387914      0.510938      2.243467
  C       0.941978      1.563235      1.620613
  C       2.172927      1.176671      1.226231
  H       0.641281      2.614755      1.450719
  H       2.884300      1.871079      0.745623
  H       2.530238      0.140748      1.367235
  Si      0.963857     -1.937465     -1.166412
  O      -0.390032     -1.098265     -0.673141
  O       1.883808     -1.022684     -2.217451
  Si      3.154000      0.061761     -2.340762
  Si     -1.770137     -0.401540     -1.337055
  H       1.756020     -2.257582      0.065925
  H      -3.551946      1.172126      3.587677
  H      -0.409781      0.888998      3.946803
  H      -3.919778     -0.894514      2.322008
  H       0.280915     -0.972979      2.508482
  H      -1.887990     -0.802488     -2.785946
  H      -2.981917     -0.905260     -0.608585
  H      -1.689355      1.094248     -1.252743
  H       2.640793      1.474885     -2.311540
  H       4.130256     -0.132286     -1.209404
  H       3.854297     -0.183107     -3.645903
  H       0.556715     -3.173552     -1.909988
  H      -4.161158      1.277729      1.209963
26
Coordinates from ORCA-job my_molecule E -1757.328471440093
  O      -1.770311      0.514177      1.794155
  Si     -0.251486      0.430800      2.519247
  Si     -3.387639      0.517220      2.242841
  C       0.942169      1.560630      1.624462
  C       2.171987      1.174370      1.227922
  H       0.639292      2.610840      1.450159
  H       2.880380      1.868216      0.742031
  H       2.531555      0.139499      1.372873
  Si      0.967202     -1.939483     -1.167791
  O      -0.384419     -1.097496     -0.674833
  O       1.888893     -1.027420     -2.218330
  Si      3.152466      0.064752     -2.343169
  Si     -1.767692     -0.404771     -1.336766
  H       1.757038     -2.261192      0.064975
  H      -3.553020      1.174987      3.588472
  H      -0.411303      0.881306      3.951845
  H      -3.922249     -0.887531      2.317674
  H       0.276899     -0.976133      2.507472
  H      -1.890007     -0.809821     -2.783812
  H      -2.977869     -0.905577     -0.604026
  H      -1.688713      1.091366     -1.253129
  H       2.630975      1.474997     -2.321841
  H       4.127383     -0.118174     -1.208511
  H       3.858482     -0.180677     -3.645030
  H       0.556640     -3.173912     -1.912710
  H      -4.157439      1.288131      1.210235
26
Coordinates from ORCA-job my_molecule E -1757.328479759651
  O      -1.770247      0.517422      1.795503
  Si     -0.251840      0.429989      2.521187
  Si     -3.387799      0.521430      2.243024
  C       0.942603      1.559092      1.626324
  C       2.172016      1.172408      1.229398
  H       0.638916      2.608535      1.448800
  H       2.879309      1.865783      0.741298
  H       2.532726      0.138408      1.377544
  Si      0.969359     -1.940562     -1.169940
  O      -0.380164     -1.096674     -0.676986
  O       1.893874     -1.032151     -2.219558
  Si      3.151748      0.066611     -2.344568
  Si     -1.766623     -0.407205     -1.336785
  H       1.757103     -2.263318      0.063944
  H      -3.554250      1.176077      3.590102
  H      -0.412014      0.877780      3.954600
  H      -3.923595     -0.882983      2.314987
  H       0.274197     -0.977789      2.505596
  H      -1.891703     -0.815992     -2.782445
  H      -2.975343     -0.906449     -0.600250
  H      -1.689590      1.088898     -1.254067
  H       2.623189      1.474287     -2.328196
  H       4.124949     -0.108227     -1.207094
  H       3.863198     -0.178150     -3.643680
  H       0.555368     -3.173391     -1.915843
  H      -4.156176      1.295279      1.211521
26
Coordinates from ORCA-job my_molecule E -1757.328486783072
  O      -1.770933      0.520731      1.796988
  Si     -0.252355      0.430049      2.522100
  Si     -3.388524      0.524637      2.243752
  C       0.943148      1.558093      1.626992
  C       2.172786      1.170361      1.231255
  H       0.639630      2.607136      1.446926
  H       2.880456      1.863065      0.742874
  H       2.533689      0.137003      1.382050
  Si      0.970876     -1.941051     -1.172732
  O      -0.376687     -1.095353     -0.679566
  O       1.899255     -1.036370     -2.220866
  Si      3.152043      0.068109     -2.345622
  Si     -1.766722     -0.409415     -1.336710
  H       1.756687     -2.265174      0.062581
  H      -3.555628      1.176699      3.592155
  H      -0.412116      0.876907      3.955927
  H      -3.924846     -0.879546      2.313435
  H       0.272062     -0.978516      2.503289
  H      -1.893579     -0.821714     -2.781318
  H      -2.973416     -0.908930     -0.596282
  H      -1.692275      1.086502     -1.255617
  H       2.616991      1.473355     -2.332544
  H       4.123445     -0.100297     -1.205786
  H       3.868104     -0.175675     -3.642551
  H       0.553730     -3.172184     -1.919646
  H      -4.156609      1.300680      1.213331
26
Coordinates from ORCA-job my_molecule E -1757.328494163308
  O      -1.772146      0.524856      1.798506
  Si     -0.253105      0.430702      2.522391
  Si     -3.389731      0.528214      2.244465
  C       0.944209      1.556964      1.627134
  C       2.174556      1.167406      1.234360
  H       0.641798      2.605860      1.444530
  H       2.883954      1.858869      0.746806
  H       2.534670      0.134376      1.387756
  Si      0.972407     -1.941851     -1.176023
  O      -0.373152     -1.093648     -0.682661
  O       1.905684     -1.040845     -2.222279
  Si      3.152259      0.070437     -2.346665
  Si     -1.767370     -0.412213     -1.336447
  H       1.756275     -2.267975      0.060777
  H      -3.557219      1.178048      3.594072
  H      -0.411688      0.877564      3.956434
  H      -3.926611     -0.875699      2.311881
  H       0.269551     -0.978797      2.500806
  H      -1.895912     -0.828293     -2.780042
  H      -2.970974     -0.913524     -0.591357
  H      -1.696253      1.083598     -1.258304
  H       2.609102      1.472590     -2.335878
  H       4.122181     -0.091197     -1.204858
  H       3.872199     -0.171452     -3.641954
  H       0.552298     -3.171143     -1.924072
  H      -4.157769      1.306257      1.215039
26
Coordinates from ORCA-job my_molecule E -1757.328503375714
  O      -1.773968      0.530757      1.800176
  Si     -0.254268      0.431914      2.522221
  Si     -3.391614      0.533501      2.244888
  C       0.946245      1.555070      1.627067
  C       2.177769      1.162546      1.239856
  H       0.646175      2.604035      1.441244
  H       2.890555      1.851757      0.754066
  H       2.535811      0.129449      1.396440
  Si      0.974581     -1.943505     -1.180004
  O      -0.368540     -1.091204     -0.686700
  O       1.914284     -1.046120     -2.223606
  Si      3.151898      0.074755     -2.348116
  Si     -1.768366     -0.416682     -1.335868
  H       1.755932     -2.273058      0.058219
  H      -3.559424      1.181250      3.595600
  H      -0.410670      0.879362      3.956368
  H      -3.929512     -0.870029      2.309545
  H       0.265543     -0.978902      2.498169
  H      -1.899483     -0.837502     -2.778118
  H      -2.966842     -0.921590     -0.584310
  H      -1.702214      1.079318     -1.262779
  H       2.597158      1.472400     -2.339331
  H       4.121159     -0.077834     -1.204797
  H       3.874976     -0.163935     -3.642315
  H       0.551266     -3.170376     -1.929866
  H      -4.159240      1.313729      1.216366
26
Coordinates from ORCA-job my_molecule E -1757.328513322730
  O      -1.775819      0.538156      1.801400
  Si     -0.255582      0.433548      2.521539
  Si     -3.393729      0.540625      2.244231
  C       0.949707      1.552143      1.626980
  C       2.182623      1.155629      1.247828
  H       0.653321      2.601459      1.437491
  H       2.900324      1.841592      0.764583
  H       2.537169      0.121889      1.408031
  Si      0.977492     -1.946575     -1.183594
  O      -0.363011     -1.088736     -0.691013
  O       1.923828     -1.052041     -2.224351
  Si      3.149394      0.081557     -2.349750
  Si     -1.768971     -0.422946     -1.335237
  H       1.755878     -2.280594      0.055511
  H      -3.562116      1.186749      3.595656
  H      -0.409097      0.882025      3.955643
  H      -3.933050     -0.862515      2.305821
  H       0.259792     -0.978967      2.496266
  H      -1.903918     -0.848992     -2.775758
  H      -2.960821     -0.932206     -0.576123
  H      -1.708731      1.073675     -1.269021
  H       2.579709      1.473233     -2.341852
  H       4.119963     -0.059976     -1.206252
  H       3.873848     -0.151732     -3.644059
  H       0.551117     -3.170795     -1.935761
  H      -4.160106      1.322897      1.216206
26
Coordinates from ORCA-job my_molecule E -1757.328521436379
  O      -1.776819      0.544861      1.801543
  Si     -0.256509      0.435082      2.520540
  Si     -3.395221      0.547655      2.242270
  C       0.953921      1.548846      1.626996
  C       2.187924      1.148489      1.256020
  H       0.661595      2.598761      1.434573
  H       2.910585      1.831221      0.775536
  H       2.538487      0.113726      1.419300
  Si      0.980379     -1.950300     -1.185219
  O      -0.358095     -1.087268     -0.694082
  O       1.931085     -1.057023     -2.223971
  Si      3.144652      0.089110     -2.351021
  Si     -1.768680     -0.429380     -1.335040
  H       1.756052     -2.288406      0.053912
  H      -3.564600      1.193136      3.593725
  H      -0.407414      0.884731      3.954465
  H      -3.935720     -0.855290      2.301542
  H       0.253689     -0.979119      2.496144
  H      -1.907846     -0.859594     -2.773867
  H      -2.954771     -0.941784     -0.569781
  H      -1.713429      1.068082     -1.275246
  H       2.560995      1.475043     -2.342130
  H       4.118910     -0.042552     -1.209355
  H       3.867899     -0.137487     -3.646966
  H       0.551879     -3.172470     -1.939485
  H      -4.159738      1.331034      1.214012
26
Coordinates from ORCA-job my_molecule E -1757.328526623787
  O      -1.776632      0.549332      1.800664
  Si     -0.256785      0.436116      2.519641
  Si     -3.395626      0.552831      2.239550
  C       0.957836      1.546054      1.627247
  C       2.192401      1.142953      1.262193
  H       0.668818      2.596610      1.433319
  H       2.918728      1.823509      0.784129
  H       2.539710      0.107210      1.427438
  Si      0.982511     -1.953523     -1.184710
  O      -0.354878     -1.087192     -0.695296
  O       1.934631     -1.060585     -2.222843
  Si      3.138858      0.095279     -2.351657
  Si     -1.767637     -0.434293     -1.335558
  H       1.756287     -2.294080      0.054029
  H      -3.566333      1.198511      3.590550
  H      -0.406080      0.886743      3.953375
  H      -3.936564     -0.850158      2.297842
  H       0.248823     -0.979461      2.497649
  H      -1.910075     -0.867001     -2.773138
  H      -2.950706     -0.947527     -0.567062
  H      -1.715181      1.063815     -1.279929
  H       2.545217      1.476985     -2.340003
  H       4.118038     -0.029943     -1.213232
  H       3.859305     -0.124577     -3.650146
  H       0.552913     -3.174740     -1.940091
  H      -4.158367      1.336236      1.210453
26
Coordinates from ORCA-job my_molecule E -1757.328529971180
  O      -1.775864      0.551755      1.799490
  Si     -0.256717      0.436639      2.519091
  Si     -3.395405      0.556022      2.236961
  C       0.960833      1.544033      1.627729
  C       2.195653      1.139302      1.266129
  H       0.674061      2.595150      1.433452
  H       2.924251      1.818847      0.790143
  H       2.540782      0.102887      1.432393
  Si      0.983765     -1.955368     -1.183248
  O      -0.353180     -1.087575     -0.695323
  O       1.935775     -1.062703     -2.221441
  Si      3.133993      0.099366     -2.352104
  Si     -1.766680     -0.437532     -1.336454
  H       1.756280     -2.297169      0.055264
  H      -3.567500      1.202437      3.587314
  H      -0.405205      0.888025      3.952707
  H      -3.936147     -0.847111      2.295478
  H       0.245479     -0.980004      2.499839
  H      -1.910880     -0.871671     -2.773278
  H      -2.948934     -0.950377     -0.566901
  H      -1.715721      1.060864     -1.282867
  H       2.534571      1.478547     -2.337015
  H       4.118044     -0.022632     -1.217364
  H       3.851173     -0.115019     -3.653280
  H       0.553658     -3.176341     -1.938986
  H      -4.156873      1.338733      1.206686
26
Coordinates from ORCA-job my_molecule E -1757.328532840948
  O      -1.774728      0.553567      1.798121
  Si     -0.256513      0.436887      2.518863
  Si     -3.394833      0.558656      2.234118
  C       0.963716      1.542133      1.628627
  C       2.198738      1.136099      1.269448
  H       0.678816      2.593802      1.434510
  H       2.929143      1.815176      0.795656
  H       2.542091      0.099176      1.436350
  Si      0.984662     -1.956489     -1.181409
  O      -0.352099     -1.088100     -0.694823
  O       1.936277     -1.064643     -2.219992
  Si      3.129190      0.102806     -2.352720
  Si     -1.765874     -0.440261     -1.337641
  H       1.756180     -2.298853      0.057277
  H      -3.568510      1.206246      3.583676
  H      -0.404551      0.889007      3.952407
  H      -3.935121     -0.844589      2.293610
  H       0.242644     -0.980852      2.502463
  H      -1.910626     -0.875902     -2.773891
  H      -2.948412     -0.952271     -0.567934
  H      -1.716051      1.058161     -1.285388
  H       2.524923      1.479804     -2.333071
  H       4.118446     -0.017184     -1.222273
  H       3.842603     -0.105903     -3.656959
  H       0.554273     -3.177655     -1.936866
  H      -4.155170      1.340285      1.202256
26
Coordinates from ORCA-job my_molecule E -1757.328535729949
  O      -1.773364      0.555541      1.796647
  Si     -0.256332      0.436878      2.519053
  Si     -3.394093      0.561628      2.230786
  C       0.966891      1.539896      1.630216
  C       2.202163      1.132497      1.273176
  H       0.683813      2.592115      1.436377
  H       2.934362      1.811291      0.801823
  H       2.543818      0.095144      1.440590
  Si      0.985512     -1.957113     -1.179507
  O      -0.351125     -1.088395     -0.694118
  O       1.937211     -1.066800     -2.218494
  Si      3.124205      0.106445     -2.353896
  Si     -1.765361     -0.443209     -1.338961
  H       1.756051     -2.299704      0.059846
  H      -3.569609      1.210986      3.579304
  H      -0.404102      0.889742      3.952545
  H      -3.934047     -0.841583      2.291865
  H       0.239718     -0.982131      2.505374
  H      -1.909506     -0.881131     -2.774606
  H      -2.948469     -0.954605     -0.569263
  H      -1.717104      1.055099     -1.288170
  H       2.514385      1.480877     -2.328400
  H       4.119349     -0.011619     -1.228548
  H       3.832996     -0.095901     -3.661783
  H       0.554946     -3.178738     -1.934218
  H      -4.153094      1.341893      1.196777
26
Coordinates from ORCA-job my_molecule E -1757.328538974057
  O      -1.771701      0.557936      1.794967
  Si     -0.256212      0.436476      2.519797
  Si     -3.393155      0.565402      2.226617
  C       0.970643      1.536985      1.632848
  C       2.206185      1.128014      1.277909
  H       0.689458      2.589768      1.439263
  H       2.940298      1.806513      0.809180
  H       2.546080      0.090240      1.445668
  Si      0.986444     -1.957380     -1.177433
  O      -0.350170     -1.088388     -0.693114
  O       1.938862     -1.069162     -2.216813
  Si      3.118712      0.110818     -2.355899
  Si     -1.765169     -0.446716     -1.340315
  H       1.756036     -2.299728      0.063026
  H      -3.570810      1.217544      3.573608
  H      -0.404021      0.890090      3.953196
  H      -3.933237     -0.837531      2.290096
  H       0.236481     -0.983977      2.508605
  H      -1.907317     -0.888000     -2.775226
  H      -2.948800     -0.958035     -0.570672
  H      -1.719228      1.051459     -1.291535
  H       2.501924      1.481962     -2.322821
  H       4.120967     -0.005057     -1.236884
  H       3.821275     -0.084206     -3.668367
  H       0.555962     -3.179785     -1.930915
  H      -4.150293      1.343860      1.189628
26
Coordinates from ORCA-job my_molecule E -1757.328542809000
  O      -1.769502      0.561128      1.792799
  Si     -0.256102      0.435526      2.521201
  Si     -3.391850      0.570623      2.221004
  C       0.975500      1.532939      1.636948
  C       2.211265      1.121950      1.284410
  H       0.696514      2.586323      1.443380
  H       2.947615      1.799863      0.818350
  H       2.549120      0.083636      1.452385
  Si      0.987702     -1.957741     -1.174854
  O      -0.349057     -1.088310     -0.691609
  O       1.941414     -1.072042     -2.214794
  Si      3.111673      0.116733     -2.358876
  Si     -1.765049     -0.451223     -1.341697
  H       1.756443     -2.298954      0.067030
  H      -3.572092      1.227027      3.565679
  H      -0.404601      0.889899      3.954369
  H      -3.932881     -0.831698      2.287899
  H       0.232628     -0.986560      2.512164
  H      -1.903714     -0.897236     -2.775594
  H      -2.948947     -0.962956     -0.572090
  H      -1.722265      1.046939     -1.295953
  H       2.485293      1.483245     -2.315707
  H       4.123063      0.003932     -1.248047
  H       3.805520     -0.069167     -3.677321
  H       0.557697     -3.181368     -1.926523
  H      -4.146173      1.346597      1.179862
26
Coordinates from ORCA-job my_molecule E -1757.328546857582
  O      -1.766989      0.564530      1.790284
  Si     -0.256010      0.433962      2.523095
  Si     -3.390295      0.576678      2.214508
  C       0.980896      1.528122      1.642162
  C       2.216709      1.114916      1.292040
  H       0.704193      2.582074      1.448310
  H       2.955293      1.791888      0.828112
  H       2.552462      0.075962      1.459995
  Si      0.989175     -1.958129     -1.171738
  O      -0.348005     -1.088187     -0.689509
  O       1.944266     -1.074518     -2.212313
  Si      3.103982      0.123608     -2.362553
  Si     -1.764991     -0.456223     -1.342774
  H       1.757323     -2.297244      0.071470
  H      -3.573230      1.238797      3.556053
  H      -0.406250      0.889039      3.955814
  H      -3.933134     -0.824741      2.285841
  H       0.228685     -0.989602      2.515439
  H      -1.899186     -0.907479     -2.775499
  H      -2.948710     -0.968924     -0.573314
  H      -1.725988      1.042151     -1.300716
  H       2.467160      1.484912     -2.308078
  H       4.125903      0.014278     -1.261187
  H       3.786946     -0.052940     -3.687842
  H       0.560109     -3.183179     -1.921496
  H      -4.141099      1.349352      1.168308
26
Coordinates from ORCA-job my_molecule E -1757.328550328760
  O      -1.764580      0.567176      1.787712
  Si     -0.255823      0.432154      2.524806
  Si     -3.388688      0.582029      2.208460
  C       0.985738      1.523671      1.647119
  C       2.221346      1.108471      1.298941
  H       0.711041      2.578072      1.452747
  H       2.961700      1.784249      0.836016
  H       2.555295      0.068863      1.466724
  Si      0.990561     -1.958739     -1.168360
  O      -0.347352     -1.088537     -0.687041
  O       1.946229     -1.076116     -2.209800
  Si      3.096776      0.129945     -2.365759
  Si     -1.764674     -0.460435     -1.343351
  H       1.758669     -2.294925      0.075570
  H      -3.573806      1.250139      3.546679
  H      -0.408936      0.887821      3.956879
  H      -3.933602     -0.818463      2.284466
  H       0.225695     -0.992339      2.517531
  H      -1.894859     -0.915763     -2.775094
  H      -2.948104     -0.973931     -0.574352
  H      -1.728729      1.038314     -1.304663
  H       2.451237      1.486745     -2.301207
  H       4.128488      0.023575     -1.273177
  H       3.769132     -0.038792     -3.697281
  H       0.562685     -3.185116     -1.916549
  H      -4.136225      1.351036      1.157400
26
Coordinates from ORCA-job my_molecule E -1757.328552760052
  O      -1.762864      0.568357      1.785587
  Si     -0.255592      0.430635      2.525726
  Si     -3.387450      0.585350      2.204277
  C       0.988955      1.520662      1.650430
  C       2.224219      1.104020      1.303450
  H       0.715706      2.575348      1.455498
  H       2.965642      1.778640      0.840500
  H       2.556904      0.063909      1.471158
  Si      0.991537     -1.959241     -1.165359
  O      -0.347215     -1.089246     -0.684768
  O       1.946718     -1.076412     -2.207626
  Si      3.091793      0.134256     -2.367717
  Si     -1.764218     -0.462951     -1.343349
  H       1.760006     -2.292721      0.078597
  H      -3.573799      1.258374      3.539762
  H      -0.412073      0.886744      3.957137
  H      -3.933867     -0.814480      2.284358
  H       0.224226     -0.994156      2.518109
  H      -1.892152     -0.920078     -2.774607
  H      -2.947478     -0.976806     -0.574986
  H      -1.729987      1.036139     -1.306833
  H       2.441585      1.488547     -2.296695
  H       4.130548      0.029513     -1.281455
  H       3.756371     -0.029862     -3.703567
  H       0.564675     -3.186414     -1.912817
  H      -4.132979      1.350976      1.149605
26
Coordinates from ORCA-job my_molecule E -1757.328554372115
  O      -1.761680      0.568647      1.783734
  Si     -0.255297      0.429663      2.525772
  Si     -3.386507      0.587144      2.201517
  C       0.991073      1.518858      1.652060
  C       2.226025      1.100989      1.306013
  H       0.719041      2.573755      1.456567
  H       2.968261      1.774509      0.842731
  H       2.557646      0.060518      1.474052
  Si      0.992236     -1.959791     -1.162860
  O      -0.347285     -1.090367     -0.682953
  O       1.946248     -1.076396     -2.205976
  Si      3.088052      0.137073     -2.368429
  Si     -1.763546     -0.464243     -1.343123
  H       1.761222     -2.291166      0.080844
  H      -3.573410      1.263744      3.535044
  H      -0.415010      0.886149      3.956634
  H      -3.933615     -0.812313      2.284881
  H       0.223726     -0.995179      2.517797
  H      -1.890939     -0.921582     -2.774281
  H      -2.946980     -0.977796     -0.575303
  H      -1.729690      1.035010     -1.307915
  H       2.435545      1.490071     -2.293458
  H       4.131426      0.033225     -1.286330
  H       3.747802     -0.023958     -3.707012
  H       0.566079     -3.187418     -1.910002
  H      -4.131210      1.349957      1.144414
26
Coordinates from ORCA-job my_molecule E -1757.328555477790
  O      -1.761024      0.568475      1.782177
  Si     -0.255111      0.429141      2.525256
  Si     -3.385941      0.588084      2.199775
  C       0.992425      1.517771      1.652528
  C       2.227203      1.098706      1.307435
  H       0.721511      2.572839      1.456466
  H       2.970258      1.771224      0.844016
  H       2.557783      0.058005      1.476240
  Si      0.992750     -1.959912     -1.161019
  O      -0.347370     -1.091242     -0.681701
  O       1.945630     -1.075954     -2.204610
  Si      3.085711      0.138961     -2.368617
  Si     -1.763142     -0.464992     -1.342694
  H       1.762020     -2.290240      0.082528
  H      -3.572969      1.267394      3.531890
  H      -0.417455      0.885931      3.955745
  H      -3.933143     -0.811171      2.285975
  H       0.223582     -0.995749      2.517170
  H      -1.890999     -0.921945     -2.773932
  H      -2.946755     -0.978241     -0.575023
  H      -1.729325      1.034247     -1.308330
  H       2.432429      1.491462     -2.291408
  H       4.132073      0.035636     -1.289305
  H       3.742582     -0.020183     -3.708912
  H       0.567081     -3.187696     -1.908207
  H      -4.130592      1.348553      1.140975
26
Coordinates from ORCA-job my_molecule E -1757.328556290703
  O      -1.760561      0.568364      1.780607
  Si     -0.255008      0.428916      2.524432
  Si     -3.385511      0.588957      2.198240
  C       0.993679      1.516799      1.652442
  C       2.228405      1.096336      1.308623
  H       0.723992      2.572038      1.455705
  H       2.972531      1.767842      0.845474
  H       2.557756      0.055445      1.478570
  Si      0.993259     -1.959833     -1.159663
  O      -0.347368     -1.091971     -0.680879
  O       1.945365     -1.075652     -2.203500
  Si      3.083628      0.140819     -2.368604
  Si     -1.762972     -0.465769     -1.342233
  H       1.762567     -2.289742      0.084013
  H      -3.572490      1.270615      3.529195
  H      -0.419282      0.885981      3.954690
  H      -3.932598     -0.810129      2.287075
  H       0.223349     -0.996161      2.516665
  H      -1.891585     -0.922626     -2.773497
  H      -2.946718     -0.978692     -0.574302
  H      -1.729067      1.033362     -1.308764
  H       2.429297      1.492686     -2.289335
  H       4.132288      0.038186     -1.291531
  H       3.738465     -0.016272     -3.710245
  H       0.568115     -3.187834     -1.906792
  H      -4.130323      1.347439      1.138029
26
Coordinates from ORCA-job my_molecule E -1757.328556978833
  O      -1.760257      0.568337      1.778946
  Si     -0.255066      0.428758      2.523484
  Si     -3.385204      0.590084      2.196673
  C       0.994953      1.515612      1.652144
  C       2.229703      1.093521      1.309996
  H       0.726610      2.571004      1.454507
  H       2.975161      1.763930      0.847438
  H       2.557616      0.052453      1.481373
  Si      0.993838     -1.959391     -1.158677
  O      -0.347292     -1.092367     -0.680341
  O       1.945648     -1.075096     -2.202381
  Si      3.081917      0.143009     -2.368741
  Si     -1.763236     -0.466850     -1.341588
  H       1.762869     -2.289382      0.085375
  H      -3.571979      1.274259      3.526417
  H      -0.420690      0.886056      3.953595
  H      -3.932316     -0.808749      2.288330
  H       0.222867     -0.996599      2.516348
  H      -1.892576     -0.924238     -2.772706
  H      -2.946791     -0.979708     -0.572956
  H      -1.729557      1.032180     -1.309247
  H       2.426148      1.494046     -2.287380
  H       4.132718      0.041298     -1.293806
  H       3.734779     -0.012073     -3.711664
  H       0.569440     -3.187676     -1.905753
  H      -4.130091      1.346684      1.135029
