51
Coordinates from ORCA-job my_molecule E -1977.841241798752
  Pt         -1.71095087802840     -0.29806250068932      1.34544582195766
  O          -0.43654344702956      0.63115982618460      2.45298467982569
  O          -3.52467575018816     -0.09836586922458      0.33627146171087
  P           0.98223941233765      1.29663208636433      1.93367223858388
  P          -3.20653144658011     -1.33410377625424     -0.59752821298073
  O          -4.47881964202346     -2.31465236790871     -0.81040046319457
  O          -2.09898819350732     -2.05090906122173      0.28324208119997
  O           0.94196738281610      1.34425378219396      0.28704773706024
  O           2.17501213171726      0.55416573575936      2.48628795655348
  C           0.82437395044357      3.08900853098333      2.37285829105810
  C          -2.70635719817031     -0.89821407817242     -2.32861576230154
  C          -1.65210146146160     -1.94478850535974     -2.76701642603075
  C          -2.11673181827145      0.52661460359750     -2.30397193508843
  C          -3.94248633896624     -0.93246953402059     -3.25345439164433
  C          -0.35749614511253      3.71668094133927      1.61147019068668
  C           0.61715974428386      3.19483041382168      3.89722781592476
  C           2.16582487398714      3.74439847237802      1.96848658706211
  H          -4.68572692747471     -2.77557103039795      0.02796207304108
  H           1.08956520667051      0.42828386217296     -0.06792413025233
  H          -0.65474375468591     -1.73842397011333     -2.33174975279138
  H          -1.56290815019112     -1.92784924634798     -3.87200708231824
  H          -1.94973585279580     -2.97679632220345     -2.49047753740923
  H          -1.18877883994951      0.58622124185182     -1.69882877137323
  H          -2.83944870184414      1.25513567882484     -1.88818262365565
  H          -1.86712085829732      0.82653810415007     -3.34062218044741
  H          -4.45393205349156     -1.91047745303986     -3.22955134327544
  H          -3.61047786914002     -0.74384600754221     -4.29175588671968
  H          -4.68260051959492     -0.15334237565062     -2.98249254116906
  H          -1.31756887178007      3.21117207595557      1.83873722641952
  H          -0.19757528619901      3.66628615284463      0.51580837580126
  H          -0.44796239826702      4.78696755056624      1.89569077964649
  H          -0.29285173212864      2.64912443687011      4.22248468823404
  H           0.50819791059625      4.26359257755478      4.17327331709366
  H           1.47948642971816      2.77708323643206      4.45435695675686
  H           2.24034666962458      3.84166889167230      0.86616512782975
  H           3.02929464950021      3.14861484956979      2.32207137929704
  H           2.23668734845876      4.76321607000402      2.40544788977037
  Si          2.43834828959573     -1.96005503937339     -0.39150769211394
  C           4.13257867864349     -1.20377318737137     -0.02210697941750
  C           1.58807690524160     -2.65352850363120      1.14997253612448
  C           2.54862785257838     -3.28979534339033     -1.74733050676027
  H           4.04747116114197     -0.49706190264037      0.83116666945116
  H           4.53932297519585     -0.66127666598002     -0.90180404038043
  H           4.86180662688470     -1.99414295739082      0.25807600232699
  H           0.48955363395231     -2.53083572254511      1.08372903655963
  H           1.93117683271851     -2.10888776713406      2.05068741797140
  H           1.80965176649865     -3.73229878942005      1.27705309015120
  H           1.55385564712947     -3.72154445127867     -1.98661108574421
  H           3.19766093140022     -4.11926518073066     -1.39523932159174
  H           2.99158458582780     -2.89597615369357     -2.68598918309389
  H           1.56324253821611     -0.83533535836489     -0.96250957834432
