66
Coordinates from ORCA-job my_molecule_MEP E -2537.143799370434
  O       2.515242      0.048421     -1.387631
  Si      3.383462      1.193788     -0.516847
  Si      2.474968     -1.542811     -1.939978
  C       2.243055      2.683431     -0.272668
  C       1.025824      2.892150     -0.999510
  C       1.526618     -1.531244     -3.564743
  C       1.031264     -0.419385     -4.145980
  C       3.944743      0.488977      1.143266
  C       4.885134      1.749027     -1.524064
  C       4.233963     -2.177256     -2.232146
  C       1.591300     -2.625052     -0.672534
  H       2.741109      3.593987      0.123346
  H       0.664482      2.138780     -1.722031
  H       0.639084      3.912083     -1.178274
  H       1.366539     -2.499501     -4.079658
  H       1.159343      0.572978     -3.679534
  H       0.480992     -0.444388     -5.103247
  H       3.081084      0.079045      1.705306
  H       4.414450      1.276986      1.768173
  H       4.689812     -0.322022      1.006075
  H       4.573234      2.130901     -2.517483
  H       5.591277      0.908415     -1.685772
  H       5.437497      2.559767     -1.004767
  H       4.780143     -1.527232     -2.945710
  H       4.216088     -3.203076     -2.656057
  H       4.811936     -2.217466     -1.285206
  H       0.587355     -2.204682     -0.459794
  H       2.159392     -2.672566      0.279542
  H       1.467060     -3.662261     -1.047463
  Pt      0.587359      2.315243      0.953965
  O      -3.072220      1.018759      0.757211
  O      -3.168164     -0.158239      1.690453
  P      -2.371643      0.592975     -0.731646
  P      -2.962149      0.412826      3.265558
  O      -3.253450     -1.037315      3.979245
  O      -3.830251      1.561570      3.672334
  O      -0.949422     -0.112510     -0.376453
  O      -2.341899      1.902483     -1.469949
  C      -3.372280     -0.760353     -1.505539
  C      -1.137352      0.627244      3.548407
  C      -0.945036      0.780504      5.073575
  C      -0.715610      1.950779      2.859753
  C      -0.361190     -0.587785      3.015607
  C      -3.138951     -2.127638     -0.837029
  C      -4.850832     -0.333848     -1.398104
  C      -2.927408     -0.798012     -2.985152
  H      -4.203803     -1.090681      4.208601
  H      -0.293400      0.594103     -0.029233
  H      -1.553633      1.614730      5.475443
  H       0.123366      0.986434      5.294580
  H      -1.233872     -0.147507      5.604219
  H      -1.133696      2.837350      3.373793
  H      -1.150578      2.011602      1.800128
  H       0.420636      2.046828      2.945915
  H      -0.692205     -1.515730      3.521368
  H       0.722312     -0.452258      3.217507
  H      -0.496830     -0.718475      1.925994
  H      -3.422703     -2.118063      0.232334
  H      -2.080021     -2.442050     -0.913157
  H      -3.760550     -2.888609     -1.354967
  H      -5.194388     -0.319432     -0.345411
  H      -5.480297     -1.054267     -1.961006
  H      -5.012453      0.674806     -1.828333
  H      -1.859082     -1.078690     -3.085055
  H      -3.070309      0.186462     -3.472059
  H      -3.534443     -1.553033     -3.527506
66
Coordinates from ORCA-job my_molecule_MEP E -2537.142258255290
  O       2.515849     -0.000689     -1.403472
  Si      3.468834      1.004392     -0.451827
  Si      2.452238     -1.411770     -2.323120
  C       2.432297      2.534805     -0.048184
  C       1.263117      2.917044     -0.788826
  C       1.379407     -1.050669     -3.827706
  C       0.788386      0.125883     -4.078736
  C       4.026942      0.103685      1.109946
  C       4.975178      1.586782     -1.439819
  C       4.187465     -1.914414     -2.889173
  C       1.683286     -2.783285     -1.280260
  H       3.003740      3.360682      0.425337
  H       0.846661      2.256875     -1.569649
  H       0.990337      3.982723     -0.899567
  H       1.228024     -1.875613     -4.557232
  H       0.895866      0.985290     -3.390223
  H       0.161471      0.302350     -4.974356
  H       3.156231     -0.292877      1.670396
  H       4.585350      0.787152      1.783135
  H       4.697045     -0.745491      0.860740
  H       4.657085      2.077658     -2.382378
  H       5.641644      0.739321     -1.702087
  H       5.573062      2.320230     -0.859528
  H       4.668514     -1.105459     -3.475835
  H       4.138363     -2.815492     -3.536100
  H       4.843186     -2.157482     -2.027058
  H       0.718329     -2.431835     -0.861130
  H       2.346366     -3.065821     -0.436428
  H       1.496228     -3.693624     -1.887090
  Pt      0.702067      2.267830      1.102753
  O      -2.922024      1.032831      0.614599
  O      -3.191494     -0.020818      1.653645
  P      -2.142743      0.353997     -0.735673
  P      -3.168663      0.708797      3.175372
  O      -3.621341     -0.649984      3.981400
  O      -4.023284      1.919167      3.338385
  O      -0.780120     -0.329157     -0.161789
  O      -1.993120      1.522721     -1.670974
  C      -3.175468     -1.064483     -1.341836
  C      -1.388630      0.880429      3.680374
  C      -1.399916      1.203993      5.190736
  C      -0.803642      2.091409      2.909622
  C      -0.610184     -0.413001      3.394080
  C      -3.013493     -2.333427     -0.485008
  C      -4.638891     -0.572578     -1.335243
  C      -2.712570     -1.331446     -2.791343
  H      -4.599771     -0.659405      4.062961
  H      -0.126015      0.399593      0.115822
  H      -2.012739      2.101674      5.406249
  H      -0.363664      1.394603      5.540087
  H      -1.810387      0.356170      5.773407
  H      -1.250210      3.049870      3.236290
  H      -1.078455      1.998725      1.795445
  H       0.307793      2.156771      3.143147
  H      -1.056385     -1.271650      3.932593
  H       0.437254     -0.294248      3.742873
  H      -0.590464     -0.650192      2.313496
  H      -3.321293     -2.167003      0.564088
  H      -1.967447     -2.696514     -0.487589
  H      -3.654476     -3.134238     -0.911467
  H      -5.005989     -0.392959     -0.306346
  H      -5.282775     -1.344420     -1.806242
  H      -4.750659      0.366773     -1.912865
  H      -1.655366     -1.661667     -2.834965
  H      -2.811932     -0.424388     -3.418738
  H      -3.344005     -2.134123     -3.227116
66
Coordinates from ORCA-job my_molecule_MEP E -2537.136743892060
  O       2.486102     -0.035822     -1.409063
  Si      3.444913      0.955522     -0.445537
  Si      2.473446     -1.409317     -2.392763
  C       2.464744      2.524074     -0.050966
  C       1.411223      3.038013     -0.876827
  C       1.403588     -1.021149     -3.893935
  C       0.681042      0.086442     -4.059874
  C       3.953206      0.047001      1.127408
  C       4.970069      1.525588     -1.411400
  C       4.223044     -1.842163     -2.973109
  C       1.751305     -2.851868     -1.413794
  H       3.044517      3.275412      0.527942
  H       1.050001      2.453795     -1.743543
  H       1.249491      4.128838     -0.973984
  H       1.383132     -1.784847     -4.705074
  H       0.638513      0.882538     -3.289529
  H       0.068376      0.274791     -4.966176
  H       3.063681     -0.338626      1.665557
  H       4.503706      0.722443      1.814997
  H       4.617002     -0.811472      0.894482
  H       4.661442      2.019244     -2.355848
  H       5.643515      0.682201     -1.666855
  H       5.554919      2.261804     -0.821323
  H       4.690514     -1.000891     -3.524022
  H       4.190660     -2.715217     -3.658884
  H       4.883298     -2.112613     -2.122808
  H       0.768586     -2.561006     -0.990256
  H       2.418920     -3.144949     -0.577078
  H       1.607395     -3.741405     -2.062156
  Pt      0.633062      2.359641      0.920230
  O      -2.740411      0.988496      0.607676
  O      -2.968997     -0.080676      1.640777
  P      -2.067235      0.295529     -0.790000
  P      -3.128207      0.646850      3.153582
  O      -3.555858     -0.737078      3.927056
  O      -4.074270      1.799270      3.230520
  O      -0.695319     -0.435047     -0.298957
  O      -1.935487      1.456038     -1.735026
  C      -3.195243     -1.078379     -1.329904
  C      -1.411239      0.939009      3.796276
  C      -1.570182      1.281046      5.294862
  C      -0.843321      2.151931      3.015053
  C      -0.522632     -0.299303      3.597834
  C      -3.079531     -2.345152     -0.461795
  C      -4.624443     -0.495426     -1.275272
  C      -2.807223     -1.396195     -2.790961
  H      -4.537107     -0.821129      3.903639
  H      -0.013348      0.280633     -0.092059
  H      -2.259119      2.135078      5.447586
  H      -0.584091      1.537427      5.734984
  H      -1.976405      0.410367      5.847757
  H      -1.467762      3.058607      3.120980
  H      -0.897852      1.839922      1.909315
  H       0.188173      2.380352      3.369503
  H      -0.946760     -1.186748      4.105985
  H       0.480521     -0.100447      4.030846
  H      -0.395795     -0.538552      2.523660
  H      -3.356995     -2.153266      0.590871
  H      -2.053711     -2.762151     -0.480857
  H      -3.769257     -3.115832     -0.867584
  H      -4.934038     -0.268242     -0.236805
  H      -5.336024     -1.234568     -1.698739
  H      -4.700479      0.436648     -1.870175
  H      -1.776955     -1.797935     -2.866397
  H      -2.870770     -0.494961     -3.431276
  H      -3.506046     -2.162118     -3.188767
66
Coordinates from ORCA-job my_molecule_MEP E -2537.130659474302
  O       2.486248     -0.056816     -1.405004
  Si      3.418398      0.955910     -0.437120
  Si      2.481432     -1.422895     -2.397572
  C       2.408687      2.516653     -0.083709
  C       1.509117      3.071598     -1.075868
  C       1.415792     -1.036345     -3.898648
  C       0.680138      0.082173     -4.060287
  C       3.922010      0.060222      1.143467
  C       4.946109      1.534802     -1.392362
  C       4.232965     -1.845343     -2.979433
  C       1.764882     -2.873841     -1.426927
  H       2.907281      3.242565      0.592569
  H       1.327505      2.526770     -2.019741
  H       1.376849      4.167631     -1.161194
  H       1.396937     -1.787000     -4.714561
  H       0.634017      0.864350     -3.283550
  H       0.075226      0.267199     -4.965763
  H       3.036642     -0.330992      1.683839
  H       4.473197      0.737041      1.828629
  H       4.588358     -0.796067      0.910245
  H       4.640338      2.024971     -2.339330
  H       5.625283      0.695221     -1.643463
  H       5.524035      2.275368     -0.801562
  H       4.697038     -0.999689     -3.526260
  H       4.205230     -2.715945     -3.668416
  H       4.893197     -2.115778     -2.129180
  H       0.778861     -2.590648     -1.006351
  H       2.431392     -3.164011     -0.588383
  H       1.629174     -3.762835     -2.077528
  Pt      0.440049      2.356118      0.518801
  O      -2.645561      0.959733      0.634836
  O      -2.896030     -0.106213      1.663131
  P      -2.040189      0.261532     -0.789387
  P      -3.114150      0.640129      3.167018
  O      -3.558915     -0.750595      3.933538
  O      -4.066038      1.770621      3.201330
  O      -0.670821     -0.504621     -0.372294
  O      -1.912334      1.457412     -1.711421
  C      -3.207150     -1.071944     -1.328244
  C      -1.418084      0.938639      3.861980
  C      -1.614504      1.228492      5.367380
  C      -0.857281      2.188994      3.155771
  C      -0.502604     -0.275547      3.638359
  C      -3.104547     -2.344055     -0.465034
  C      -4.624437     -0.464843     -1.259875
  C      -2.831787     -1.391875     -2.792695
  H      -4.534595     -0.830646      3.888321
  H       0.033008      0.214629     -0.225755
  H      -2.314286      2.071716      5.530231
  H      -0.639167      1.488270      5.828904
  H      -2.017705      0.338469      5.889851
  H      -1.539819      3.057792      3.220791
  H      -0.753371      1.951562      2.049423
  H       0.132106      2.460000      3.573112
  H      -0.910947     -1.185443      4.119921
  H       0.494042     -0.067902      4.080270
  H      -0.367004     -0.485133      2.558642
  H      -3.373411     -2.151986      0.589775
  H      -2.084721     -2.774750     -0.491094
  H      -3.807003     -3.103533     -0.870271
  H      -4.918726     -0.229938     -0.218471
  H      -5.352873     -1.192874     -1.673402
  H      -4.691170      0.467035     -1.856390
  H      -1.806462     -1.805114     -2.874031
  H      -2.888680     -0.489168     -3.432040
  H      -3.541173     -2.149236     -3.187518

66
Coordinates from ORCA-job my_molecule_MEP E -2537.143035785898
  O       2.497050     -0.108604     -1.400359
  Si      3.355137      0.973757     -0.429734
  Si      2.496890     -1.452327     -2.408533
  C       2.235567      2.476732     -0.123736
  C       1.756122      3.220435     -1.259614
  C       1.419685     -1.051810     -3.899913
  C       0.703431      0.083179     -4.052550
  C       3.878092      0.087896      1.154368
  C       4.893820      1.555086     -1.371204
  C       4.247259     -1.862716     -2.994194
  C       1.779085     -2.909095     -1.445569
  H       2.452640      3.064602      0.793893
  H       1.934357      2.862966     -2.293925
  H       1.552280      4.307351     -1.180806
  H       1.379595     -1.799842     -4.716612
  H       0.689889      0.866000     -3.272222
  H       0.093078      0.277819     -4.952628
  H       3.007586     -0.318322      1.707654
  H       4.436660      0.762994      1.835131
  H       4.548729     -0.761368      0.906457
  H       4.603842      2.042727     -2.324616
  H       5.574829      0.713450     -1.612106
  H       5.468440      2.296787     -0.778236
  H       4.704047     -1.007908     -3.532911
  H       4.230458     -2.729875     -3.686995
  H       4.905393     -2.127631     -2.140734
  H       0.791383     -2.631866     -1.025280
  H       2.443490     -3.192446     -0.603193
  H       1.647927     -3.800316     -2.093125
  Pt      0.180684      2.169813     -0.559911
  O      -2.633938      0.835187      0.739736
  O      -2.924962     -0.209628      1.763602
  P      -2.024561      0.176688     -0.663369
  P      -3.106154      0.616759      3.239172
  O      -3.571652     -0.746192      4.040250
  O      -4.091417      1.743674      3.204693
  O      -0.671233     -0.649551     -0.334065
  O      -1.770895      1.470304     -1.434892
  C      -3.222979     -1.062443     -1.329455
  C      -1.416941      0.956570      3.903645
  C      -1.620497      1.208413      5.415296
  C      -0.869685      2.230064      3.225989
  C      -0.492423     -0.249446      3.657705
  C      -3.142446     -2.352909     -0.483157
  C      -4.628572     -0.433519     -1.255471
  C      -2.826731     -1.360428     -2.791509
  H      -4.534420     -0.828820      3.964367
  H       0.099423      0.051811     -0.414466
  H      -2.321351      2.049692      5.587978
  H      -0.646104      1.471715      5.875736
  H      -2.018905      0.311214      5.927910
  H      -1.582660      3.073546      3.311237
  H      -0.639295      2.085335      2.147867
  H       0.076578      2.520922      3.728473
  H      -0.887516     -1.171510      4.127922
  H       0.504334     -0.038245      4.098551
  H      -0.356583     -0.442526      2.575560
  H      -3.406647     -2.170190      0.574957
  H      -2.129195     -2.798564     -0.516134
  H      -3.858170     -3.090715     -0.901018
  H      -4.918976     -0.202888     -0.212635
  H      -5.364022     -1.153317     -1.671168
  H      -4.689241      0.500117     -1.848266
  H      -1.803291     -1.777571     -2.868178
  H      -2.881246     -0.457077     -3.429134
  H      -3.535076     -2.113940     -3.196525
66
Coordinates from ORCA-job my_molecule_MEP E -2537.154687772522
  O       2.078047     -0.451010     -1.240888
  Si      2.858797      0.924686     -0.556282
  Si      2.469013     -1.646279     -2.423695
  C       1.836890      2.524168     -0.269754
  C       1.118801      3.428455     -1.122364
  C       1.557364     -1.306672     -4.038217
  C       1.102393     -0.132658     -4.472345
  C       3.354007      0.386765      1.177141
  C       4.246454      1.524430     -1.671639
  C       4.326232     -1.625901     -2.754225
  C       2.025588     -3.370147     -1.782646
  H       2.087007      2.949616      0.728543
  H       1.075723      3.292926     -2.215437
  H       0.955447      4.466906     -0.783946
  H       1.452572     -2.186822     -4.714662
  H       1.149644      0.786164     -3.852927
  H       0.635146     -0.004007     -5.471707
  H       2.451204      0.100812      1.758357
  H       3.861216      1.205453      1.727366
  H       4.031011     -0.490402      1.151413
  H       3.820660      1.796170     -2.661330
  H       5.068750      0.803274     -1.821271
  H       4.659415      2.452251     -1.225936
  H       4.638147     -0.696761     -3.266808
  H       4.588565     -2.476502     -3.415442
  H       4.911911     -1.730731     -1.817420
  H       0.946782     -3.528618     -1.585638
  H       2.585967     -3.615940     -0.857022
  H       2.338718     -4.105112     -2.556732
  Pt     -0.153229      2.002628     -0.178639
  O      -1.430393      0.587892      0.560496
  O      -2.745551     -0.806699      2.188711
  P      -1.319550     -0.367839     -0.712823
  P      -2.981569      0.455957      3.077089
  O      -3.930828     -0.094500      4.345233
  O      -3.645464      1.666944      2.414642
  O      -0.352572     -1.640470     -0.456941
  O      -0.611268      0.627814     -1.756256
  C      -2.965073     -0.936784     -1.273048
  C      -1.402500      0.906580      4.012721
  C      -1.728665      1.137326      5.502515
  C      -0.840974      2.220219      3.430465
  C      -0.386111     -0.238595      3.855996
  C      -3.354074     -2.233053     -0.532909
  C      -3.898392      0.250072     -0.912516
  C      -2.896547     -1.170175     -2.797125
  H      -4.824868     -0.263202      3.978904
  H       0.596553     -1.325907     -0.535581
  H      -2.480509      1.940633      5.635289
  H      -0.805774      1.435942      6.044632
  H      -2.132340      0.221664      5.973836
  H      -1.624791      2.999428      3.371653
  H      -0.440053      2.074019      2.398629
  H      -0.005303      2.587660      4.063957
  H      -0.764616     -1.181434      4.297873
  H       0.566109      0.023640      4.367003
  H      -0.179166     -0.443228      2.787230
  H      -3.294965     -2.090388      0.564143
  H      -2.701579     -3.079429     -0.829975
  H      -4.398883     -2.492550     -0.806361
  H      -3.866555      0.489698      0.169718
  H      -4.941062      0.000589     -1.195080
  H      -3.606496      1.169559     -1.462670
  H      -2.171681     -1.967826     -3.062335
  H      -2.614014     -0.248473     -3.343127
  H      -3.898716     -1.492226     -3.149837
66
Coordinates from ORCA-job my_molecule_MEP E -2537.214509431351
  O       2.165507     -0.497571     -1.566817
  Si      2.875204      0.460200     -0.364874
  Si      2.610797     -1.462773     -2.925741
  C       1.552059      1.478808      0.545438
  C       0.709400      2.480357     -0.029995
  C       1.658002     -0.721007     -4.356158
  C       1.169426      0.535635     -4.327721
  C       3.844816     -0.611527      0.845866
  C       4.006000      1.761501     -1.135627
  C       4.472838     -1.373365     -3.226034
  C       2.095584     -3.228292     -2.525335
  H       1.931701      1.723598      1.564281
  H       0.486584      2.470089     -1.108823
  H       0.550525      3.451622      0.469114
  H       1.449916     -1.340687     -5.248838
  H       1.322630      1.193231     -3.454602
  H       0.573621      0.969079     -5.147132
  H       3.214573     -1.379907      1.336576
  H       4.312490      0.011091      1.637113
  H       4.667580     -1.134023      0.313761
  H       3.443666      2.381743     -1.863253
  H       4.874417      1.311714     -1.657356
  H       4.397465      2.439803     -0.348919
  H       4.805258     -0.339424     -3.445642
  H       4.715420     -1.991980     -4.116002
  H       5.063955     -1.770179     -2.375218
  H       1.041510     -3.244909     -2.183672
  H       2.731301     -3.653206     -1.721278
  H       2.185970     -3.884874     -3.415079
  Pt     -0.503630      1.099492      1.001155
  O      -1.634529      0.912093     -0.653184
  O      -2.045568      0.392165      2.095350
  P      -1.656109     -0.230584     -1.828854
  P      -2.548813      1.467902      3.207796
  O      -3.790521      0.668723      3.936774
  O      -2.892813      2.841159      2.690915
  O      -0.429989     -1.255291     -1.488558
  O      -1.637553      0.505386     -3.148634
  C      -3.116185     -1.391150     -1.710755
  C      -1.272666      1.503116      4.576246
  C      -1.933003      2.099238      5.836825
  C      -0.162268      2.442990      4.081339
  C      -0.706529      0.102800      4.859663
  C      -3.173784     -2.064842     -0.330780
  C      -4.400625     -0.590580     -1.998627
  C      -2.919792     -2.446959     -2.825904
  H      -4.604598      0.819693      3.406882
  H       0.473677     -0.826690     -1.483966
  H      -2.384430      3.088885      5.624670
  H      -1.172931      2.228985      6.636817
  H      -2.730010      1.432389      6.218236
  H      -0.542128      3.466099      3.894821
  H       0.277179      2.081953      3.108823
  H       0.679799      2.481276      4.805511
  H      -1.506716     -0.613912      5.128747
  H       0.012889      0.152225      5.705094
  H      -0.170640     -0.305790      3.978784
  H      -3.276459     -1.324279      0.487248
  H      -2.259802     -2.660774     -0.140290
  H      -4.045071     -2.753552     -0.294696
  H      -4.591104      0.183918     -1.229895
  H      -5.266378     -1.287651     -2.007436
  H      -4.349017     -0.094169     -2.987529
  H      -1.991795     -3.034070     -2.681771
  H      -2.878349     -1.971879     -3.826154
  H      -3.777956     -3.153063     -2.812697
66
Coordinates from ORCA-job my_molecule_MEP E -2537.176291490060
  O       3.044293     -0.428647     -1.129610
  Si      4.014063      0.580676     -0.194723
  Si      2.592190     -1.279324     -2.495671
  C       2.853452      1.676040      0.809883
  C       2.551022      2.958534      0.519811
  C       1.299959     -0.246002     -3.418011
  C       0.851665      0.969792     -3.023408
  C       5.031172     -0.512339      0.958106
  C       5.129647      1.612473     -1.315474
  C       4.075531     -1.592670     -3.623763
  C       1.814360     -2.907501     -1.948832
  H       2.356042      1.224392      1.691502
  H       2.995174      3.485054     -0.344218
  H       1.837851      3.549429      1.122440
  H       0.864149     -0.667444     -4.346672
  H       1.237859      1.453395     -2.107529
  H       0.077794      1.520929     -3.587252
  H       4.369118     -1.136917      1.592542
  H       5.676800      0.091124      1.629180
  H       5.686236     -1.195900      0.379066
  H       4.542855      2.247459     -2.010469
  H       5.776483      0.952126     -1.929491
  H       5.791461      2.276507     -0.722055
  H       4.545229     -0.642531     -3.949917
  H       3.771854     -2.150247     -4.534286
  H       4.844730     -2.197927     -3.100320
  H       0.923639     -2.720214     -1.315592
  H       2.539174     -3.509457     -1.362757
  H       1.492567     -3.513452     -2.821232
  Pt     -2.643783      1.236984      0.425969
  O      -3.425373      0.295217     -1.005400
  O      -1.824021      1.732432      2.051406
  P      -2.725513     -0.500708     -2.287281
  P      -2.615841      2.043581      3.486885
  O      -3.538994      0.709439      3.754068
  O      -3.349228      3.356680      3.446537
  O      -1.262016     -1.008517     -1.778842
  O      -2.729433      0.387161     -3.508421
  C      -3.713101     -2.058798     -2.374025
  C      -1.276221      1.869614      4.743137
  C      -1.914176      2.117038      6.125776
  C      -0.242500      2.969031      4.419035
  C      -0.637076      0.471174      4.666485
  C      -3.606265     -2.824840     -1.042251
  C      -5.172614     -1.660197     -2.670008
  C      -3.129644     -2.886331     -3.537519
  H      -4.362645      0.771704      3.225691
  H      -0.528835     -0.446831     -2.152254
  H      -2.418915      3.102751      6.163435
  H      -1.123931      2.100090      6.905200
  H      -2.659888      1.335899      6.374338
  H      -0.711615      3.972960      4.417275
  H       0.225046      2.804220      3.427350
  H       0.559073      2.958907      5.186435
  H      -1.372854     -0.326067      4.889341
  H       0.183687      0.401870      5.411293
  H      -0.206946      0.275547      3.663922
  H      -4.009481     -2.230901     -0.197941
  H      -2.556648     -3.089919     -0.808231
  H      -4.193882     -3.764594     -1.108890
  H      -5.605210     -1.064972     -1.842153
  H      -5.786481     -2.576402     -2.797022
  H      -5.245184     -1.061126     -3.599317
  H      -2.075122     -3.167827     -3.345004
  H      -3.171681     -2.322611     -4.490914
  H      -3.719058     -3.819015     -3.659354
66
Coordinates from ORCA-job my_molecule_MEP E -2537.179431278866
  O       3.287427     -0.785055     -1.384342
  Si      4.311894     -0.042312     -0.274533
  Si      2.460530     -0.828080     -2.842444
  C       3.275996      0.392337      1.239994
  C       3.193044      1.615000      1.805089
  C       0.942782      0.291935     -2.711985
  C       0.644646      1.073487     -1.647014
  C       5.630643     -1.304132      0.198501
  C       5.088702      1.508281     -1.021764
  C       3.561524     -0.223695     -4.253362
  C       1.905889     -2.604039     -3.144482
  H       2.692774     -0.426690      1.705869
  H       3.738463      2.485940      1.399880
  H       2.576083      1.812871      2.700170
  H       0.233244      0.320597     -3.563823
  H       1.281837      1.101090     -0.744423
  H      -0.251187      1.720405     -1.631574
  H       5.166155     -2.219268      0.619110
  H       6.323832     -0.891477      0.960162
  H       6.228754     -1.603319     -0.686908
  H       4.315864      2.241231     -1.331662
  H       5.688484      1.246863     -1.917716
  H       5.767023      2.009404     -0.300541
  H       3.903519      0.816698     -4.079494
  H       3.011769     -0.242188     -5.217293
  H       4.456973     -0.870313     -4.360541
  H       1.233172     -2.951524     -2.334559
  H       2.778483     -3.287349     -3.190266
  H       1.354164     -2.686219     -4.104005
  Pt     -2.638412      0.880683      0.497353
  O      -3.396725     -0.246530     -0.812967
  O      -1.852678      1.806561      1.944228
  P      -2.594578     -1.039849     -2.040771
  P      -2.653184      2.646185      3.136774
  O      -3.927868      1.710116      3.578615
  O      -2.986827      4.031087      2.643734
  O      -1.186308     -1.572237     -1.413824
  O      -2.480647     -0.118541     -3.233535
  C      -3.577160     -2.583751     -2.274273
  C      -1.537209      2.516900      4.599020
  C      -2.249080      3.221606      5.772633
  C      -0.241342      3.266744      4.224724
  C      -1.245625      1.041646      4.929225
  C      -3.638179     -3.387389     -0.962482
  C      -4.985949     -2.151006     -2.729175
  C      -2.876027     -3.391086     -3.387056
  H      -4.627350      1.757488      2.892789
  H      -0.486184     -0.869429     -1.514896
  H      -2.504270      4.269299      5.516577
  H      -1.576107      3.234950      6.655389
  H      -3.182302      2.696904      6.058041
  H      -0.451940      4.317532      3.943803
  H       0.275396      2.780238      3.373419
  H       0.446508      3.268884      5.095940
  H      -2.172020      0.486380      5.174277
  H      -0.569382      0.990915      5.808467
  H      -0.745638      0.527111      4.084513
  H      -4.136201     -2.813684     -0.155555
  H      -2.626939     -3.673042     -0.612248
  H      -4.221361     -4.317633     -1.128674
  H      -5.506277     -1.572064     -1.941088
  H      -5.592511     -3.052473     -2.956307
  H      -4.937551     -1.524436     -3.641753
  H      -1.862788     -3.716596     -3.078417
  H      -2.782154     -2.795072     -4.316886
  H      -3.475614     -4.296892     -3.615661
