66
Coordinates from ORCA-job my_molecule E -2537.139888912910
  O           2.41758533596472     -0.04444494055946     -1.18203466692589
  Si          3.37418610413656      1.18122144221013     -0.53826941188611
  Si          2.40755715588182     -1.57368701227407     -1.89059475124276
  C           2.25212745621520      2.68427896587763     -0.29128939040296
  C           1.01401767853256      2.89862015449706     -0.98068600592800
  C           1.57006470631111     -1.41947597680389     -3.56979036032698
  C           1.09416392883252     -0.26643613311490     -4.08308584726990
  C           4.13279302752182      0.64159993188978      1.11565250597561
  C           4.73907736480792      1.63312988443676     -1.76978269939918
  C           4.17499435440280     -2.20891945327267     -2.12716894331626
  C           1.43991004705170     -2.74778069476298     -0.77563053414979
  H           2.76323989808413      3.59411504280003      0.08950087894157
  H           0.62054984216584      2.15344932605083     -1.69462993420998
  H           0.62362062938415      3.92046970726176     -1.14011772026832
  H           1.46271488621786     -2.33869147335169     -4.17992355685886
  H           1.16862852608879      0.68196339145899     -3.52282927591469
  H           0.61272363154614     -0.21144920275019     -5.07552826513785
  H           3.92343492004264     -0.43142004748619      1.30241047051092
  H           3.69726393114988      1.21549422351003      1.95898016112517
  H           5.23273513553410      0.78257655823002      1.13406420311551
  H           4.32136916073721      1.78956048705173     -2.78515515480731
  H           5.50617261830513      0.83344029219915     -1.83110943031556
  H           5.25494376679541      2.56714261172305     -1.46338395671287
  H           4.75479371118124     -1.55632857063785     -2.81088635330515
  H           4.16456213185513     -3.22970189303912     -2.56376297706715
  H           4.71394531934310     -2.26673243174444     -1.15844022196385
  H           0.53245000339110     -2.23437078385987     -0.39873359972283
  H           2.04868429943963     -3.07135505356068      0.09399091763323
  H           1.12759113146967     -3.65946443886584     -1.32577158807219
  Pt          0.62287177173026      2.29529981301335      0.96800179656104
  O          -3.05242321293464      0.98924919284465      0.78179192253289
  O          -3.14683482973545     -0.19182823126408      1.70935256219784
  P          -2.31050715118958      0.57251936718490     -0.69075994373910
  P          -2.98446986255365      0.39055029660963      3.28700259335832
  O          -3.27956616628896     -1.05708777705276      4.00417158290976
  O          -3.87464499230649      1.53251345011229      3.66399263317791
  O          -0.91735244156234     -0.17097645379793     -0.30179160299400
  O          -2.22390140392670      1.89007140126478     -1.40984156912673
  C          -3.31348687949445     -0.74762638091608     -1.51617761599668
  C          -1.16887720557788      0.62309280775582      3.61728177784647
  C          -1.03053661121079      0.86124459500372      5.13647027119795
  C          -0.71826916672285      1.89975368819760      2.86260969025142
  C          -0.37411954982558     -0.61428136147399      3.16951613344211
  C          -3.17432518067712     -2.11659887731470     -0.82519544564845
  C          -4.77792556320977     -0.26366594112516     -1.50356402077488
  C          -2.78221445608845     -0.81527284208464     -2.96604428426614
  H          -4.23466505742364     -1.11643585009480      4.21131027154306
  H          -0.23379529910974      0.52015083565531      0.01650235138485
  H          -1.64698276531189      1.72026417389253      5.46736969827459
  H           0.03095554307820      1.07218930294288      5.38406168631005
  H          -1.34624110384281     -0.03363585453082      5.70765828125316
  H          -1.23824828191150      2.81114611995491      3.21079080698839
  H          -1.00698430517217      1.74163423187474      1.76171002156941
  H           0.39190825425667      2.04571443316375      3.04845091486514
  H          -0.71061251612077     -1.51717512084881      3.71481939438863
  H           0.70423400304012     -0.46028896301771      3.38487076680343
  H          -0.48536956941930     -0.80030295811933      2.08430642446195
  H          -3.53779094677677     -2.09121076669639      0.21949212453362
  H          -2.12298652661458     -2.46398873280234     -0.81848198409341
  H          -3.77833890607597     -2.86178055582623     -1.38519407569452
  H          -5.18352839323257     -0.21479925684650     -0.47407342838302
  H          -5.40122852770562     -0.97051499950492     -2.09003769491874
  H          -4.87384927850596      0.74193097874928     -1.95952528152473
  H          -1.72119472273024     -1.13517427380345     -3.00148760932519
  H          -2.86011581183820      0.16981721232943     -3.46635774065939
  H          -3.38448358939876     -1.55130061654209     -3.53899590080468
