66
Coordinates from ORCA-job my_molecule E -2537.179388488999
  O          -1.73116593203981     -0.44951510657999     -0.10798920786995
  Si         -0.70628255593219      0.12421061877016      1.09753060958682
  Si         -2.54687565316211     -0.28647513522430     -1.56387308348705
  C          -1.74861227683265      0.36596586750957      2.65021621210961
  C          -1.82074474938262      1.50288484475125      3.37361178546860
  C          -4.05122906028930      0.82675028669250     -1.29456415297162
  C          -4.34787929191906      1.46329515815170     -0.13670229586721
  C           0.59294321717737     -1.20704265159302      1.40525083895689
  C           0.09548897473538      1.75034828237842      0.56944727930948
  C          -1.42706592217647      0.48548629491644     -2.87464886788341
  C          -3.12168826161586     -1.99853882071166     -2.10359421834665
  H          -2.34573127379944     -0.50012982312548      2.99848535339317
  H          -1.26123988932093      2.41281695518444      3.09224991506043
  H          -2.44220473971417      1.58727310049317      4.28333840204844
  H          -4.75360212429852      0.97843563381122     -2.13926162041080
  H          -3.71772298798282      1.36159025536073      0.76550090542527
  H          -5.23548718070775      2.11457555128648     -0.04066002965172
  H           0.11383482616740     -2.16397741344952      1.69652017043432
  H           1.28514975393799     -0.90941794826169      2.21959668758802
  H           1.19425004407330     -1.39288029360858      0.49143316551705
  H          -0.66581730513723      2.52832566030306      0.35576639676047
  H           0.69894015811984      1.60315282798638     -0.34977345865190
  H           0.77430658527118      2.14149788988474      1.35530912241841
  H          -1.07335467766856      1.48868460279380     -2.56150480326093
  H          -1.96921751844661      0.60300868282944     -3.83587270148516
  H          -0.53904275259421     -0.15321751732457     -3.06141126024190
  H          -3.80513872123286     -2.44174131753846     -1.35145754207073
  H          -2.25755829631722     -2.68151337910878     -2.23485254785917
  H          -3.66682979654413     -1.94445010987738     -3.06884054499623
  Pt         -7.65035506912763      1.03118781478517      1.94247063215256
  O          -8.41225099223297      0.09946804630523      0.48851217552216
  O          -6.86456334445877      1.74354691362083      3.50563119147007
  P          -7.61038421511110     -0.53379949060334     -0.82910595857387
  P          -7.66392787097264      2.42569943912975      4.79543943967733
  O          -8.95347433902852      1.45579513556283      5.09954831944432
  O          -7.97654302222344      3.86864114620783      4.49119470815543
  O          -6.21415694378646     -1.16430851175329     -0.26988782924402
  O          -7.47508500467994      0.53684445660591     -1.88733711682853
  C          -8.61059885954854     -2.01905177125386     -1.27305123486534
  C          -6.56099630932876      2.08604088062734      6.23358435896914
  C          -7.27294410059478      2.63618099374713      7.48707107867831
  C          -5.25294487643763      2.86178796587918      5.97125001786100
  C          -6.29062070849358      0.57600907618523      6.36405264489670
  C          -8.69247126550932     -2.98968106641309     -0.08080518716062
  C         -10.01001361778193     -1.51015468636213     -1.67492874032641
  C          -7.91084121809001     -2.68009173313875     -2.47927292147166
  H          -9.64707305036565      1.60438391766556      4.42228838388368
  H          -5.50434395354194     -0.46396830651658     -0.27189552655858
  H          -7.51281834535886      3.71214292474083      7.37275375439111
  H          -6.60674542653492      2.52152111325603      8.36759516703423
  H          -8.21490825578734      2.09060008699513      7.69370343132778
  H          -5.44813963312778      3.94349643557115      5.83272076326824
  H          -4.73579571091674      2.48694091630597      5.06546280539262
  H          -4.57193994099578      2.73768055080974      6.83897692506236
  H          -7.22580989245328      0.00544709917486      6.52665718924265
  H          -5.62186740674944      0.39826292998434      7.23243172117654
  H          -5.79071583163901      0.17297155242321      5.46077557859750
  H          -9.18954930518130     -2.52199675301651      0.79238028680667
  H          -7.68783390598695     -3.33343044871709      0.23443618325217
  H          -9.28616701615736     -3.88129597596480     -0.37338210171262
  H         -10.52919263114213     -1.03438089992803     -0.81990134156988
  H         -10.62626186521231     -2.36481771528678     -2.02408994513367
  H          -9.94621818465925     -0.76818111924847     -2.49535051071199
  H          -6.90436221393315     -3.05773257026150     -2.21052483765327
  H          -7.80190071475458     -1.96659410780447     -3.32048568766328
  H          -8.52002755046049     -3.53896723601482     -2.83062832581245
