69
Coordinates from ORCA-job my_molecule_im5 E -2464.491740501162
  Pt          0.79728453866068     -1.13675930941589      0.16068806925926
  O           1.42606523947425     -0.10076885143786      1.74025710337954
  O          -2.24663873686672     -0.87988881740500     -0.51462637606311
  P           2.68686134075932      0.88315895078320      1.72052325314486
  P          -1.65434219438402     -2.25005935235815     -1.17394481707327
  O          -2.07177729682821     -3.43601194288874     -0.14710388394143
  O          -0.14901020266772     -2.08572290508856     -1.49245137854304
  O           2.26689108529106      2.17387818179332      0.74307843823722
  O           4.04217729995944      0.35003168868672      1.29628476754178
  C           2.63919602926077      1.61447084584260      3.42895701479118
  C          -2.63007964423339     -2.62167082770945     -2.68150295196479
  C          -2.01604739782766     -3.86430916097997     -3.35813049253335
  C          -2.49692208974911     -1.38057599310380     -3.59096388885332
  C          -4.10428232979752     -2.86840160342879     -2.30289148531384
  C           1.27402654908278      2.28064587075588      3.68027938393483
  C           2.88015513435428      0.47027499122515      4.43193425558724
  C           3.77603872710158      2.65041593576953      3.50800252239921
  H          -1.66758215034706     -3.30504079379447      0.73877743032391
  H           3.02825395047564      2.30870541619229      0.14413465705678
  H          -0.94951885365206     -3.70461090608439     -3.61097091189925
  H          -2.56736559033362     -4.06981109198227     -4.29876145729719
  H          -2.09173359672767     -4.76262611509662     -2.71393179469834
  H          -1.43778553199087     -1.18014989764940     -3.84723891561890
  H          -2.91826831636341     -0.47538882895356     -3.10989893937047
  H          -3.05418661953130     -1.55943591355430     -4.53271001443364
  H          -4.21827563756687     -3.76618973335510     -1.66540385264809
  H          -4.68938035641321     -3.02775879285186     -3.23247188965051
  H          -4.54564294807628     -2.00264598104442     -1.76991202102951
  H           0.45074838080596      1.54196574000641      3.61995837910226
  H           1.07652902441631      3.08130866567123      2.93942946514778
  H           1.25864145720607      2.73841831917243      4.69276188265782
  H           2.07452627795361     -0.28770086379885      4.37324432577776
  H           2.90653752167495      0.87462972256292      5.46629170504645
  H           3.84554958029680     -0.03827686726511      4.23560717157141
  H           3.60823931619275      3.48287966547416      2.79501325189095
  H           4.75277761657776      2.18442973364180      3.26994879796553
  H           3.82817842476547      3.07880543094719      4.53134526443551
  Si          2.54903678596877     -2.63849476711879     -0.11109537646925
  C           3.71235398559660     -1.86677629985494     -1.39050017378267
  C           3.40824075989217     -2.85816545775410      1.55247353820889
  C           1.84731620806186     -4.29589253768700     -0.71954082858742
  H           4.10857208293539     -0.91888161548339     -0.97316017237480
  H           3.19759007611611     -1.66186253618545     -2.35063914778826
  H           4.56601626412817     -2.55062050238627     -1.58912880188537
  H           2.68330585868605     -3.12099638662137      2.34793823422973
  H           3.90845881779600     -1.90366463431067      1.81298473073493
  H           4.16651548104622     -3.66654431375093      1.47802322132118
  H           1.05749300966697     -4.66617679599899     -0.03478602758585
  H           2.65909764100764     -5.05335964370909     -0.74908957282062
  H           1.40863110785478     -4.20012637067035     -1.73153878807760
  H          -1.51162392394062     -0.21701820616796     -0.52562732525166
  C          -0.11210812393648      2.10695053862497     -1.55797748901959
  C          -0.87814649406527      2.43226592245715     -0.40299980949115
  H          -0.46005481126554      1.66917758872272     -2.44829551078774
  H           0.92070415013674      2.31665962024412     -1.62713501409288
  Si         -2.54077011732276      3.30343957346186     -0.39534111166450
  H          -0.27592140582338      2.50076060761779      0.49574462986681
  C          -2.17478624946810      5.12856753979648     -0.84764781595808
  C          -3.24484494458222      3.24246445926751      1.35770267815644
  C          -3.72894379969074      2.56284991803022     -1.65833565327759
  H          -1.45657611952285      5.59614081898900     -0.14231104024856
  H          -3.10665450114927      5.73513453294190     -0.82070713888891
  H          -1.74392917540262      5.22041866203530     -1.86657889230077
  H          -2.51703088470166      3.65877520959639      2.08418866689881
  H          -3.45626540155795      2.19491239787038      1.65008285141663
  H          -4.18446052924880      3.82768436904492      1.44214640727354
  H          -3.29387002367878      2.60230662868708     -2.67878566262986
  H          -4.69269261767595      3.10826386159769     -1.67208923370803
  H          -3.92449110681330      1.50159320943554     -1.40157643973503
