69
Coordinates from ORCA-job my_molecule_im3 E -2464.487651054149
  Pt          0.66416950132644     -1.20974446282119      0.16892941629418
  O           1.34859734373001     -0.10021176271818      1.69017346796627
  O          -2.21223980676770     -1.07874263722026     -0.22978998468086
  P           2.65063773412207      0.85217589498910      1.68392186754611
  P          -1.76635618517492     -2.28344659202145     -1.04644984096882
  O          -2.03692820286876     -3.69877686579330     -0.21555068140668
  O          -0.19178880437999     -2.27647973844193     -1.37141385483171
  O           2.24879651667141      2.10504759671147      0.67029873781911
  O           3.98608719178869      0.26134432969314      1.27509743303562
  C           2.61018788967850      1.60273560426006      3.38249547730709
  C          -2.63208320470910     -2.57831237146903     -2.65530242252038
  C          -2.03756116879516     -3.81248419627165     -3.35921451660195
  C          -2.45200526369105     -1.31484584665482     -3.52119601385007
  C          -4.12123291914860     -2.79961676564099     -2.32266216905021
  C           1.25079412471460      2.28464117917635      3.62120023628017
  C           2.84725633871687      0.47153034021920      4.40092846034683
  C           3.75587480291611      2.63262612615322      3.44696689745312
  H          -2.21245910818345     -3.45249516609565      0.71488912455475
  H           3.04017682242140      2.29828423289711      0.12956344866038
  H          -0.96499379829647     -3.66708701410633     -3.59573671336087
  H          -2.57925029350322     -3.98939087380778     -4.31296686197818
  H          -2.13634658465620     -4.72326944762479     -2.73604369294978
  H          -1.38523712368070     -1.13544153884279     -3.76179525210555
  H          -2.84568999103503     -0.41256684499130     -3.01234561271818
  H          -3.00310114140117     -1.44162274885531     -4.47701237999903
  H          -4.25919847005825     -3.70441466391692     -1.69885084157451
  H          -4.69977118470628     -2.93015498523195     -3.26108826090464
  H          -4.54136844455559     -1.93320135626643     -1.77354643590987
  H           0.42066452717596      1.55302802388004      3.57890999947298
  H           1.05660133572258      3.06893908673475      2.86272942824175
  H           1.24409347476281      2.76274328553130      4.62383851084700
  H           2.03821454561388     -0.28379811294448      4.35554075205379
  H           2.87201166254235      0.89170442829362      5.42857370090863
  H           3.81250142204805     -0.04141577434821      4.21591595725062
  H           3.59313937943775      3.46256897405684      2.72996017687554
  H           4.73299824811112      2.16229672818037      3.21904579256623
  H           3.80718411185351      3.06997002786597      4.46646199028061
  Si          2.55726704756195     -2.67122986110599     -0.10755493010012
  C           3.73093803206991     -1.93891371398392     -1.37542724693779
  C           3.34830137268675     -2.83891383161439      1.59678519341244
  C           1.83284670540221     -4.33688295717893     -0.63604304934504
  H           4.13399454880847     -0.98675360401482     -0.97757653932503
  H           3.23422551857137     -1.77208149600213     -2.35117038341434
  H           4.57415595157771     -2.64603214378009     -1.53132248117874
  H           2.62341082371512     -3.09496897254618      2.39494077266203
  H           3.86948400248087     -1.89462278338371      1.84985376059071
  H           4.08818968698055     -3.66731053271491      1.53201693792190
  H           1.03151708558585     -4.67796339798094      0.04982405506203
  H           2.64992659854388     -5.09083970219800     -0.61078571267001
  H           1.40396816299453     -4.29144442941697     -1.65402927646927
  H           0.78238977728083     -0.24487431687469     -0.99318214366495
  C          -0.07804823134239      2.50910162268466     -1.59904968076251
  C          -0.91980295385563      2.42782072084046     -0.55398883175447
  H           0.85392359584973      1.91531165728921     -1.65040993269524
  H          -0.25188537828328      3.18032464548771     -2.46071482771155
  Si         -2.56160934840817      3.36109554946292     -0.39922875087003
  H          -0.63659754861311      1.73925162012229      0.26687758509527
  C          -2.29072446879083      5.18358696894319     -0.85980391535382
  C          -3.18588672231543      3.21924540032074      1.38397134881397
  C          -3.81973183265163      2.56644493788624     -1.57588818407286
  H          -1.55488008029846      5.65518750083006     -0.17636773896138
  H          -3.23582213183370      5.76222785942892     -0.79766156325303
  H          -1.90090185675519      5.28481170307108     -1.89382307938850
  H          -2.45372096592973      3.63505708681107      2.10674423391641
  H          -3.35904932421667      2.15551254221263      1.64876634191938
  H          -4.14355761331365      3.76337746312182      1.52006051812907
  H          -3.46180236669422      2.61356379831674     -2.62513142428187
  H          -4.80675997327302      3.07131613521334     -1.52463349685893
  H          -3.95613339127709      1.49747843819481     -1.31052289880320
