69
Coordinates from ORCA-job my_molecule_MEP E -2464.517687869945
  Pt      1.054999     -1.312295     -0.375347
  O       1.380301      0.076250      1.055469
  O      -1.241021     -1.269702     -0.557483
  P       2.754910      0.911951      0.973614
  P      -1.143899     -2.295152     -1.727616
  O      -1.987680     -3.664343     -1.398887
  O       0.413479     -2.616709     -1.886564
  O       2.529702      1.972998     -0.294313
  O       4.046318      0.139283      0.774515
  C       2.707620      1.982449      2.491465
  C      -1.853998     -1.787496     -3.349096
  C      -1.534770     -2.890610     -4.379354
  C      -1.171974     -0.459817     -3.739338
  C      -3.375538     -1.596837     -3.195233
  C       1.415925      2.817499      2.526008
  C       2.794381      1.060225      3.723046
  C       3.947990      2.895635      2.418525
  H      -1.905189     -3.878950     -0.446961
  H       3.332730      1.908460     -0.848859
  H      -0.442694     -3.051509     -4.474174
  H      -1.927621     -2.585668     -5.371904
  H      -2.007261     -3.854423     -4.105053
  H      -0.074595     -0.580324     -3.837897
  H      -1.368953      0.338674     -2.996249
  H      -1.566979     -0.121864     -4.719874
  H      -3.876195     -2.541245     -2.906368
  H      -3.799581     -1.262410     -4.165183
  H      -3.615509     -0.826911     -2.435537
  H       0.518048      2.173342      2.598036
  H       1.309912      3.445520      1.619884
  H       1.433446      3.487985      3.411859
  H       1.908473      0.398587      3.792571
  H       2.836455      1.677211      4.645729
  H       3.702546      0.425661      3.692053
  H       3.898050      3.571737      1.541394
  H       4.879080      2.299306      2.345356
  H       4.002524      3.524385      3.332165
  Si      2.009614     -3.197283      0.700295
  C       3.081739     -4.112525     -0.553025
  C       2.987330     -2.654590      2.208904
  C       0.507998     -4.257016      1.180083
  H       4.001219     -3.540444     -0.788319
  H       2.517336     -4.285993     -1.490266
  H       3.383380     -5.095820     -0.132727
  H       2.330807     -2.202423      2.977784
  H       3.744018     -1.900983      1.908519
  H       3.493387     -3.540658      2.648728
  H      -0.218005     -3.685665      1.793107
  H       0.855098     -5.124355      1.782124
  H       0.006780     -4.650138      0.272853
  H       2.583782     -1.280171     -0.614360
  C      -0.603320      3.572210     -1.078257
  C      -1.189808      2.639347     -0.298406
  H       0.443974      3.465680     -1.412759
  H      -1.134498      4.485338     -1.403060
  Si     -2.942937      2.697511      0.399293
  H      -0.574192      1.761720     -0.017176
  C      -3.784733      4.332689     -0.066700
  C      -2.836926      2.536410      2.288767
  C      -3.927925      1.228196     -0.289741
  H      -3.228671      5.202407      0.340134
  H      -4.817398      4.373808      0.337643
  H      -3.850690      4.455860     -1.167590
  H      -2.268369      3.379804      2.731894
  H      -2.320619      1.595469      2.571512
  H      -3.845942      2.521651      2.751268
  H      -4.127647      1.365364     -1.372837
  H      -4.904072      1.111158      0.225456
  H      -3.344146      0.292548     -0.163538
69
Coordinates from ORCA-job my_molecule_MEP E -2464.510705130276
  Pt      0.882432     -1.159184     -0.252039
  O       1.262523      0.088371      1.292599
  O      -1.435230     -1.334153     -0.234620
  P       2.632779      0.931567      1.334452
  P      -1.327391     -2.372054     -1.391894
  O      -1.817784     -3.851013     -0.861693
  O       0.212573     -2.375816     -1.817462
  O       2.415334      2.176881      0.251934
  O       3.933575      0.214596      1.012739
  C       2.577262      1.752209      3.001595
  C      -2.347688     -2.203042     -2.917344
  C      -1.970123     -3.391667     -3.831572
  C      -1.978898     -0.865315     -3.588169
  C      -3.842788     -2.247810     -2.549831
  C       1.243434      2.498943      3.182383
  C       2.745358      0.660379      4.076048
  C       3.765379      2.734246      3.048684
  H      -1.607922     -3.940794      0.089760
  H       3.241867      2.230119     -0.267913
  H      -0.886943     -3.392398     -4.065044
  H      -2.529937     -3.308428     -4.786503
  H      -2.225897     -4.362798     -3.364499
  H      -0.902336     -0.827678     -3.845759
  H      -2.209508      0.000824     -2.936298
  H      -2.562909     -0.757828     -4.525882
  H      -4.108371     -3.195910     -2.042873
  H      -4.446744     -2.172361     -3.478444
  H      -4.128828     -1.403830     -1.890786
  H       0.385424      1.798895      3.173775
  H       1.083998      3.246065      2.379400
  H       1.247251      3.033458      4.156559
  H       1.907854     -0.064401      4.049569
  H       2.764744      1.129375      5.082753
  H       3.692904      0.101955      3.939396
  H       3.653216      3.536623      2.292420
  H       4.724394      2.210756      2.862151
  H       3.816939      3.211325      4.050128
  Si      2.369788     -2.961773      0.260922
  C       3.633824     -3.047279     -1.141483
  C       3.190581     -2.722647      1.933420
  C       1.295813     -4.524956      0.293418
  H       4.309301     -2.168732     -1.096967
  H       3.129110     -3.066850     -2.128130
  H       4.247964     -3.967642     -1.044665
  H       2.450396     -2.652823      2.754870
  H       3.809122     -1.803343      1.915278
  H       3.837531     -3.607826      2.118882
  H       0.557554     -4.495157      1.121679
  H       1.966230     -5.391677      0.481802
  H       0.769359     -4.684543     -0.665838
  H       2.327349     -0.860857     -0.697788
  C      -0.220666      3.142163     -1.416991
  C      -1.016395      2.593929     -0.470122
  H       0.810855      2.787448     -1.573889
  H      -0.556842      3.978361     -2.054882
  Si     -2.779534      3.148969     -0.088528
  H      -0.586250      1.768103      0.129240
  C      -2.990221      4.960873     -0.614768
  C      -3.093291      2.966161      1.773700
  C      -4.003046      2.044504     -1.035910
  H      -2.271758      5.609141     -0.071481
  H      -4.014534      5.329186     -0.400112
  H      -2.806700      5.093885     -1.701171
  H      -2.376607      3.573651      2.364112
  H      -2.977577      1.907726      2.087168
  H      -4.119899      3.290703      2.043780
  H      -3.857193      2.150081     -2.131064
  H      -5.057657      2.301302     -0.803210
  H      -3.836552      0.979812     -0.768993
69
Coordinates from ORCA-job my_molecule_MEP E -2464.502246763718
  Pt      0.726562     -1.092245     -0.126300
  O       1.219485      0.040320      1.476387
  O      -1.701776     -1.336996     -0.023861
  P       2.572457      0.908636      1.538588
  P      -1.526740     -2.384807     -1.155182
  O      -1.813117     -3.877175     -0.502893
  O      -0.025916     -2.245717     -1.680901
  O       2.286922      2.210594      0.544983
  O       3.879915      0.247931      1.141673
  C       2.550345      1.632220      3.253021
  C      -2.579428     -2.438738     -2.675518
  C      -2.086307     -3.659851     -3.489635
  C      -2.356767     -1.139527     -3.472909
  C      -4.058029     -2.609275     -2.284597
  C       1.207856      2.341948      3.504718
  C       2.769879      0.492184      4.265334
  C       3.719030      2.637000      3.322490
  H      -1.871005     -3.756853      0.466977
  H       3.108659      2.352252      0.034927
  H      -1.014822     -3.563439     -3.754088
  H      -2.669138     -3.727350     -4.432095
  H      -2.222892     -4.606176     -2.930636
  H      -1.289693     -1.009034     -3.738167
  H      -2.683535     -0.245012     -2.906312
  H      -2.944128     -1.183544     -4.414262
  H      -4.214737     -3.533473     -1.694631
  H      -4.675252     -2.681371     -3.205082
  H      -4.427485     -1.747176     -1.693937
  H       0.363036      1.626849      3.473107
  H       1.021656      3.128476      2.746449
  H       1.222181      2.822729      4.506279
  H       1.951715     -0.253295      4.219039
  H       2.798798      0.909560      5.294512
  H       3.729237     -0.032249      4.082684
  H       3.572297      3.475486      2.612537
  H       4.684917      2.146491      3.088313
  H       3.783617      3.063950      4.345706
  Si      2.477427     -2.747744      0.024905
  C       3.754421     -2.294737     -1.295129
  C       3.247632     -2.783238      1.740832
  C       1.685987     -4.422424     -0.361826
  H       4.246363     -1.341516     -1.013887
  H       3.286919     -2.190947     -2.295251
  H       4.528852     -3.088136     -1.357985
  H       2.504594     -2.948040      2.545296
  H       3.793037     -1.835748      1.916889
  H       3.967851     -3.631128      1.755204
  H       0.877378     -4.689173      0.346498
  H       2.483228     -5.193228     -0.277359
  H       1.267497     -4.444075     -1.384834
  H       1.999597     -0.594189     -0.806467
  C      -0.104415      2.726243     -1.575698
  C      -0.966626      2.461374     -0.569653
  H       0.864384      2.206066     -1.656678
  H      -0.315112      3.485562     -2.349621
  Si     -2.641219      3.304191     -0.335209
  H      -0.656198      1.697508      0.168992
  C      -2.482556      5.134548     -0.812756
  C      -3.167034      3.143402      1.478838
  C      -3.927685      2.450906     -1.443449
  H      -1.734859      5.638581     -0.166133
  H      -3.447603      5.671279     -0.704712
  H      -2.147908      5.251994     -1.864305
  H      -2.419503      3.604838      2.156783
  H      -3.266547      2.075462      1.764041
  H      -4.143963      3.637080      1.662604
  H      -3.626723      2.511818     -2.509768
  H      -4.931751      2.912893     -1.341879
  H      -4.013268      1.377255     -1.175001
69
Coordinates from ORCA-job my_molecule_MEP E -2464.487651054149
  Pt      0.664170     -1.209744      0.168929
  O       1.348597     -0.100212      1.690173
  O      -2.212240     -1.078743     -0.229790
  P       2.650638      0.852176      1.683922
  P      -1.766356     -2.283447     -1.046450
  O      -2.036928     -3.698777     -0.215551
  O      -0.191789     -2.276480     -1.371414
  O       2.248797      2.105048      0.670299
  O       3.986087      0.261344      1.275097
  C       2.610188      1.602736      3.382495
  C      -2.632083     -2.578312     -2.655302
  C      -2.037561     -3.812484     -3.359215
  C      -2.452005     -1.314846     -3.521196
  C      -4.121233     -2.799617     -2.322662
  C       1.250794      2.284641      3.621200
  C       2.847256      0.471530      4.400928
  C       3.755875      2.632626      3.446967
  H      -2.212459     -3.452495      0.714889
  H       3.040177      2.298284      0.129563
  H      -0.964994     -3.667087     -3.595737
  H      -2.579250     -3.989391     -4.312967
  H      -2.136347     -4.723269     -2.736044
  H      -1.385237     -1.135442     -3.761795
  H      -2.845690     -0.412567     -3.012346
  H      -3.003101     -1.441623     -4.477012
  H      -4.259198     -3.704415     -1.698851
  H      -4.699771     -2.930155     -3.261088
  H      -4.541368     -1.933201     -1.773546
  H       0.420665      1.553028      3.578910
  H       1.056601      3.068939      2.862729
  H       1.244093      2.762743      4.623839
  H       2.038215     -0.283798      4.355541
  H       2.872012      0.891704      5.428574
  H       3.812501     -0.041416      4.215916
  H       3.593139      3.462569      2.729960
  H       4.732998      2.162297      3.219046
  H       3.807184      3.069970      4.466462
  Si      2.557267     -2.671230     -0.107555
  C       3.730938     -1.938914     -1.375427
  C       3.348301     -2.838914      1.596785
  C       1.832847     -4.336883     -0.636043
  H       4.133995     -0.986754     -0.977577
  H       3.234226     -1.772081     -2.351170
  H       4.574156     -2.646032     -1.531322
  H       2.623411     -3.094969      2.394941
  H       3.869484     -1.894623      1.849854
  H       4.088190     -3.667311      1.532017
  H       1.031517     -4.677963      0.049824
  H       2.649927     -5.090840     -0.610786
  H       1.403968     -4.291444     -1.654029
  H       0.782390     -0.244874     -0.993182
  C      -0.078048      2.509102     -1.599050
  C      -0.919803      2.427821     -0.553989
  H       0.853924      1.915312     -1.650410
  H      -0.251885      3.180325     -2.460715
  Si     -2.561609      3.361096     -0.399229
  H      -0.636598      1.739252      0.266878
  C      -2.290724      5.183587     -0.859804
  C      -3.185887      3.219245      1.383971
  C      -3.819732      2.566445     -1.575888
  H      -1.554880      5.655188     -0.176368
  H      -3.235822      5.762228     -0.797662
  H      -1.900902      5.284812     -1.893823
  H      -2.453721      3.635057      2.106744
  H      -3.359049      2.155513      1.648766
  H      -4.143558      3.763377      1.520061
  H      -3.461802      2.613564     -2.625131
  H      -4.806760      3.071316     -1.524633
  H      -3.956133      1.497478     -1.310523
69
Coordinates from ORCA-job my_molecule_MEP E -2464.499018801545
  Pt      0.800964     -1.194209      0.186161
  O       1.406398     -0.110095      1.737512
  O      -2.071503     -0.846028     -0.524960
  P       2.677551      0.867936      1.709175
  P      -1.626951     -2.274451     -1.168347
  O      -2.128351     -3.443188     -0.153467
  O      -0.110074     -2.215401     -1.464286
  O       2.257707      2.142241      0.721525
  O       4.027797      0.315543      1.293657
  C       2.631412      1.609384      3.413059
  C      -2.624974     -2.604762     -2.677024
  C      -2.021781     -3.849257     -3.362534
  C      -2.476676     -1.356814     -3.572071
  C      -4.103283     -2.841898     -2.307121
  C       1.267893      2.281374      3.657770
  C       2.870354      0.472284      4.424397
  C       3.770431      2.643859      3.485648
  H      -1.793471     -3.335733      0.757179
  H       3.019173      2.291447      0.127352
  H      -0.953033     -3.697087     -3.609115
  H      -2.572226     -4.042520     -4.306275
  H      -2.108351     -4.751339     -2.724956
  H      -1.414879     -1.163453     -3.822057
  H      -2.889356     -0.452691     -3.082304
  H      -3.030958     -1.521042     -4.518323
  H      -4.230075     -3.743976     -1.678464
  H      -4.685229     -2.989047     -3.241156
  H      -4.542830     -1.976757     -1.771304
  H       0.442927      1.543936      3.605621
  H       1.071258      3.072882      2.907110
  H       1.254462      2.748701      4.665895
  H       2.063618     -0.284893      4.371176
  H       2.896482      0.884368      5.455713
  H       3.835329     -0.038836      4.232763
  H       3.604110      3.473000      2.768427
  H       4.747095      2.175623      3.251496
  H       3.822421      3.077936      4.506609
  Si      2.568607     -2.669501     -0.105026
  C       3.727479     -1.901835     -1.384529
  C       3.403142     -2.865500      1.571787
  C       1.858310     -4.329614     -0.689299
  H       4.117373     -0.949903     -0.970617
  H       3.212295     -1.707242     -2.346342
  H       4.582408     -2.585655     -1.574596
  H       2.671561     -3.121506      2.363826
  H       3.903520     -1.909739      1.827412
  H       4.157362     -3.677655      1.506449
  H       1.063269     -4.682449     -0.001051
  H       2.667654     -5.089187     -0.699928
  H       1.422233     -4.248268     -1.702970
  H      -1.196849     -0.289641     -0.581073
  C      -0.140859      2.308476     -1.514575
  C      -0.872869      2.421154     -0.522850
  H       0.662853      1.482577     -1.700632
  H      -0.106443      3.008046     -2.449136
  Si     -2.520624      3.404486     -0.386061
  H      -0.610018      1.792171      0.408122
  C      -2.224434      5.208508     -0.860874
  C      -3.206049      3.257332      1.367228
  C      -3.734273      2.592172     -1.607030
  H      -1.501683      5.676504     -0.162735
  H      -3.168700      5.788983     -0.824121
  H      -1.810002      5.292119     -1.885749
  H      -2.490795      3.663949      2.112151
  H      -3.396432      2.194669      1.627979
  H      -4.160858      3.809176      1.469140
  H      -3.342465      2.623783     -2.644965
  H      -4.716290      3.109205     -1.593958
  H      -3.901806      1.527348     -1.340457
69
Coordinates from ORCA-job my_molecule_MEP E -2464.491740501162
  Pt      0.797285     -1.136759      0.160688
  O       1.426065     -0.100769      1.740257
  O      -2.246639     -0.879889     -0.514626
  P       2.686861      0.883159      1.720523
  P      -1.654342     -2.250059     -1.173945
  O      -2.071777     -3.436012     -0.147104
  O      -0.149010     -2.085723     -1.492451
  O       2.266891      2.173878      0.743078
  O       4.042177      0.350032      1.296285
  C       2.639196      1.614471      3.428957
  C      -2.630080     -2.621671     -2.681503
  C      -2.016047     -3.864309     -3.358130
  C      -2.496922     -1.380576     -3.590964
  C      -4.104282     -2.868402     -2.302891
  C       1.274027      2.280646      3.680279
  C       2.880155      0.470275      4.431934
  C       3.776039      2.650416      3.508003
  H      -1.667582     -3.305041      0.738777
  H       3.028254      2.308705      0.144135
  H      -0.949519     -3.704611     -3.610971
  H      -2.567366     -4.069811     -4.298761
  H      -2.091734     -4.762626     -2.713932
  H      -1.437786     -1.180150     -3.847239
  H      -2.918268     -0.475389     -3.109899
  H      -3.054187     -1.559436     -4.532710
  H      -4.218276     -3.766190     -1.665404
  H      -4.689380     -3.027759     -3.232472
  H      -4.545643     -2.002646     -1.769912
  H       0.450748      1.541966      3.619958
  H       1.076529      3.081309      2.939429
  H       1.258641      2.738418      4.692762
  H       2.074526     -0.287701      4.373244
  H       2.906538      0.874630      5.466292
  H       3.845550     -0.038277      4.235607
  H       3.608239      3.482880      2.795013
  H       4.752778      2.184430      3.269949
  H       3.828178      3.078805      4.531345
  Si      2.549037     -2.638495     -0.111095
  C       3.712354     -1.866776     -1.390500
  C       3.408241     -2.858165      1.552474
  C       1.847316     -4.295893     -0.719541
  H       4.108572     -0.918882     -0.973160
  H       3.197590     -1.661863     -2.350639
  H       4.566016     -2.550621     -1.589129
  H       2.683306     -3.120996      2.347938
  H       3.908459     -1.903665      1.812985
  H       4.166515     -3.666544      1.478023
  H       1.057493     -4.666177     -0.034786
  H       2.659098     -5.053360     -0.749090
  H       1.408631     -4.200126     -1.731539
  H      -1.511624     -0.217018     -0.525627
  C      -0.112108      2.106951     -1.557977
  C      -0.878146      2.432266     -0.403000
  H      -0.460055      1.669178     -2.448296
  H       0.920704      2.316660     -1.627135
  Si     -2.540770      3.303440     -0.395341
  H      -0.275921      2.500761      0.495745
  C      -2.174786      5.128568     -0.847648
  C      -3.244845      3.242464      1.357703
  C      -3.728944      2.562850     -1.658336
  H      -1.456576      5.596141     -0.142311
  H      -3.106655      5.735135     -0.820707
  H      -1.743929      5.220419     -1.866579
  H      -2.517031      3.658775      2.084189
  H      -3.456265      2.194912      1.650083
  H      -4.184461      3.827684      1.442146
  H      -3.293870      2.602307     -2.678786
  H      -4.692693      3.108264     -1.672089
  H      -3.924491      1.501593     -1.401576
69
Coordinates from ORCA-job my_molecule_MEP E -2464.489293855639
  Pt      0.689935     -0.852901      0.007960
  O       1.406769      0.030869      1.675684
  O      -2.442689     -0.857727     -0.433695
  P       2.700317      0.958948      1.727862
  P      -1.794021     -2.075510     -1.115948
  O      -1.940560     -3.427598     -0.164152
  O      -0.272580     -1.852285     -1.523486
  O       2.307400      2.289526      0.774090
  O       4.046103      0.424779      1.296864
  C       2.651540      1.634400      3.459409
  C      -2.675885     -2.616356     -2.651728
  C      -2.013537     -3.858655     -3.277387
  C      -2.591484     -1.419130     -3.620691
  C      -4.142723     -2.907250     -2.276243
  C       1.280442      2.279615      3.730146
  C       2.902039      0.461894      4.427641
  C       3.781979      2.674166      3.566717
  H      -1.718621     -3.205912      0.757742
  H       3.099148      2.438200      0.220217
  H      -0.954133     -3.666784     -3.538793
  H      -2.552762     -4.129599     -4.210798
  H      -2.050595     -4.731063     -2.595806
  H      -1.538451     -1.197281     -3.886371
  H      -3.035752     -0.508586     -3.170599
  H      -3.146466     -1.650676     -4.553012
  H      -4.219943     -3.779703     -1.597908
  H      -4.726223     -3.127378     -3.194833
  H      -4.606208     -2.037461     -1.769247
  H       0.465829      1.532846      3.653704
  H       1.073191      3.094903      3.007606
  H       1.262210      2.714323      4.752233
  H       2.102268     -0.300930      4.350304
  H       2.924588      0.836472      5.473440
  H       3.871760     -0.032573      4.218442
  H       3.609717      3.522889      2.874245
  H       4.761204      2.219349      3.317870
  H       3.831209      3.077124      4.600254
  Si      2.464331     -2.438228     -0.219559
  C       3.677895     -1.699767     -1.460606
  C       3.322732     -2.735391      1.444258
  C       1.766311     -4.097153     -0.829874
  H       4.099027     -0.772175     -1.024107
  H       3.187665     -1.476595     -2.428447
  H       4.507474     -2.416997     -1.641345
  H       2.620180     -3.042741      2.243930
  H       3.857948     -1.814938      1.749585
  H       4.064740     -3.554323      1.307882
  H       1.002387     -4.503951     -0.137112
  H       2.600640     -4.831620     -0.884268
  H       1.303327     -4.004943     -1.830196
  H      -1.555974      0.686615     -0.219068
  C      -0.008457      1.562833     -1.284264
  C      -0.970663      1.747608     -0.252081
  H      -0.348818      1.196633     -2.268492
  H       1.003999      2.007013     -1.267791
  Si     -2.443989      3.116481     -0.451758
  H      -0.460469      2.129848      0.670569
  C      -1.896647      4.899223     -0.859747
  C      -3.251668      3.157055      1.253689
  C      -3.609933      2.483161     -1.778936
  H      -1.204524      5.330434     -0.108342
  H      -2.809036      5.542210     -0.854163
  H      -1.435628      5.008166     -1.861553
  H      -2.557892      3.562902      2.018242
  H      -3.563685      2.141954      1.565805
  H      -4.150790      3.810546      1.239221
  H      -3.136764      2.507060     -2.781463
  H      -4.527004      3.106361     -1.817494
  H      -3.891728      1.437775     -1.544245
69
Coordinates from ORCA-job my_molecule_MEP E -2464.526739154869
  Pt      0.582288     -0.720166      0.024210
  O       1.392651      0.096413      1.682190
  O      -2.645160     -0.936566     -0.316851
  P       2.684562      1.026311      1.762238
  P      -1.907045     -2.068275     -1.034814
  O      -1.881672     -3.444972     -0.122098
  O      -0.405958     -1.730197     -1.468563
  O       2.292398      2.380685      0.855475
  O       4.033490      0.500647      1.303798
  C       2.642069      1.630999      3.514562
  C      -2.747137     -2.661065     -2.575265
  C      -2.028307     -3.888004     -3.161768
  C      -2.718223     -1.493196     -3.581481
  C      -4.199314     -3.001051     -2.186589
  C       1.262614      2.243657      3.815257
  C       2.915815      0.423947      4.431014
  C       3.758477      2.681593      3.656661
  H      -1.870307     -3.188748      0.851890
  H       3.095961      2.574266      0.332631
  H      -0.982868     -3.650007     -3.439581
  H      -2.557623     -4.221740     -4.079909
  H      -2.014493     -4.731791     -2.445349
  H      -1.679432     -1.238903     -3.870004
  H      -3.196324     -0.586106     -3.161622
  H      -3.273200     -1.779939     -4.499078
  H      -4.235917     -3.848429     -1.474200
  H      -4.773897     -3.282431     -3.093589
  H      -4.696185     -2.132914     -1.710248
  H       0.460480      1.486208      3.718653
  H       1.035477      3.079015      3.122740
  H       1.245061      2.642239      4.851749
  H       2.126765     -0.346333      4.324362
  H       2.938120      0.754583      5.490938
  H       3.892124     -0.044498      4.195020
  H       3.571369      3.554360      2.999189
  H       4.743439      2.250670      3.388225
  H       3.806353      3.044235      4.704706
  Si      2.419447     -2.254520     -0.347116
  C       3.615774     -1.433577     -1.539668
  C       3.284138     -2.631393      1.294218
  C       1.725725     -3.873600     -1.038674
  H       4.041306     -0.533070     -1.055027
  H       3.132707     -1.168487     -2.499624
  H       4.440168     -2.150372     -1.743394
  H       2.591316     -2.995074      2.077533
  H       3.816828     -1.727132      1.646522
  H       4.030174     -3.434634      1.097877
  H       0.990358     -4.331637     -0.348225
  H       2.575396     -4.580651     -1.161594
  H       1.229267     -3.725076     -2.014581
  H      -1.667855      0.704161     -0.049567
  C       0.074608      1.256585     -1.078293
  C      -0.983077      1.615501     -0.135914
  H      -0.252706      0.961182     -2.093809
  H       1.019069      1.826097     -1.048765
  Si     -2.307594      3.011596     -0.529057
  H      -0.553921      1.977905      0.822428
  C      -1.563777      4.709638     -0.893285
  C      -3.270205      3.161667      1.082894
  C      -3.411231      2.441057     -1.939274
  H      -0.879352      5.038404     -0.086652
  H      -2.392251      5.448943     -0.938212
  H      -1.027055      4.746589     -1.860075
  H      -2.615086      3.527094      1.899623
  H      -3.686800      2.179126      1.373351
  H      -4.104432      3.884175      0.973331
  H      -2.871060      2.408337     -2.906010
  H      -4.266012      3.138636     -2.046642
  H      -3.800315      1.428039     -1.718818
69
Coordinates from ORCA-job my_molecule_MEP E -2464.548131272030
  Pt      0.406792     -0.858769      0.194102
  O       1.250555      0.014802      1.801132
  O      -2.869686     -1.287788      0.217566
  P       2.424654      1.077911      1.998944
  P      -2.087886     -2.328979     -0.565629
  O      -1.682686     -3.607839      0.430308
  O      -0.689696     -1.873706     -1.205973
  O       1.818666      2.497673      1.346841
  O       3.795804      0.792928      1.416648
  C       2.425743      1.371346      3.834872
  C      -3.012478     -3.104951     -1.975177
  C      -2.175266     -4.233310     -2.602045
  C      -3.307383     -1.997061     -3.005533
  C      -4.328020     -3.656642     -1.390751
  C       1.023068      1.790822      4.308074
  C       2.868639      0.062252      4.517028
  C       3.452317      2.488980      4.106077
  H      -2.176671     -3.476641      1.264196
  H       2.566333      2.929579      0.887990
  H      -1.228708     -3.846060     -3.027450
  H      -2.750089     -4.717873     -3.420154
  H      -1.923400     -5.009065     -1.851934
  H      -2.372258     -1.593706     -3.441985
  H      -3.863319     -1.157465     -2.541259
  H      -3.926382     -2.407041     -3.831640
  H      -4.133581     -4.456338     -0.647750
  H      -4.948501     -4.089387     -2.203695
  H      -4.910106     -2.855640     -0.893173
  H       0.277359      0.995667      4.112689
  H       0.686600      2.714079      3.795479
  H       1.040313      1.990904      5.400759
  H       2.146752     -0.756238      4.326303
  H       2.935077      0.215682      5.615177
  H       3.864484     -0.262262      4.154053
  H       3.147180      3.441053      3.626191
  H       4.454096      2.212123      3.721946
  H       3.531797      2.669490      5.198822
  Si      2.379077     -1.666706     -0.882930
  C       3.260274     -0.205902     -1.686947
  C       3.406862     -2.416669      0.511856
  C       1.915517     -2.971844     -2.165414
  H       3.597232      0.492950     -0.894843
  H       2.624472      0.318856     -2.427465
  H       4.156525     -0.592311     -2.219164
  H       2.832788     -3.140238      1.124453
  H       3.794171     -1.600426      1.153595
  H       4.264360     -2.959370      0.057392
  H       1.369923     -3.818828     -1.706542
  H       2.855468     -3.357251     -2.617218
  H       1.280808     -2.550190     -2.968050
  H      -2.057953      0.830737     -0.056778
  C      -0.035874      0.872209     -0.845121
  C      -1.178291      1.510648     -0.122071
  H      -0.277002      0.509848     -1.864238
  H       0.901029      1.459722     -0.819049
  Si     -1.784146      3.132822     -0.977464
  H      -0.880441      1.819909      0.902005
  C      -0.334226      4.349309     -1.078945
  C      -3.162974      3.835735      0.111800
  C      -2.446692      2.735346     -2.707547
  H       0.161154      4.437766     -0.090058
  H      -0.673753      5.358655     -1.390768
  H       0.428132      4.010365     -1.810589
  H      -2.789484      4.070955      1.129535
  H      -3.998467      3.113422      0.214657
  H      -3.571301      4.771046     -0.324742
  H      -1.650860      2.335914     -3.369452
  H      -2.858487      3.645292     -3.191611
  H      -3.257953      1.979699     -2.659334
