69
Coordinates from ORCA-job my_molecule_im2 E -2464.502246763718
  Pt          0.72656223321911     -1.09224535716437     -0.12630033148201
  O           1.21948508275389      0.04032029175117      1.47638709808294
  O          -1.70177557114242     -1.33699604296331     -0.02386077657693
  P           2.57245739491968      0.90863576897597      1.53858838306901
  P          -1.52673956591069     -2.38480668197378     -1.15518186545872
  O          -1.81311724568170     -3.87717503940823     -0.50289294000900
  O          -0.02591559809785     -2.24571701878018     -1.68090124753291
  O           2.28692150252635      2.21059379817830      0.54498339248442
  O           3.87991526987993      0.24793118506477      1.14167257517028
  C           2.55034483626956      1.63221995587410      3.25302092554501
  C          -2.57942763759353     -2.43873811016846     -2.67551839030044
  C          -2.08630664039084     -3.65985124549524     -3.48963452065155
  C          -2.35676740808496     -1.13952687119535     -3.47290935167500
  C          -4.05802866264065     -2.60927509431391     -2.28459746632485
  C           1.20785584619143      2.34194821502410      3.50471842309511
  C           2.76987902159042      0.49218394090689      4.26533424707073
  C           3.71902957948625      2.63700043408094      3.32249018330799
  H          -1.87100492793187     -3.75685347164963      0.46697659365135
  H           3.10865882134915      2.35225245846081      0.03492735855825
  H          -1.01482171744071     -3.56343940191046     -3.75408761812087
  H          -2.66913751581515     -3.72734966129138     -4.43209457976694
  H          -2.22289214905499     -4.60617635983786     -2.93063571926368
  H          -1.28969253880736     -1.00903435397103     -3.73816676559922
  H          -2.68353472124695     -0.24501242284180     -2.90631202850480
  H          -2.94412786332226     -1.18354376113983     -4.41426238356853
  H          -4.21473652631017     -3.53347338368844     -1.69463139156916
  H          -4.67525180973044     -2.68137085555655     -3.20508192962067
  H          -4.42748470947135     -1.74717578640421     -1.69393689201780
  H           0.36303635774926      1.62684893811618      3.47310689920264
  H           1.02165591001656      3.12847602281342      2.74644936213740
  H           1.22218128252451      2.82272933995978      4.50627861352451
  H           1.95171538710566     -0.25329538046416      4.21903907854076
  H           2.79879847151943      0.90956041875371      5.29451168098617
  H           3.72923739061247     -0.03224913902121      4.08268440150040
  H           3.57229714537139      3.47548550607226      2.61253689235691
  H           4.68491658693706      2.14649075906327      3.08831312686000
  H           3.78361748866874      3.06395025338826      4.34570603716693
  Si          2.47742742168703     -2.74774432293267      0.02490451673045
  C           3.75442079799501     -2.29473655559803     -1.29512915392211
  C           3.24763230056856     -2.78323780321013      1.74083224698981
  C           1.68598730273780     -4.42242364085778     -0.36182607644695
  H           4.24636286109688     -1.34151649685710     -1.01388665258961
  H           3.28691901318464     -2.19094706045250     -2.29525076522710
  H           4.52885193085161     -3.08813599243250     -1.35798451494161
  H           2.50459385629934     -2.94804034281929      2.54529559571148
  H           3.79303745199363     -1.83574833327012      1.91688917443224
  H           3.96785108250511     -3.63112751129400      1.75520378978232
  H           0.87737778676182     -4.68917305073940      0.34649761919099
  H           2.48322816626756     -5.19322811622181     -0.27735946431821
  H           1.26749699911392     -4.44407456149835     -1.38483405419955
  H           1.99959749473499     -0.59418944096890     -0.80646655987671
  C          -0.10441527429392      2.72624287808440     -1.57569847966264
  C          -0.96662569810167      2.46137441211755     -0.56965276915472
  H           0.86438439554826      2.20606571872656     -1.65667810822400
  H          -0.31511207490935      3.48556239001727     -2.34962134727970
  Si         -2.64121893289690      3.30419136871700     -0.33520903727198
  H          -0.65619765889278      1.69750762661510      0.16899192300681
  C          -2.48255637670854      5.13454842420095     -0.81275559411177
  C          -3.16703448031418      3.14340194838695      1.47883756951700
  C          -3.92768486153781      2.45090571760999     -1.44344942160769
  H          -1.73485873590604      5.63858081723355     -0.16613316477381
  H          -3.44760347349770      5.67127904082626     -0.70471160860153
  H          -2.14790837005551      5.25199440181962     -1.86430526708620
  H          -2.41950344635736      3.60483791169768      2.15678338953959
  H          -3.26654717599393      2.07546232591946      1.76404124490165
  H          -4.14396270057768      3.63707987172993      1.66260352932903
  H          -3.62672333974907      2.51181816864093     -2.50976764755583
  H          -4.93175083858110      2.91289300921816     -1.34187888639833
  H          -4.01326822298958      1.37725535034664     -1.17500110014906
