69
Coordinates from ORCA-job my_molecule_im7 E -2464.526739154869
  Pt          0.58228786726048     -0.72016638055131      0.02421002786779
  O           1.39265071579448      0.09641277637674      1.68219007020659
  O          -2.64516041173334     -0.93656572687242     -0.31685092805383
  P           2.68456183412787      1.02631094677513      1.76223757223950
  P          -1.90704501195860     -2.06827544242300     -1.03481376791706
  O          -1.88167226201191     -3.44497151934224     -0.12209774305558
  O          -0.40595782541511     -1.73019746686640     -1.46856331893246
  O           2.29239794149124      2.38068538033356      0.85547544739943
  O           4.03348979131104      0.50064670194929      1.30379825885844
  C           2.64206886359215      1.63099851892231      3.51456188689726
  C          -2.74713724050747     -2.66106536309972     -2.57526504977387
  C          -2.02830735522010     -3.88800426990078     -3.16176807904626
  C          -2.71822267831937     -1.49319605837132     -3.58148144568370
  C          -4.19931437542477     -3.00105139464481     -2.18658944862616
  C           1.26261428321977      2.24365678744680      3.81525681992897
  C           2.91581501503890      0.42394681685780      4.43101361303184
  C           3.75847683788955      2.68159302755653      3.65666057725013
  H          -1.87030654995405     -3.18874849548246      0.85188988724897
  H           3.09596070268060      2.57426584268448      0.33263126093151
  H          -0.98286752350025     -3.65000683224002     -3.43958075152763
  H          -2.55762309161868     -4.22173951245397     -4.07990860424636
  H          -2.01449329859866     -4.73179137841907     -2.44534851225642
  H          -1.67943200736334     -1.23890281573004     -3.87000396416645
  H          -3.19632447844654     -0.58610625392641     -3.16162159382282
  H          -3.27319983694343     -1.77993949866530     -4.49907792117196
  H          -4.23591670067490     -3.84842912066144     -1.47420015180392
  H          -4.77389716415822     -3.28243064730129     -3.09358870796225
  H          -4.69618546180992     -2.13291423305648     -1.71024835494184
  H           0.46048022300175      1.48620753899512      3.71865285760079
  H           1.03547706993071      3.07901478270387      3.12273950058085
  H           1.24506092396195      2.64223850173893      4.85174865414483
  H           2.12676464447962     -0.34633324966822      4.32436237108438
  H           2.93812000944889      0.75458336753906      5.49093752935501
  H           3.89212405011414     -0.04449772849494      4.19501951785390
  H           3.57136938567242      3.55435977866696      2.99918875185670
  H           4.74343924668414      2.25066968104020      3.38822512331144
  H           3.80635264235758      3.04423509763145      4.70470573097379
  Si          2.41944702096516     -2.25451950525474     -0.34711579036781
  C           3.61577373014117     -1.43357697242102     -1.53966778376629
  C           3.28413815539167     -2.63139261322805      1.29421766866000
  C           1.72572458753263     -3.87360004414829     -1.03867373913990
  H           4.04130599233369     -0.53306951926606     -1.05502684886914
  H           3.13270686030291     -1.16848708486040     -2.49962405848653
  H           4.44016790035651     -2.15037157164159     -1.74339354198215
  H           2.59131577378120     -2.99507448785834      2.07753290677048
  H           3.81682844646453     -1.72713239030793      1.64652203184879
  H           4.03017388093744     -3.43463433182525      1.09787697081409
  H           0.99035839945640     -4.33163694545593     -0.34822520524573
  H           2.57539553062184     -4.58065119519674     -1.16159395440650
  H           1.22926697252523     -3.72507620955558     -2.01458134343151
  H          -1.66785462123305      0.70416089000380     -0.04956681091895
  C           0.07460767254363      1.25658469869582     -1.07829251477974
  C          -0.98307686744006      1.61550108673563     -0.13591401174901
  H          -0.25270589660550      0.96118155654958     -2.09380896096490
  H           1.01906935357411      1.82609734488035     -1.04876539081223
  Si         -2.30759395027952      3.01159567464319     -0.52905737375882
  H          -0.55392136128039      1.97790495142426      0.82242836774625
  C          -1.56377672294848      4.70963758570653     -0.89328469933403
  C          -3.27020530042525      3.16166737014171      1.08289408937741
  C          -3.41123108510252      2.44105680591996     -1.93927421872723
  H          -0.87935194818162      5.03840395094606     -0.08665201481435
  H          -2.39225085743607      5.44894275350674     -0.93821197713571
  H          -1.02705495011097      4.74658916739547     -1.86007511477321
  H          -2.61508632920316      3.52709394318956      1.89962340197773
  H          -3.68679982442905      2.17912641657024      1.37335138136025
  H          -4.10443235347463      3.88417492134017      0.97333111680243
  H          -2.87105991420278      2.40833658807588     -2.90601006285766
  H          -4.26601204836418      3.13863637716590     -2.04664175178738
  H          -3.80031502060951      1.42803862908249     -1.71881788288220
