69
Coordinates from ORCA-job my_molecule_im4 E -2464.499018801545
  Pt          0.80096396575825     -1.19420897433968      0.18616050416157
  O           1.40639822837019     -0.11009521539864      1.73751202700540
  O          -2.07150340399774     -0.84602799166109     -0.52495972843113
  P           2.67755093344159      0.86793617593275      1.70917505805150
  P          -1.62695093692623     -2.27445115539097     -1.16834700553335
  O          -2.12835051287711     -3.44318819397227     -0.15346715130680
  O          -0.11007384032301     -2.21540085557045     -1.46428636747144
  O           2.25770727067056      2.14224066114544      0.72152451703039
  O           4.02779701202054      0.31554250918416      1.29365661608196
  C           2.63141224244856      1.60938419405858      3.41305899959865
  C          -2.62497402444572     -2.60476179919238     -2.67702372559928
  C          -2.02178076970757     -3.84925720721787     -3.36253412072714
  C          -2.47667619255629     -1.35681396164224     -3.57207067167470
  C          -4.10328273733305     -2.84189776234513     -2.30712077834517
  C           1.26789289115589      2.28137388394872      3.65776957884075
  C           2.87035409020300      0.47228406196350      4.42439744225494
  C           3.77043052808343      2.64385852274375      3.48564806340403
  H          -1.79347095800963     -3.33573305473965      0.75717933929179
  H           3.01917282082975      2.29144671226415      0.12735190216642
  H          -0.95303254104738     -3.69708668202647     -3.60911457125339
  H          -2.57222569163346     -4.04251958688706     -4.30627518505780
  H          -2.10835137053306     -4.75133893843988     -2.72495553742534
  H          -1.41487864054348     -1.16345268605764     -3.82205684805339
  H          -2.88935622641352     -0.45269065789019     -3.08230402058888
  H          -3.03095772811977     -1.52104174393376     -4.51832323422251
  H          -4.23007514584299     -3.74397581335735     -1.67846427018596
  H          -4.68522876371382     -2.98904730189541     -3.24115553682373
  H          -4.54283040801098     -1.97675674597071     -1.77130444803883
  H           0.44292749182206      1.54393565553492      3.60562111688970
  H           1.07125785448053      3.07288193643845      2.90710995192976
  H           1.25446179451317      2.74870129382754      4.66589464698749
  H           2.06361800852490     -0.28489258392021      4.37117565746382
  H           2.89648246487338      0.88436807674713      5.45571332082875
  H           3.83532920658523     -0.03883597029914      4.23276337568042
  H           3.60410954884101      3.47299977577500      2.76842656539891
  H           4.74709456166835      2.17562327531503      3.25149624087091
  H           3.82242060115848      3.07793600064984      4.50660852042726
  Si          2.56860721338548     -2.66950094188760     -0.10502617004940
  C           3.72747882872800     -1.90183484741140     -1.38452869456324
  C           3.40314238198530     -2.86550042929967      1.57178738116821
  C           1.85831022938451     -4.32961422714938     -0.68929864031242
  H           4.11737327586822     -0.94990323782494     -0.97061661522633
  H           3.21229513857717     -1.70724222862655     -2.34634188128096
  H           4.58240842797763     -2.58565461800636     -1.57459607530025
  H           2.67156086851336     -3.12150637477222      2.36382605236287
  H           3.90351953945957     -1.90973946466253      1.82741155960957
  H           4.15736187392881     -3.67765460304805      1.50644859208664
  H           1.06326859472799     -4.68244898805091     -0.00105086089609
  H           2.66765402699093     -5.08918679555668     -0.69992839332619
  H           1.42223265484559     -4.24826796420621     -1.70296957845533
  H          -1.19684854211001     -0.28964083223774     -0.58107339911082
  C          -0.14085867505790      2.30847604219526     -1.51457503184625
  C          -0.87286853147358      2.42115350848743     -0.52285035394750
  H           0.66285347083164      1.48257738930863     -1.70063233140047
  H          -0.10644287999314      3.00804640106998     -2.44913589550379
  Si         -2.52062406745823      3.40448600102804     -0.38606108218353
  H          -0.61001844042504      1.79217055201887      0.40812233534551
  C          -2.22443411993274      5.20850844672795     -0.86087366492933
  C          -3.20604940647363      3.25733246167724      1.36722803434986
  C          -3.73427302404173      2.59217189749173     -1.60703008693329
  H          -1.50168270285946      5.67650383609242     -0.16273470445202
  H          -3.16870001556534      5.78898277339915     -0.82412074961112
  H          -1.81000225468354      5.29211897398451     -1.88574928115828
  H          -2.49079527079105      3.66394931891113      2.11215068703406
  H          -3.39643199620391      2.19466908787490      1.62797871788272
  H          -4.16085760369563      3.80917557663971      1.46913990328504
  H          -3.34246501639826      2.62378288296466     -2.64496513416521
  H          -4.71628987624904      3.10920463732607     -1.59395790599809
  H          -3.90180572520599      1.52734791216180     -1.34045697610016
