69
Coordinates from ORCA-job my_molecule_im1 E -2464.510705130276
  Pt          0.88243177621305     -1.15918424328219     -0.25203910539340
  O           1.26252318675711      0.08837129355677      1.29259873138140
  O          -1.43523010656410     -1.33415259135603     -0.23461967245777
  P           2.63277885849894      0.93156695533820      1.33445236350370
  P          -1.32739129259323     -2.37205402780661     -1.39189433140296
  O          -1.81778418953660     -3.85101309336253     -0.86169346989617
  O           0.21257253998570     -2.37581574705471     -1.81746216607682
  O           2.41533360241522      2.17688051265453      0.25193388275565
  O           3.93357468373743      0.21459607966739      1.01273895377150
  C           2.57726177214770      1.75220864091029      3.00159512693414
  C          -2.34768791129613     -2.20304224675718     -2.91734405445622
  C          -1.97012282567566     -3.39166711485856     -3.83157213788577
  C          -1.97889828250047     -0.86531517443012     -3.58816913181568
  C          -3.84278823396339     -2.24780994762814     -2.54983079432982
  C           1.24343356485941      2.49894336890847      3.18238317102027
  C           2.74535769347887      0.66037897473630      4.07604785295961
  C           3.76537913022141      2.73424648291914      3.04868437911987
  H          -1.60792236446478     -3.94079445937578      0.08975951846054
  H           3.24186733136419      2.23011869061740     -0.26791317365163
  H          -0.88694265322611     -3.39239844356730     -4.06504429778185
  H          -2.52993680468092     -3.30842771830261     -4.78650300641351
  H          -2.22589692981267     -4.36279803169329     -3.36449913504695
  H          -0.90233598309394     -0.82767770304305     -3.84575948133687
  H          -2.20950779648877      0.00082424306593     -2.93629838695521
  H          -2.56290857934833     -0.75782773085878     -4.52588190832154
  H          -4.10837058575685     -3.19590974780579     -2.04287259139787
  H          -4.44674431102274     -2.17236088925078     -3.47844386022304
  H          -4.12882834403069     -1.40383000414417     -1.89078591968340
  H           0.38542441560492      1.79889466871524      3.17377475357858
  H           1.08399827414049      3.24606476667103      2.37940021249530
  H           1.24725113976389      3.03345807379311      4.15655860101691
  H           1.90785416353207     -0.06440062391140      4.04956936208412
  H           2.76474448427742      1.12937493120713      5.08275305952966
  H           3.69290422583758      0.10195504168392      3.93939589982203
  H           3.65321552708028      3.53662275274581      2.29242002478092
  H           4.72439378590784      2.21075575888725      2.86215124299684
  H           3.81693902247789      3.21132512891305      4.05012832449554
  Si          2.36978846911398     -2.96177263026941      0.26092243268779
  C           3.63382449245579     -3.04727870696723     -1.14148348019613
  C           3.19058072695445     -2.72264729089167      1.93342049316533
  C           1.29581275739394     -4.52495590178462      0.29341816285867
  H           4.30930135252712     -2.16873156954570     -1.09696705302706
  H           3.12911017592900     -3.06685042004049     -2.12813044777321
  H           4.24796408018678     -3.96764239890036     -1.04466508908004
  H           2.45039586254460     -2.65282337968608      2.75486984263369
  H           3.80912195522564     -1.80334332542503      1.91527826497440
  H           3.83753149012477     -3.60782601416813      2.11888170602283
  H           0.55755435010828     -4.49515746830759      1.12167945755405
  H           1.96622987292847     -5.39167719964825      0.48180152992076
  H           0.76935911595486     -4.68454328198911     -0.66583770673951
  H           2.32734893202211     -0.86085689189511     -0.69778765287818
  C          -0.22066572030870      3.14216318393045     -1.41699052965145
  C          -1.01639497398140      2.59392897911990     -0.47012220064963
  H           0.81085510878183      2.78744847868464     -1.57388924303296
  H          -0.55684208367433      3.97836076822964     -2.05488192278979
  Si         -2.77953366380746      3.14896935619673     -0.08852826951332
  H          -0.58624950746710      1.76810288481864      0.12924047946929
  C          -2.99022132018301      4.96087258096313     -0.61476754116849
  C          -3.09329131189809      2.96616074914550      1.77370033609245
  C          -4.00304554139259      2.04450416758592     -1.03590974039041
  H          -2.27175787897800      5.60914057261002     -0.07148083321460
  H          -4.01453373560424      5.32918615930999     -0.40011171520417
  H          -2.80670038506466      5.09388513274738     -1.70117092386391
  H          -2.37660692155100      3.57365124315063      2.36411238922414
  H          -2.97757651405317      1.90772626275891      2.08716754431502
  H          -4.11989876734717      3.29070349015644      2.04377950003126
  H          -3.85719342908400      2.15008141238584     -2.13106354076778
  H          -5.05765731974917      2.30130202949011     -0.80320961178175
  H          -3.83655165235356      0.97981220173298     -0.76899347340739
