
                                 *****************
                                 * O   R   C   A *
                                 *****************

                                            #,                                       
                                            ###                                      
                                            ####                                     
                                            #####                                    
                                            ######                                   
                                           ########,                                 
                                     ,,################,,,,,                         
                               ,,#################################,,                 
                          ,,##########################################,,             
                       ,#########################################, ''#####,          
                    ,#############################################,,   '####,        
                  ,##################################################,,,,####,       
                ,###########''''           ''''###############################       
              ,#####''   ,,,,##########,,,,          '''####'''          '####       
            ,##' ,,,,###########################,,,                        '##       
           ' ,,###''''                  '''############,,,                           
         ,,##''                                '''############,,,,        ,,,,,,###''
      ,#''                                            '''#######################'''  
     '                                                          ''''####''''         
             ,#######,   #######,   ,#######,      ##                                
            ,#'     '#,  ##    ##  ,#'     '#,    #''#        ,####,    ,#,          
            ##       ##  ##   ,#'  ##            #'  '#       #'       ,# #          
            ##       ##  #######   ##           ,######,      #####,      #          
            '#,     ,#'  ##    ##  '#,     ,#' ,#      #,     #,   #      #          
             '#######'   ##     ##  '#######'  #'      '#     '####' #    #          



                #########################################################
                #                        -***-                          #
                #          Department of theory and spectroscopy        #
                #                                                       #
                #                      Frank Neese                      #
                #                                                       #
                #     Directorship, Architecture, Infrastructure        #
                #                    SHARK, DRIVERS                     #
                #        Core code/Algorithms in most modules           #
                #                                                       #
                #        Max Planck Institute fuer Kohlenforschung      #
                #                Kaiser Wilhelm Platz 1                 #
                #                 D-45470 Muelheim/Ruhr                 #
                #                      Germany                          #
                #                                                       #
                #                  All rights reserved                  #
                #                        -***-                          #
                #########################################################


                         Program Version 6.1.1  -  RELEASE   -
                                (GIT: $487d211c$)
                          ($2025-11-21 10:33:24 +0100$)


 With contributions from (in alphabetic order):
[Max-Planck-Institut fuer Kohlenforschung]                               
  Daniel Aravena         : Magnetic Suceptibility                        
  Michael Atanasov       : Ab Initio Ligand Field Theory (pilot matlab implementation)
  Alexander A. Auer      : GIAO ZORA, VPT2 properties, NMR spectrum      
  Ute Becker             : All parallelization in ORCA, NUMFREQ, NUMCALC 
  Giovanni Bistoni       : ED, misc. LED, open-shell LED, HFLD           
  Dmytro Bykov           : pre 5.0 version of the SCF Hessian            
  Marcos Casanova-Páez   : Triplet and SCS-CIS(D). UHF-(DLPNO)-IP/EA/STEOM-CCSD. UHF-CVS-IP/STEOM-CCSD   
  Vijay G. Chilkuri      : MRCI spin determinant printing, contributions to CSF-ICE 
  Pauline Colinet        : FMM embedding                                 
  Dipayan Datta          : RHF DLPNO-CCSD density                        
  Achintya Kumar Dutta   : EOM-CC, STEOM-CC                              
  Nicolas Foglia         : Exact transition moments, OPA infrastructure, MCD improvements    
  Dmitry Ganyushin       : Spin-Orbit,Spin-Spin,Magnetic field MRCI      
  Miquel Garcia-Rates    : C-PCM and meta-GGA Hessian, CCSD/C-PCM, Gaussian charge scheme 
  Tiago L. C. Gouveia    : GS-ROHF, GS-ROCIS                             
  Yang Guo               : DLPNO-NEVPT2, F12-NEVPT2, CIM, IAO-localization        
  Andreas Hansen         : Spin unrestricted coupled pair/coupled cluster methods 
  Ingolf Harden          : AUTO-CI MPn and infrastructure                
  Benjamin Helmich-Paris : MC-RPA, TRAH-(SCF,CASSCF), AVAS, COSX integrals, SCF dyn. polar., MC-PDFT, srDFT 
  Lee Huntington         : MR-EOM, pCC                                   
  Robert Izsak           : Overlap fitted RIJCOSX, COSX-SCS-MP3, EOM     
  Riya Kayal             : Wick's Theorem for AUTO-CI, AUTO-CI UHF-CCSDT 
  Emily Kempfer          : AUTO-CI RHF CISDT and CCSDT, approximate NEVPT4
  Christian Kollmar      : KDIIS, OOCD, Brueckner-CCSD(T), CCSD density, CASPT2, CASPT2-K, improved NEVPT2 
  Axel Koslowski         : Symmetry handling                             
  Simone Kossmann        : meta-GGA functionals, TD-DFT gradient, OOMP2, (MP2 Hessian; deprecated post 5.0) 
  Lucas Lang             : DCDCAS, Hyperfine gauge corrections, ICE-SOC+SSC
  Marvin Lechner         : AUTO-CI (C++ implementation), FIC-MRCC        
  Spencer Leger          : CASSCF response                               
  Dagmar Lenk            : GEPOL surface, SMD, ORCA-2-JSON               
  Dimitrios Liakos       : Extrapolation schemes; Compound Job, Property file
  Dimitrios Manganas     : Further ROCIS development; embedding schemes. LFT, Crystal Embedding 
  Dimitrios Pantazis     : SARC Basis sets                               
  Anastasios Papadopoulos: AUTO-CI, single reference methods and gradients 
  Taras Petrenko         : pre 6.0 DFT Hessian and TD-DFT gradient,  ECA, NRVS 
  Petra Pikulova         : Analytic Raman intensities                    
  Peter Pinski           : DLPNO-MP2, DLPNO-MP2 Gradient                 
  Shashank Vittal Rao    : ES-AILFT, MagRelax                            
  Christoph Reimann      : Effective Core Potentials                     
  Marius Retegan         : Local ZFS, SOC                                
  Christoph Riplinger    : Optimizer, TS searches, QM/MM, DLPNO-CCSD(T), (RO)-DLPNO pert. Triples 
  Michael Roemelt        : Original ROCIS implementation, recursive CI coupling coefficients
  Masaaki Saitow         : Open-shell DLPNO-CCSD energy and density      
  Barbara Sandhoefer     : DKH picture change effects                    
  Yorick L. A. Schmerwitz: GMF and freeze-and-release deltaSCF, NEB S-IDPP initial path                    
  Kantharuban Sivalingam : CASSCF convergence/infrastructure, NEVPT2, NEVPT3, NEVPT4(SD), FIC-MRCI and CEPA variants
  Bernardo de Souza      : ESD, SOC TD-DFT                               
  Georgi L. Stoychev     : AutoAux, RI-MP2 NMR, DLPNO-MP2 response, X2C  
  Van Anh Tran           : RI-MP2 g-tensors                              
  Willem Van den Heuvel  : Paramagnetic NMR                              
  Zikuan Wang            : NOTCH, Electric field optimization            
  Frank Wennmohs         : Technical directorship and infrastructure     
  Hang Xu                : AUTO-CI-Response properties                   
                                                                         
[FACCTs GmbH]                                                            
  Markus Bursch, Nicolas Foglia, Miquel Garcia-Rates, Ingolf Harden, Hagen Neugebauer, Anastasios Papadopoulos, 
  Christoph Riplinger, Bernardo de Souza, Georgi L. Stoychev                                                    
                                                                 
  APM, various basis sets, CI-OPT, improved COSX, DLPNO-Multilevel,           
  DOCKER, DRACO, updates on ESD, Fragmentator, GOAT, IRC, LR-CPCM, L-BFGS, MBIS, meta-GGA TD-DFT gradient, ML-optimized integration grids, 
  MM, NACMEs, nearIR, NEB, NEB-TS, NL-DFT gradient (VV10), 2- and 3-layer-ONIOM, interface openCOSMO-RS, QMMM,   
  Crystal-QMMM, RESP, rigid body optimization, SF, symmetry and pop. for TD-DFT, various functionals, SOLVATOR                                   
                                                                         
[Other institutions]                                                     
  V. Asgeirsson          : NEB                                           
  Christoph Bannwarth    : sTDA-DFT, sTD-DFT, PBEh-3c, B97-3c, D3        
  Giovanni Bistoni       : ETS/NOCV, ADLD/ADEX, COVALED                  
  Martin Brehm           : Molecular dynamics                            
  Ronald Cardenas        : ETS/NOCV                                      
  Martina Colucci        : COVALED                                       
  Sebastian Ehlert       : rSCAN, r2SCAN, r2SCAN-3c, D4, dhf basis sets  
  Marvin Friede          : D4 for Fr, Ra, Ac-Lr                          
  Lars Goerigk           : TD-DFT with DH, B97 family of functionals     
  Stefan Grimme          : VdW corrections, initial TS optimization, DFT functionals, gCP, sTDA/sTD-DF 
  Waldemar Hujo          : DFT-NL                                        
  H. Jonsson             : NEB                                           
  Holger Kruse           : gCP                                           
  Marcel Mueller         : wB97X-3c, vDZP basis set                      
  Hagen Neugebauer       : wr2SCAN, Native XTB                           
  Gianluca Regni         : ADLD/ADEX                                     
  Tobias Risthaus        : pre 6.0 range-separated hybrid DFT and stability analysis
  Lukas Wittmann         : regularized MP2, r2SCAN double-hybrids, wr2SCAN        
                                                                         
We gratefully acknowledge several colleagues who have allowed us to      
interface, adapt or use parts of their codes:                            
  Ed Valeev, F. Pavosevic, A. Kumar             : LibInt (2-el integral package), F12 methods 
  Garnet Chan, S. Sharma, J. Yang, R. Olivares  : DMRG                   
  Ulf Ekstrom                                   : XCFun DFT Library      
  Mihaly Kallay                                 : mrcc  (arbitrary order and MRCC methods)
  Frank Weinhold                                : gennbo (NPA and NBO analysis)           
  Simon Mueller                                 : openCOSMO-RS                            
  Christopher J. Cramer and Donald G. Truhlar   : smd solvation model                     
  S Lehtola, MJT Oliveira, MAL Marques          : LibXC Library                           
  Liviu Ungur et al                             : ANISO software                          


 Your calculation uses the libint2 library for the computation of 2-el integrals
 For citations please refer to: http://libint.valeyev.net

 Your ORCA version has been built with support for libXC version: 7.0.0
 For citations please refer to: https://libxc.gitlab.io

 This ORCA versions uses:
   CBLAS   interface :  Fast vector & matrix operations
   LAPACKE interface :  Fast linear algebra routines
   SCALAPACK package :  Parallel linear algebra routines
   Shared memory     :  Shared parallel matrices
   BLAS/LAPACK       :  OpenBLAS 0.3.29  USE64BITINT DYNAMIC_ARCH NO_AFFINITY Zen SINGLE_THREADED
        Core in use  :  Zen
   Copyright (c) 2011-2014, The OpenBLAS Project


  ***********************************
  * Starting time: Mon Apr 13 01:10:33 2026
  * Host name:     r373.ib.bridges2.psc.edu
  * Process ID:    67075
  * Working dir.:  /ocean/projects/mat250017p/desantos/ORCA/Projects/Catalyzed-tBuPa/Step2/NEB
  ***********************************

NOTE: MaxCore=1900 MB was set to SCF,MP2,MDCI,CIPSI,MRCI,RASCI and CIS
      => If you want to overwrite this, your respective input block should be placed after the MaxCore statement
Your calculation utilizes a Nudged-Elastic-Band implementation
by V. Ásgeirsson, C. Riplinger & H. Jónsson
Please cite in your paper:
Ásgeirsson, V.; Birgisson, B. O.; Bjornsson, R.; Becker, U.; Neese, F.; Riplinger, R.;
Jónsson H. J. Chem. Theory Comput. 2021, 17, 4929-4945
   

Warning: RI is on but no J-basis has been assigned. Assigning Def2/J (nothing to worry about!)
================================================================================

cite the ECPs for Pt [Def2-ECP] as follows:
Ce-Yb(ecp-28): M. Dolg, H. Stoll, H.Preuss, J. Chem. Phys., 1989, 90, 1730-1734.
Y-Cd(ecp-28), Hf-Hg(ecp-46): D. Andrae,U. Haeussermann, M. Dolg, H. Stoll, H. Preuss, Theor. Chim. Acta, 1990, 77, 123-141.
In-Sb(ecp-28), Tl-Bi(ecp-46): B. Metz, H. Stoll, M. Dolg, J. Chem. Phys., 2000, 113, 2563-2569.
Te-Xe(ecp-28), Po-Rn(ecp-46): K. A. Peterson, D. Figgen, E. Goll, H. Stoll, M. Dolg, J. Chem. Phys., 2003, 119, 11113-11123.
Rb(ecp-28), Cs(ecp-46): T. Leininger, A. Nicklass, W. Kuechle, H. Stoll, M. Dolg, A. Bergner, Chem. Phys. Lett., 1996, 255, 274-280.
Sr(ecp-28), Ba(ecp-46): M. Kaupp, P. V. Schleyer, H. Stoll and H. Preuss, J. Chem. Phys., 1991, 94, 1360-1366.
La(ecp-46): M. Dolg, H. Stoll, A. Savin, H. Preuss, Theor. Chim. Acta, 1989, 75, 173-194.
Lu(ecp-28): X. Cao, M. Dolg, J. Chem. Phys., 2001, 115, 7348-7355.

ECP parameters for Pt [Def2-ECP] have been obtained from:
TURBOMOLE (7.0.2)

----- Orbital basis set information -----
Your calculation utilizes the basis: def2-SVP
   F. Weigend and R. Ahlrichs, Phys. Chem. Chem. Phys. 7, 3297 (2005).

----- AuxJ basis set information -----
Your calculation utilizes the auxiliary basis: def2/J
   H-Rn: F. Weigend, Phys. Chem. Chem. Phys. 8, 1057 (2006).
   Fr-Lr: K. Eichkorn, F. Weigend, O. Treutler, R. Ahlrichs; Theor. Chem. Acc. 97, 119 (1997).

================================================================================
                                        WARNINGS
                       Please study these warnings very carefully!
================================================================================


WARNING: Geometry Optimization
  ===> : Switching off AutoStart
         For restart on a previous wavefunction, please use MOREAD

================================================================================
                                       INPUT FILE
================================================================================
NAME = my_molecule.inp
|  1> ! UKS PBE def2-SVP FAST-NEB-TS FREQ
|  2> 
|  3> %pal nprocs 28 end
|  4> %maxcore 1900
|  5> 
|  6> %geom
|  7>   MaxIter 500
|  8> end
|  9> 
| 10> %neb
| 11>   MaxIter 400
| 12>   Restart_ALLXYZFile "my_molecule_MEP.allxyz"
| 13>   NImages 7
| 14> end
| 15> 
| 16> * xyz 0 1
| 17>   Pt          1.24471816264346     -0.98135565438428     -0.35769664733104
| 18>   O           1.57002017358996      0.40718951262393      1.07311950082007
| 19>   O          -1.05130141849038     -0.93876304629531     -0.53983192293991
| 20>   P           2.94462892759181      1.24288994619433      0.99126426786193
| 21>   P          -0.95417982633816     -1.96421301501983     -1.70996560065082
| 22>   O          -1.79796101506949     -3.33340332916944     -1.38123606948186
| 23>   O           0.60319852201697     -2.28576999199674     -1.86891311246792
| 24>   O           2.71942127706425      2.30393767259340     -0.27666291218979
| 25>   O           4.23603686201903      0.47022277808272      0.79216515313120
| 26>   C           2.89733950998806      2.31338854084094      2.50911581045566
| 27>   C          -1.66427913584254     -1.45655609188119     -3.33144575081438
| 28>   C          -1.34505045101353     -2.55967040501252     -4.36170312382865
| 29>   C          -0.98225521698471     -0.12887711125346     -3.72168731335925
| 30>   C          -3.18581860016330     -1.26589774201964     -3.17758199357973
| 31>   C           1.60564458951311      3.14843863024745      2.54365826966016
| 32>   C           2.98410003083177      1.39116466228584      3.74069611902063
| 33>   C           4.13770947755820      3.22657471506147      2.43617554511226
| 34>   H          -1.71547001777627     -3.54801037253129     -0.42931069978466
| 35>   H           3.52244888873962      2.23939919109709     -0.83120858499761
| 36>   H          -0.25297529818907     -2.72056970315405     -4.45652298071954
| 37>   H          -1.73790208890306     -2.25472828907886     -5.35425351877712
| 38>   H          -1.81754177783999     -3.52348401830463     -4.08740236874363
| 39>   H           0.11512418573984     -0.24938432392185     -3.82024662870348
| 40>   H          -1.17923434021464      0.66961298212380     -2.97859879445143
| 41>   H          -1.37725947879141      0.20907502837098     -4.70222316019569
| 42>   H          -3.68647538214228     -2.21030589054939     -2.88871778596529
| 43>   H          -3.60986149505894     -0.93147103250787     -4.14753268261919
| 44>   H          -3.42578978507807     -0.49597114366931     -2.41788623734354
| 45>   H           0.70776702714950      2.50428188364407      2.61568622299492
| 46>   H           1.49963153571471      3.77645949705021      1.63753422152739
| 47>   H           1.62316543498255      3.81892399504439      3.42950985862797
| 48>   H           2.09819175964057      0.72952639414726      3.81022118394707
| 49>   H           3.02617387630300      2.00815043317664      4.66337958002131
| 50>   H           3.89226471348820      0.75660003870496      3.70970404297673
| 51>   H           4.08776884921750      3.90267649757433      1.55904477424185
| 52>   H           5.06879934192153      2.63024517613130      2.36300689494959
| 53>   H           4.19224355925794      3.85532456539570      3.34981531090447
| 54>   Si          2.19933340359860     -2.86634322279821      0.71794573920345
| 55>   C           3.27145786260093     -3.78158520389653     -0.53537442776762
| 56>   C           3.17704945509819     -2.32365073986922      2.22655414246855
| 57>   C           0.69771687270851     -3.92607617979417      1.19773364436851
| 58>   H           4.19093764315423     -3.20950456132549     -0.77066820571133
| 59>   H           2.70705539537038     -3.95505342699099     -1.47261571307714
| 60>   H           3.57309886581106     -4.76488065935070     -0.11507664112341
| 61>   H           2.52052656883578     -1.87148388323341      2.99543489226845
| 62>   H           3.93373674120921     -1.57004394005867      1.92616955715862
| 63>   H           3.68310642027082     -3.20971851673675      2.66637829358612
| 64>   H          -0.02828550142308     -3.35472560995630      1.81075754845090
| 65>   H           1.04481705585618     -4.79341600138101      1.79977467269645
| 66>   H           0.19649949832391     -4.31919867395803      0.29050310021964
| 67>   H           2.77350127533439     -0.94923141511672     -0.59670955995846
| 68>   C          -0.41360042621241      3.90314894579029     -1.06060596748217
| 69>   C          -1.00008907666550      2.97028624409347     -0.28075504684499
| 70>   H           0.63369346287647      3.79661971868635     -1.39510886269623
| 71>   H          -0.94477856495466      4.81627755006531     -1.38540944763904
| 72>   Si         -2.75321817268711      3.02845052661535      0.41694375418262
| 73>   H          -0.38447239295225      2.09265912976423      0.00047474364230
| 74>   C          -3.59501386597695      4.66362868082715     -0.04904991805229
| 75>   C          -2.64720678589417      2.86734973549398      2.30641778031239
| 76>   C          -3.73820570441137      1.55913503833524     -0.27208994367605
| 77>   H          -3.03895142697628      5.53334679979722      0.35778465887483
| 78>   H          -4.62767908782408      4.70474783684228      0.35529326949396
| 79>   H          -3.66097066076892      4.78679979529839     -1.14993969698111
| 80>   H          -2.07864953540835      3.71074365657156      2.74954491548653
| 81>   H          -2.13089948048311      1.92640815799556      2.58916288452357
| 82>   H          -3.65622316019156      2.85259063510460      2.76891849786778
| 83>   H          -3.93792813720636      1.69630384870991     -1.35518678960112
| 84>   H          -4.71435296519492      1.44209728384736      0.24310620459068
| 85>   H          -3.15442695289336      0.62348747098669     -0.14588694609312
| 86> **                         ****END OF INPUT****
================================================================================


--------------------------------------------------------------------------------
                        Nudged Elastic Band Calculation
--------------------------------------------------------------------------------

Reading restart file my_molecule_MEP.allxyz
Number of images (incl. end points)     ....  9
Number of intermediate images           ....  7
Number of optimized images              ....  7
Optimization of end points before NEB   ....  NO
Use existing gbw files for MO input     ....  NO
Number of atoms                         ....  69
Number of (active) degrees of freedom   ....  207
Constrained atoms                       ....  None

Reaction path read from file: my_molecule_MEP.allxyz
----------------------------------------
  REACTANT (ANGSTROEM)
----------------------------------------
Pt     1.054999    -1.312295    -0.375347 
O      1.380301     0.076250     1.055469 
O     -1.241021    -1.269702    -0.557483 
P      2.754910     0.911951     0.973614 
P     -1.143899    -2.295152    -1.727616 
O     -1.987680    -3.664343    -1.398887 
O      0.413479    -2.616709    -1.886564 
O      2.529702     1.972998    -0.294313 
O      4.046318     0.139283     0.774515 
C      2.707620     1.982449     2.491465 
C     -1.853998    -1.787496    -3.349096 
C     -1.534770    -2.890610    -4.379354 
C     -1.171974    -0.459817    -3.739338 
C     -3.375538    -1.596837    -3.195233 
C      1.415925     2.817499     2.526008 
C      2.794381     1.060225     3.723046 
C      3.947990     2.895635     2.418525 
H     -1.905189    -3.878950    -0.446961 
H      3.332730     1.908460    -0.848859 
H     -0.442694    -3.051509    -4.474174 
H     -1.927621    -2.585668    -5.371904 
H     -2.007261    -3.854423    -4.105053 
H     -0.074595    -0.580324    -3.837897 
H     -1.368953     0.338674    -2.996249 
H     -1.566979    -0.121864    -4.719874 
H     -3.876195    -2.541245    -2.906368 
H     -3.799581    -1.262410    -4.165183 
H     -3.615509    -0.826911    -2.435537 
H      0.518048     2.173342     2.598036 
H      1.309912     3.445520     1.619884 
H      1.433446     3.487985     3.411859 
H      1.908473     0.398587     3.792571 
H      2.836455     1.677211     4.645729 
H      3.702546     0.425661     3.692053 
H      3.898050     3.571737     1.541394 
H      4.879080     2.299306     2.345356 
H      4.002524     3.524385     3.332165 
Si     2.009614    -3.197283     0.700295 
C      3.081739    -4.112525    -0.553025 
C      2.987330    -2.654590     2.208904 
C      0.507998    -4.257016     1.180083 
H      4.001219    -3.540444    -0.788319 
H      2.517336    -4.285993    -1.490266 
H      3.383380    -5.095820    -0.132727 
H      2.330807    -2.202423     2.977784 
H      3.744018    -1.900983     1.908519 
H      3.493387    -3.540658     2.648728 
H     -0.218005    -3.685665     1.793107 
H      0.855098    -5.124355     1.782124 
H      0.006780    -4.650138     0.272853 
H      2.583782    -1.280171    -0.614360 
C     -0.603320     3.572210    -1.078257 
C     -1.189808     2.639347    -0.298406 
H      0.443974     3.465680    -1.412759 
H     -1.134498     4.485338    -1.403060 
Si    -2.942937     2.697511     0.399293 
H     -0.574192     1.761720    -0.017176 
C     -3.784733     4.332689    -0.066700 
C     -2.836926     2.536410     2.288767 
C     -3.927925     1.228196    -0.289741 
H     -3.228671     5.202407     0.340134 
H     -4.817398     4.373808     0.337643 
H     -3.850690     4.455860    -1.167590 
H     -2.268369     3.379804     2.731894 
H     -2.320619     1.595469     2.571512 
H     -3.845942     2.521651     2.751268 
H     -4.127647     1.365364    -1.372837 
H     -4.904072     1.111158     0.225456 
H     -3.344146     0.292548    -0.163538 
----------------------------------------
  IMAGE 2 (ANGSTROEM)
----------------------------------------
Pt     0.854680    -1.147667    -0.260801 
O      1.260994     0.137845     1.250668 
O     -1.497801    -1.293315    -0.303190 
P      2.646252     0.957804     1.292366 
P     -1.367118    -2.351625    -1.437307 
O     -1.926679    -3.805574    -0.901733 
O      0.189999    -2.407017    -1.792026 
O      2.458322     2.194656     0.194391 
O      3.936492     0.217947     0.983693 
C      2.605532     1.806787     2.948785 
C     -2.289538    -2.193444    -3.029741 
C     -1.861780    -3.399843    -3.898329 
C     -1.861405    -0.869694    -3.691488 
C     -3.809039    -2.223196    -2.780081 
C      1.280834     2.570533     3.123545 
C      2.773180     0.738993     4.047033 
C      3.802354     2.780047     2.972601 
H     -1.884803    -3.822912     0.075659 
H      3.301433     2.244620    -0.298707 
H     -0.765633    -3.415624    -4.057197 
H     -2.355316    -3.326268    -4.889945 
H     -2.161042    -4.360796    -3.435668 
H     -0.770007    -0.849090    -3.878509 
H     -2.123041     0.006506    -3.065186 
H     -2.380894    -0.765492    -4.666843 
H     -4.122865    -3.167257    -2.293628 
H     -4.333208    -2.150634    -3.756534 
H     -4.145265    -1.372978    -2.153530 
H      0.414739     1.880564     3.129175 
H      1.126008     3.306985     2.309995 
H      1.295315     3.119612     4.089559 
H      1.930704     0.019626     4.046033 
H      2.802821     1.233171     5.041574 
H      3.716604     0.171897     3.918432 
H      3.697460     3.566736     2.199135 
H      4.757742     2.245300     2.800020 
H      3.856730     3.279272     3.963187 
Si     2.302051    -2.967218     0.307853 
C      3.520203    -3.137990    -1.125948 
C      3.189986    -2.676511     1.936197 
C      1.176266    -4.483524     0.447000 
H      4.217462    -2.275700    -1.131387 
H      2.986735    -3.179999    -2.096175 
H      4.116923    -4.067367    -1.011315 
H      2.486517    -2.561831     2.784071 
H      3.820549    -1.768302     1.858430 
H      3.831154    -3.564096     2.129575 
H      0.430485    -4.360474     1.258918 
H      1.812974    -5.355330     0.712224 
H      0.650447    -4.697176    -0.501840 
H      2.303699    -0.879001    -0.706334 
C     -0.237316     3.150046    -1.301619 
C     -1.032401     2.531093    -0.403535 
H      0.785851     2.793928    -1.507074 
H     -0.563398     4.052660    -1.848983 
Si    -2.787453     3.071059     0.026086 
H     -0.618569     1.640792     0.109888 
C     -3.012921     4.882460    -0.492168 
C     -3.087147     2.895870     1.892067 
C     -3.999770     1.939014    -0.900961 
H     -2.282484     5.526909     0.039877 
H     -4.030947     5.252864    -0.254417 
H     -2.849906     5.018922    -1.581110 
H     -2.397573     3.537791     2.478097 
H     -2.937018     1.846995     2.221650 
H     -4.126312     3.187217     2.152710 
H     -3.884389     2.060928    -1.997950 
H     -5.057207     2.149487    -0.638468 
H     -3.779251     0.880005    -0.650765 
----------------------------------------
  IMAGE 3 (ANGSTROEM)
----------------------------------------
Pt     0.721225    -1.108992    -0.117625 
O      1.284107     0.076034     1.426930 
O     -1.845753    -1.322160    -0.142725 
P      2.639319     0.943705     1.486852 
P     -1.580856    -2.383015    -1.233467 
O     -1.936350    -3.879151    -0.619552 
O     -0.034949    -2.300607    -1.632970 
O      2.381319     2.217426     0.449803 
O      3.958027     0.277469     1.135521 
C      2.590285     1.718961     3.181258 
C     -2.499126    -2.420105    -2.843200 
C     -1.977116    -3.650274    -3.622895 
C     -2.183017    -1.123818    -3.612011 
C     -4.011334    -2.557228    -2.586242 
C      1.245116     2.434398     3.397590 
C      2.802251     0.612623     4.232170 
C      3.755785     2.729234     3.238723 
H     -2.211601    -3.755090     0.310932 
H      3.224197     2.357652    -0.025428 
H     -0.886195    -3.583921    -3.803105 
H     -2.487285    -3.698745    -4.608086 
H     -2.184190    -4.594113    -3.081323 
H     -1.098206    -1.034334    -3.815103 
H     -2.506370    -0.223730    -3.052036 
H     -2.718083    -1.135606    -4.584851 
H     -4.248828    -3.496921    -2.049413 
H     -4.542769    -2.579528    -3.561423 
H     -4.412241    -1.704781    -2.002218 
H      0.399555     1.720101     3.371258 
H      1.069005     3.204050     2.619874 
H      1.246833     2.937304     4.388515 
H      1.983933    -0.133615     4.206475 
H      2.824767     1.064836     5.246793 
H      3.762813     0.082816     4.073279 
H      3.617025     3.549201     2.505943 
H      4.727022     2.236607     3.032863 
H      3.804177     3.183372     4.251315 
Si     2.418039    -2.804860     0.110197 
C      3.624256    -2.511778    -1.316097 
C      3.294265    -2.703207     1.768313 
C      1.528971    -4.462957    -0.058384 
H      4.172103    -1.562554    -1.146468 
H      3.101944    -2.470433    -2.292889 
H      4.364136    -3.339429    -1.354608 
H      2.601021    -2.780709     2.628369 
H      3.863269    -1.753988     1.828198 
H      3.999594    -3.562456     1.810391 
H      0.742144    -4.594946     0.710276 
H      2.286210    -5.263882     0.087298 
H      1.061485    -4.574394    -1.053686 
H      1.941586    -0.622529    -0.891237 
C     -0.100860     2.875018    -1.391177 
C     -0.992677     2.428228    -0.482970 
H      0.865964     2.371308    -1.554433 
H     -0.285956     3.780635    -1.996046 
Si    -2.675911     3.223270    -0.177851 
H     -0.724858     1.518937     0.090611 
C     -2.571331     5.057464    -0.654792 
C     -3.182695     3.070395     1.643624 
C     -3.935757     2.295578    -1.254310 
H     -1.805438     5.567702    -0.034103 
H     -3.538117     5.578668    -0.500039 
H     -2.283467     5.191044    -1.717898 
H     -2.474167     3.599388     2.313809 
H     -3.222916     2.007865     1.960657 
H     -4.190497     3.508642     1.802837 
H     -3.667378     2.390269    -2.326833 
H     -4.972261     2.667334    -1.119334 
H     -3.913196     1.216323    -0.993847 
----------------------------------------
  IMAGE 4 (ANGSTROEM)
----------------------------------------
Pt     0.663005    -1.124738     0.068137 
O      1.339843     0.003375     1.592043 
O     -2.305369    -1.305936    -0.122132 
P      2.648932     0.940812     1.638123 
P     -1.782757    -2.384209    -1.064383 
O     -1.934848    -3.884759    -0.355280 
O     -0.223618    -2.228278    -1.412617 
O      2.292527     2.227819     0.651664 
O      3.984784     0.344272     1.234034 
C      2.593586     1.662614     3.352198 
C     -2.619656    -2.600372    -2.705838 
C     -2.020097    -3.823958    -3.427249 
C     -2.387230    -1.315999    -3.524609 
C     -4.123926    -2.814910    -2.445676 
C      1.233575     2.340405     3.599025 
C      2.835281     0.526597     4.363543 
C      3.736506     2.696244     3.427368 
H     -2.446942    -3.756586     0.467685 
H      3.101203     2.420778     0.137394 
H     -0.936870    -3.692445    -3.618819 
H     -2.528182    -3.960999    -4.405878 
H     -2.158268    -4.750285    -2.835403 
H     -1.310361    -1.164094    -3.734088 
H     -2.763603    -0.419135    -2.993029 
H     -2.922323    -1.391827    -4.494772 
H     -4.307345    -3.748038    -1.875813 
H     -4.657019    -2.899439    -3.416434 
H     -4.565457    -1.968673    -1.882555 
H      0.403307     1.609079     3.556198 
H      1.035210     3.130095     2.847455 
H      1.230761     2.811353     4.605276 
H      2.027276    -0.230004     4.320805 
H      2.862769     0.943972     5.392480 
H      3.801248     0.016363     4.175193 
H      3.569275     3.533919     2.720742 
H      4.714599     2.231488     3.191884 
H      3.788660     3.121107     4.452014 
Si     2.500457    -2.675454    -0.064024 
C      3.632563    -2.033818    -1.429346 
C      3.368810    -2.729034     1.602515 
C      1.748909    -4.355660    -0.481433 
H      4.083333    -1.073337    -1.109106 
H      3.094359    -1.900825    -2.388849 
H      4.448821    -2.769539    -1.594937 
H      2.677207    -2.942521     2.441221 
H      3.884651    -1.763018     1.775214 
H      4.119554    -3.548438     1.557298 
H      0.960844    -4.653337     0.238275 
H      2.563637    -5.111038    -0.436164 
H      1.299985    -4.357066    -1.491893 
H      1.387850    -0.357795    -1.029259 
C     -0.027431     2.609275    -1.438617 
C     -0.956392     2.340205    -0.498710 
H      0.900921     2.020780    -1.535248 
H     -0.135353     3.449833    -2.147561 
Si    -2.570787     3.308201    -0.325828 
H     -0.769771     1.484433     0.179839 
C     -2.220897     5.122330    -0.764802 
C     -3.247860     3.201568     1.441983 
C     -3.815193     2.527210    -1.526200 
H     -1.456669     5.538436    -0.075572 
H     -3.132169     5.749632    -0.683750 
H     -1.830509     5.227197    -1.798061 
H     -2.552108     3.650732     2.180381 
H     -3.429638     2.148069     1.738725 
H     -4.213917     3.744141     1.515750 
H     -3.427771     2.578904    -2.564652 
H     -4.809154     3.019139    -1.498305 
H     -3.944758     1.455184    -1.267570 
----------------------------------------
  IMAGE 5 (ANGSTROEM)
----------------------------------------
Pt     0.838055    -1.179422     0.135992 
O      1.411351    -0.016807     1.634565 
O     -2.040697    -1.001541    -0.458186 
P      2.690741     0.950800     1.651793 
P     -1.621849    -2.389102    -1.200185 
O     -2.157664    -3.635077    -0.300416 
O     -0.092833    -2.317838    -1.444720 
O      2.315540     2.245928     0.674103 
O      4.042471     0.385755     1.257885 
C      2.613907     1.675541     3.363952 
C     -2.584206    -2.609565    -2.750478 
C     -2.009352    -3.844733    -3.470961 
C     -2.369098    -1.324312    -3.575927 
C     -4.081945    -2.809800    -2.434026 
C      1.247567     2.343048     3.605954 
C      2.848471     0.534137     4.371242 
C      3.749138     2.713536     3.453233 
H     -2.008412    -3.546708     0.660623 
H      3.100562     2.396952     0.111650 
H     -0.928923    -3.724634    -3.678226 
H     -2.537671    -3.979753    -4.436034 
H     -2.150144    -4.765493    -2.871559 
H     -1.296131    -1.159976    -3.795389 
H     -2.755487    -0.430744    -3.045670 
H     -2.912165    -1.414853    -4.538480 
H     -4.261681    -3.738401    -1.858569 
H     -4.636787    -2.888774    -3.392835 
H     -4.511827    -1.957487    -1.869310 
H      0.423345     1.604882     3.554678 
H      1.047899     3.135505     2.857305 
H      1.233596     2.808915     4.615082 
H      2.040672    -0.221771     4.315136 
H      2.871613     0.943413     5.403844 
H      3.813487     0.022520     4.181939 
H      3.581008     3.550386     2.745710 
H      4.727702     2.251037     3.215525 
H      3.797418     3.134893     4.479543 
Si     2.568058    -2.729800    -0.078549 
C      3.679680    -2.059695    -1.449975 
C      3.439152    -2.776149     1.590531 
C      1.824747    -4.418667    -0.504158 
H      4.106389    -1.093168    -1.113795 
H      3.114365    -1.903046    -2.390332 
H      4.510148    -2.769327    -1.651943 
H      2.726683    -2.980929     2.413808 
H      3.925620    -1.794044     1.761113 
H      4.207654    -3.577768     1.576918 
H      1.040095    -4.700403     0.226629 
H      2.620860    -5.190708    -0.468699 
H      1.367754    -4.413233    -1.511268 
H     -1.117561    -0.509217    -0.461664 
C     -0.022428     2.563354    -1.429883 
C     -0.948879     2.334867    -0.481175 
H      0.905229     1.970153    -1.494545 
H     -0.133062     3.376751    -2.170834 
Si    -2.558917     3.314002    -0.329726 
H     -0.732098     1.527297     0.249314 
C     -2.196503     5.123628    -0.771126 
C     -3.254488     3.211657     1.431304 
C     -3.802480     2.545314    -1.543174 
H     -1.434734     5.535707    -0.076860 
H     -3.104819     5.756645    -0.699100 
H     -1.796451     5.221508    -1.801358 
H     -2.559510     3.656310     2.173388 
H     -3.444761     2.160266     1.731277 
H     -4.217547     3.760540     1.498736 
H     -3.404780     2.592309    -2.578010 
H     -4.790176     3.050183    -1.526075 
H     -3.954909     1.475211    -1.289549 
----------------------------------------
  IMAGE 6 (ANGSTROEM)
----------------------------------------
Pt     0.795500    -1.018827     0.080420 
O      1.463215     0.040182     1.634121 
O     -2.459832    -1.087359    -0.367032 
P      2.735070     1.001206     1.683113 
P     -1.701408    -2.285754    -1.180471 
O     -1.974074    -3.616480    -0.285211 
O     -0.229919    -1.949882    -1.508126 
O      2.357451     2.329185     0.734038 
O      4.098154     0.469822     1.282127 
C      2.646167     1.676237     3.416775 
C     -2.639425    -2.637242    -2.722792 
C     -2.021909    -3.868053    -3.422460 
C     -2.486660    -1.379563    -3.604606 
C     -4.117545    -2.895689    -2.369913 
C      1.272707     2.320724     3.679356 
C      2.884441     0.498721     4.381137 
C      3.768718     2.721743     3.553844 
H     -1.694134    -3.506641     0.648121 
H      3.158632     2.512177     0.204019 
H     -0.952163    -3.713377    -3.664611 
H     -2.565365    -4.042635    -4.375228 
H     -2.112093    -4.784085    -2.806187 
H     -1.424382    -1.194455    -3.857466 
H     -2.887132    -0.477144    -3.100435 
H     -3.052038    -1.522176    -4.547983 
H     -4.235812    -3.810031    -1.756314 
H     -4.693401    -3.032499    -3.308749 
H     -4.563256    -2.045476    -1.817037 
H      0.454494     1.580851     3.578790 
H      1.077947     3.154309     2.974829 
H      1.244009     2.732409     4.711558 
H      2.084340    -0.261847     4.287796 
H      2.896755     0.865959     5.429617 
H      3.854844     0.003268     4.176963 
H      3.596364     3.583721     2.877974 
H      4.754099     2.279935     3.305917 
H      3.804821     3.104366     4.595883 
Si     2.501347    -2.597032    -0.107420 
C      3.648655    -1.900015    -1.445848 
C      3.425752    -2.765821     1.529784 
C      1.828815    -4.294550    -0.648103 
H      4.088474    -0.953082    -1.073015 
H      3.103084    -1.703749    -2.390467 
H      4.471576    -2.616520    -1.658645 
H      2.750520    -3.036662     2.365324 
H      3.918222    -1.797836     1.754427 
H      4.202825    -3.554690     1.433608 
H      1.064746    -4.690187     0.050877 
H      2.673703    -5.017152    -0.666740 
H      1.384363    -4.254213    -1.661828 
H     -1.886185    -0.295351    -0.241089 
C     -0.086893     2.052832    -1.379527 
C     -0.828043     2.398136    -0.298506 
H     -0.497742     2.075074    -2.410492 
H      0.983706     1.793682    -1.261478 
Si    -2.504822     3.274750    -0.371385 
H     -0.293472     2.380100     0.675143 
C     -2.067234     5.071721    -0.792120 
C     -3.345034     3.185444     1.320634 
C     -3.627577     2.529054    -1.706977 
H     -1.318956     5.457625    -0.069477 
H     -2.948596     5.742924    -0.773356 
H     -1.604585     5.123334    -1.799064 
H     -2.677199     3.587280     2.110132 
H     -3.607928     2.144643     1.599071 
H     -4.277110     3.784968     1.327580 
H     -3.145883     2.539549    -2.706286 
H     -4.569241     3.109696    -1.783336 
H     -3.896465     1.480447    -1.463200 
----------------------------------------
  IMAGE 7 (ANGSTROEM)
----------------------------------------
Pt     0.743810    -1.108792     0.048365 
O      1.407626     0.060417     1.555105 
O     -2.373288    -1.009452    -0.393153 
P      2.696097     0.992413     1.641020 
P     -1.776132    -2.221239    -1.117536 
O     -2.021765    -3.630478    -0.282342 
O     -0.209184    -2.105372    -1.436353 
O      2.335676     2.332810     0.681765 
O      4.060550     0.464979     1.245621 
C      2.621556     1.674557     3.375188 
C     -2.613744    -2.614936    -2.725204 
C     -1.992934    -3.847121    -3.408482 
C     -2.454270    -1.366466    -3.615808 
C     -4.101725    -2.867513    -2.406396 
C      1.253114     2.324806     3.645396 
C      2.863014     0.503369     4.347798 
C      3.750505     2.714491     3.503086 
H     -1.972701    -3.452121     0.677574 
H      3.156410     2.492694     0.173337 
H     -0.918797    -3.694265    -3.631801 
H     -2.522525    -4.037676    -4.367658 
H     -2.089826    -4.753834    -2.779456 
H     -1.388113    -1.182249    -3.856986 
H     -2.857950    -0.464865    -3.112579 
H     -3.008332    -1.507259    -4.567243 
H     -4.226596    -3.781344    -1.792941 
H     -4.672851    -2.998587    -3.349470 
H     -4.541241    -2.017959    -1.846398 
H      0.432011     1.586264     3.557425 
H      1.058057     3.155676     2.937373 
H      1.234938     2.743416     4.674845 
H      2.064100    -0.260232     4.267852 
H      2.877654     0.882123     5.392421 
H      3.834336     0.007770     4.148823 
H      3.583629     3.573475     2.822533 
H      4.732599     2.264996     3.257259 
H      3.790646     3.102497     4.542727 
Si     2.534185    -2.617732    -0.116334 
C      3.681750    -1.938460    -1.458800 
C      3.442700    -2.760386     1.536701 
C      1.856704    -4.324351    -0.610469 
H      4.117259    -0.983876    -1.101511 
H      3.127956    -1.761404    -2.402418 
H      4.505643    -2.656119    -1.663791 
H      2.756487    -3.022984     2.366513 
H      3.941979    -1.797334     1.762702 
H      4.213190    -3.558549     1.457783 
H      1.087190    -4.688916     0.099533 
H      2.693915    -5.056785    -0.617031 
H      1.397208    -4.294308    -1.617372 
H     -1.579687     0.944860    -0.298134 
C     -0.105583     2.092555    -1.340727 
C     -0.986760     1.900590    -0.252403 
H     -0.365353     1.754290    -2.362211 
H      0.812691     2.686317    -1.199664 
Si    -2.542818     3.171872    -0.359093 
H     -0.531094     2.092399     0.738904 
C     -1.971434     4.925079    -0.768189 
C     -3.311412     3.124928     1.361674 
C     -3.690738     2.486321    -1.683082 
H     -1.219144     5.303731    -0.047547 
H     -2.842482     5.613348    -0.726713 
H     -1.540338     5.000726    -1.786006 
H     -2.625197     3.545076     2.124892 
H     -3.576451     2.091440     1.658690 
H     -4.238677     3.737662     1.361296 
H     -3.222037     2.522160    -2.687755 
H     -4.627446     3.080906    -1.721878 
H     -3.946561     1.431947    -1.453269 
----------------------------------------
  IMAGE 8 (ANGSTROEM)
----------------------------------------
Pt     0.612073    -0.713390    -0.075698 
O      1.373049     0.224159     1.541086 
O     -2.557970    -1.105371    -0.320263 
P      2.702201     1.091512     1.652361 
P     -1.824529    -2.172696    -1.126294 
O     -1.812121    -3.618601    -0.300864 
O     -0.314108    -1.827936    -1.527617 
O      2.399205     2.465312     0.735454 
O      4.039968     0.511122     1.234640 
C      2.632600     1.704143     3.406066 
C     -2.648852    -2.619373    -2.725159 
C     -2.000718    -3.847882    -3.388544 
C     -2.513381    -1.379381    -3.631096 
C     -4.127689    -2.900092    -2.394588 
C      1.259948     2.342961     3.685368 
C      2.872255     0.507087     4.346618 
C      3.762284     2.739975     3.554096 
H     -2.096919    -3.438786     0.617119 
H      3.218131     2.612876     0.221846 
H     -0.929871    -3.676567    -3.616139 
H     -2.522875    -4.063434    -4.346082 
H     -2.080645    -4.747640    -2.747011 
H     -1.450308    -1.187166    -3.876785 
H     -2.920386    -0.476296    -3.132467 
H     -3.072734    -1.534039    -4.577161 
H     -4.227647    -3.809554    -1.768860 
H     -4.703401    -3.058335    -3.330614 
H     -4.577928    -2.053215    -1.840084 
H      0.445121     1.598599     3.591175 
H      1.054419     3.176083     2.983219 
H      1.239632     2.752305     4.718009 
H      2.071133    -0.252415     4.249179 
H      2.885668     0.858657     5.400639 
H      3.843083     0.014881     4.137390 
H      3.594118     3.608270     2.885747 
H      4.743249     2.291804     3.299043 
H      3.804103     3.110880     4.599533 
Si     2.441959    -2.387213    -0.230069 
C      3.661618    -1.783084    -1.525889 
C      3.303785    -2.600915     1.449413 
C      1.757892    -4.104265    -0.690676 
H      4.134620    -0.851236    -1.159702 
H      3.160739    -1.604397    -2.496677 
H      4.450274    -2.553055    -1.673621 
H      2.623918    -2.902499     2.270798 
H      3.850272    -1.678658     1.725626 
H      4.042072    -3.425276     1.310445 
H      0.998608    -4.484134     0.021216 
H      2.628827    -4.800099    -0.652486 
H      1.323372    -4.141760    -1.706641 
H     -1.720660     0.814368    -0.054923 
C      0.083236     1.342073    -1.065934 
C     -0.994061     1.667853    -0.124795 
H     -0.200113     1.076378    -2.102123 
H      0.994828     1.963827    -0.986735 
Si    -2.398237     3.051727    -0.397015 
H     -0.580028     1.937842     0.867170 
C     -1.804634     4.808657    -0.798521 
C     -3.257684     3.105914     1.292628 
C     -3.604526     2.455752    -1.723293 
H     -1.074113     5.196217    -0.060368 
H     -2.695748     5.474928    -0.757724 
H     -1.367351     4.909502    -1.811588 
H     -2.594779     3.530700     2.074832 
H     -3.582362     2.099114     1.623823 
H     -4.159992     3.752130     1.232961 
H     -3.157292     2.478100    -2.737775 
H     -4.505907     3.105125    -1.740078 
H     -3.928693     1.417926    -1.505538 
----------------------------------------

  PRODUCT (ANGSTROEM)
----------------------------------------
Pt     0.409728    -0.857679     0.192719 
O      1.243146     0.013806     1.806259 
O     -2.864905    -1.300964     0.201287 
P      2.411792     1.081273     2.012625 
P     -2.075415    -2.335957    -0.582389 
O     -1.668710    -3.616579     0.410658 
O     -0.676635    -1.872358    -1.215401 
O      1.802294     2.500700     1.363085 
O      3.786515     0.804308     1.434929 
C      2.404148     1.368169     3.849565 
C     -2.990886    -3.110898    -1.998435 
C     -2.146241    -4.233374    -2.625868 
C     -3.286416    -2.000642    -3.026055 
C     -4.306374    -3.670356    -1.421343 
C      0.997759     1.779876     4.318517 
C      2.849954     0.058594     4.528883 
C      3.424738     2.489260     4.128913 
H     -2.166641    -3.490493     1.242979 
H      2.549930     2.937469     0.908824 
H     -1.199661    -3.840518    -3.046030 
H     -2.715621    -4.717503    -3.448025 
H     -1.894055    -5.010692    -1.877488 
H     -2.351293    -1.591691    -3.457254 
H     -3.847876    -1.165125    -2.561087 
H     -3.900263    -2.410353    -3.856127 
H     -4.111480    -4.471837    -0.680392 
H     -4.921657    -4.102885    -2.238339 
H     -4.893950    -2.873665    -0.923315 
H      0.256318     0.982204     4.117276 
H      0.659367     2.703480     3.807825 
H      1.009695     1.976138     5.411962 
H      2.132417    -0.762326     4.332317 
H      2.911263     0.208399     5.627828 
H      3.848662    -0.260307     4.168832 
H      3.117418     3.441698     3.651160 
H      4.429258     2.218115     3.747899 
H      3.498992     2.666219     5.222603 
Si     2.389855    -1.653221    -0.879101 
C      3.267947    -0.185770    -1.674335 
C      3.415212    -2.403681     0.517202 
C      1.937190    -2.955772    -2.168076 
H      3.598641     0.511706    -0.878395 
H      2.632886     0.338859    -2.415579 
H      4.168019    -0.566393    -2.204252 
H      2.841808    -3.131902     1.124883 
H      3.796356    -1.588063     1.163401 
H      4.276896    -2.941038     0.064326 
H      1.393427    -3.806734    -1.714438 
H      2.880630    -3.335490    -2.617399 
H      1.303922    -2.534019    -2.971797 
H     -2.061287     0.822007    -0.062239 
C     -0.036232     0.875043    -0.842165 
C     -1.184336     1.505945    -0.121532 
H     -0.271640     0.515274    -1.863532 
H      0.897989     1.466508    -0.810189 
Si    -1.793755     3.128505    -0.973641 
H     -0.891997     1.812844     0.904837 
C     -0.348745     4.351606    -1.064894 
C     -3.180032     3.821552     0.112462 
C     -2.447530     2.734327    -2.707807 
H      0.142222     4.438686    -0.073688 
H     -0.691386     5.360569    -1.374525 
H      0.418041     4.018577    -1.794613 
H     -2.811708     4.054761     1.132538 
H     -4.012784     3.095270     0.209349 
H     -3.590643     4.756628    -0.322428 
H     -1.647291     2.340708    -3.367865 
H     -2.861306     3.644193    -3.190323 
H     -3.255683     1.975012    -2.665582 



----------------------
NEB settings
----------------------
Method type                             ....  regular
Free endpoints                          ....  off 
Tangent type                            ....  improved 
Number of intermediate images           ....  7 
Number of images free to move           ....  7 
Spring type for image distribution      ....  distance between adjacent images 
Spring constant                         ....  energy weighted (0.0100 -to- 0.1000) Eh/Bohr^2 
Spring force perp. to the path          ....  none 
Generation of initial path              ....  restart (from my_molecule_MEP.allxyz) 
Initial path via TS guess               ....  off 

Minimization of RMSD: Rotation          ....  always 
Minimization of RMSD: Translation type  ....  centroid 
Center fixed to origin                  ....  true 
Remove external force                   ....  true 

Reparametrization of the path           ....  off 
Convergence thresholds:
Convergence monitored for               ....  all images
Optimization method:
Method                                  ....  L-BFGS
Max. iterations                         ....  400 
Step size                               ....  1.00 
Maximum allowed step size               ....  0.10 Bohr

LBFGS parameters: 
               Memory                   ....  20 
               Initial step size        ....  0.0010 
               Estimate curvature       ....  YES 
               Reset on maxmove         ....  YES 
               Reparam. on reset        ....  NO 
Displacement along initial path:             62.1919 Bohr
Writing initial trajectory to file      ....  my_molecule_initial_path_trj.xyz



----------------------
NEB OPTIMIZATION      
----------------------

Following output files will be written:
Energy profile during opt. written to    ....  my_molecule.interp
Optimization log-file                    ....  my_molecule.NEB.log
Current trajectory will be written to    ....  my_molecule_MEP_trj.xyz
       and to allxyz file                ....  my_molecule_MEP.allxyz
       and individual images to xyz file ....  my_molecule_im{NIm}.xyz
Trajectory history will be written to    ....  my_molecule_MEP_ALL_trj.xyz
Highest energy image will be written to  ....  my_molecule_NEB-HEI_converged.xyz
Converged TS will be written to          ....  my_molecule_NEB-TS_converged.xyz

Single point energy and gradient calculation of reactant and
product configurations (have to be performed only once)


           ************************************************************
           *        Program running with 28 parallel MPI-processes    *
           *              working on a common directory               *
           ************************************************************

------------------------------------------------------------------------------
                         ORCA PROPERTY INTEGRAL CALCULATIONS
------------------------------------------------------------------------------

GBWName                                   ... my_molecule_im0.gbw
Number of atoms                           ...     69
Number of basis functions                 ...    622
Max core memory                           ...   1900 MB

Dipole integrals                          ... YES
Quadrupole integrals                      ...  NO
Linear momentum integrals                 ...  NO
Angular momentum integrals                ...  NO
Higher moments length integrals           ...  NO
Higher moments velocity integrals         ...  NO
Kinetic energy integrals                  ...  NO
GIAO right hand sides                     ...  NO
GIAO dipole derivative integrals          ...  NO
SOC integrals                             ...  NO
EPR diamagnetic integrals (GIAO)          ...  NO
EPR gauge integrals                       ...  NO
Field gradient integrals                  ...  NO (   0 nuclei)
Spin-dipole/Fermi contact integrals       ...  NO (   0 nuclei)
Contact density integrals                 ...  NO (   0 nuclei)
Nucleus-orbit integrals                   ...  NO (   0 nuclei)
Geometric perturbations                   ... YES (  69 nuclei)

Choice of electric origin   ... Center of mass
Position of electric origin ... (  0.8033, -0.9737, -0.2979) 
Choice of magnetic origin   ... GIAO
Position of magnetic origin ... (  0.0000,  0.0000,  0.0000) 

Calculating integrals                     ... Electric Dipole (Length)     done (  0.3 sec)
Calculating integrals                     ... Geometrical perturbation right hand sides

-----------------------
GEOMETRIC PERTURBATIONS (69 nuclei)
-----------------------

MaxCore                            ...   1900 MB
Number of batches                  ...      2

BATCH   0: Atoms    0 -   41 (126 perturbations)
   => H(core) and overlap derivative integrals     ... done (     8.2 sec)
   => Making and storing internal U-coefficients   ... done (     0.2 sec)
   => RI-J derivative integrals                    ... done (    19.0 sec)
   => RI-J response operators                      ... done (     4.6 sec)
   => ECP derivative integrals                     ... done (   227.4 sec)
   => XC derivative integrals                      ... done (    50.8 sec)
   => XC response operators                        ... done (    22.1 sec)
   => Completing and storing right hand sides      ... done (     0.2 sec)
BATCH   1: Atoms   42 -   68 ( 81 perturbations)
   => H(core) and overlap derivative integrals     ... done (     2.7 sec)
   => Making and storing internal U-coefficients   ... done (     0.1 sec)
   => RI-J derivative integrals                    ... done (    11.5 sec)
   => RI-J response operators                      ... done (     3.0 sec)
   => ECP derivative integrals                     ... done (   146.9 sec)
   => XC derivative integrals                      ... done (    26.3 sec)
   => XC response operators                        ... done (    13.8 sec)
   => Completing and storing right hand sides      ... done (     0.1 sec)
   => Total time for right hand sides = 543.1 sec

  geometrical perturbations done (543.2 sec)

Property integrals calculated in 543.6 sec

Maximum memory used throughout the entire PROPINT-calculation: 1662.7 MB


           ************************************************************
           *        Program running with 28 parallel MPI-processes    *
           *              working on a common directory               *
           ************************************************************

------------------------------------------------------------------------------
                         ORCA PROPERTY INTEGRAL CALCULATIONS
------------------------------------------------------------------------------

GBWName                                   ... my_molecule_im8.gbw
Number of atoms                           ...     69
Number of basis functions                 ...    622
Max core memory                           ...   1900 MB

Dipole integrals                          ... YES
Quadrupole integrals                      ...  NO
Linear momentum integrals                 ...  NO
Angular momentum integrals                ...  NO
Higher moments length integrals           ...  NO
Higher moments velocity integrals         ...  NO
Kinetic energy integrals                  ...  NO
GIAO right hand sides                     ...  NO
GIAO dipole derivative integrals          ...  NO
SOC integrals                             ...  NO
EPR diamagnetic integrals (GIAO)          ...  NO
EPR gauge integrals                       ...  NO
Field gradient integrals                  ...  NO (   0 nuclei)
Spin-dipole/Fermi contact integrals       ...  NO (   0 nuclei)
Contact density integrals                 ...  NO (   0 nuclei)
Nucleus-orbit integrals                   ...  NO (   0 nuclei)
Geometric perturbations                   ... YES (  69 nuclei)

Choice of electric origin   ... Center of mass
Position of electric origin ... (  0.3291, -0.6208,  0.2581) 
Choice of magnetic origin   ... GIAO
Position of magnetic origin ... (  0.0000,  0.0000,  0.0000) 

Calculating integrals                     ... Electric Dipole (Length)     done (  0.4 sec)
Calculating integrals                     ... Geometrical perturbation right hand sides

-----------------------
GEOMETRIC PERTURBATIONS (69 nuclei)
-----------------------

MaxCore                            ...   1900 MB
Number of batches                  ...      2

BATCH   0: Atoms    0 -   41 (126 perturbations)
   => H(core) and overlap derivative integrals     ... done (     6.8 sec)
   => Making and storing internal U-coefficients   ... done (     0.3 sec)
   => RI-J derivative integrals                    ... done (    16.5 sec)
   => RI-J response operators                      ... done (     4.5 sec)
   => ECP derivative integrals                     ... done (   234.2 sec)
   => XC derivative integrals                      ... done (    51.4 sec)
   => XC response operators                        ... done (    23.6 sec)
   => Completing and storing right hand sides      ... done (     0.1 sec)
BATCH   1: Atoms   42 -   68 ( 81 perturbations)
   => H(core) and overlap derivative integrals     ... done (     3.0 sec)
   => Making and storing internal U-coefficients   ... done (     0.1 sec)
   => RI-J derivative integrals                    ... done (    10.8 sec)
   => RI-J response operators                      ... done (     2.7 sec)
   => ECP derivative integrals                     ... done (   150.2 sec)
   => XC derivative integrals                      ... done (    29.9 sec)
   => XC response operators                        ... done (    14.5 sec)
   => Completing and storing right hand sides      ... done (     0.1 sec)
   => Total time for right hand sides = 555.1 sec

  geometrical perturbations done (555.2 sec)

Property integrals calculated in 555.6 sec

Maximum memory used throughout the entire PROPINT-calculation: 1666.0 MB
Properties of fixed NEB end points:
               Reactant:
                         E               ....  -2464.517688 Eh
                         RMS(F)          ....      0.000024 Eh/Bohr
                         MAX(|F|)        ....      0.000112 Eh/Bohr
               Product:
                         E               ....  -2464.548131 Eh
                         RMS(F)          ....      0.000073 Eh/Bohr
                         MAX(|F|)        ....      0.000454 Eh/Bohr



Starting iterations:

Optim.  Iteration  HEI  E(HEI)-E(0)  max(|Fp|)   RMS(Fp)    dS
   LBFGS     0      6    0.040073    0.007905   0.000598  62.1919       
   LBFGS     1      6    0.039683    0.005763   0.000482  62.1928       
   LBFGS     2      6    0.039486    0.003370   0.000326  62.1970       
   LBFGS     3      6    0.039254    0.004081   0.000371  62.2049       
   LBFGS     4      6    0.039138    0.007205   0.000492  62.2239       
   LBFGS     5      6    0.039924    0.013838   0.000845  62.2783       
   LBFGS     6      6    0.039703    0.006109   0.000540  62.3123       
   LBFGS     7      6    0.039903    0.009665   0.000664  62.4135       
   LBFGS     8      6    0.040886    0.017526   0.000985  62.6091       
   LBFGS     9      6    0.041784    0.019166   0.001130  62.8454       
   LBFGS    10      6    0.040735    0.014454   0.000859  62.8685       
   LBFGS    11      6    0.039994    0.009810   0.000583  62.8796       
   LBFGS    12      6    0.038908    0.006809   0.000479  62.9144       
   LBFGS    13      6    0.038572    0.014426   0.000653  62.9372       
   LBFGS    14      6    0.038232    0.009688   0.000468  62.9481       
   LBFGS    15      6    0.037736    0.008918   0.000469  63.0190       
   LBFGS    16      6    0.037658    0.009807   0.000642  63.0733       
   LBFGS    17      6    0.037695    0.008960   0.000659  63.1768       
   LBFGS    18      6    0.037945    0.013106   0.000878  63.3095       
   LBFGS    19      6    0.038276    0.007618   0.000669  63.4445       
   LBFGS    20      6    0.038424    0.008566   0.000714  63.5364       
   LBFGS    21      6    0.038200    0.008445   0.000736  63.5569       
   LBFGS    22      6    0.037857    0.005065   0.000477  63.5266       
   LBFGS    23      6    0.037454    0.004976   0.000437  63.4859       
   LBFGS    24      6    0.037155    0.006980   0.000453  63.5098       
   LBFGS    25      6    0.036916    0.005704   0.000457  63.6574       
   LBFGS    26      6    0.036856    0.008576   0.000677  63.8591       
   LBFGS    27      6    0.036510    0.007321   0.000575  63.8566       
   LBFGS    28      6    0.036365    0.002841   0.000310  63.8523       
   LBFGS    29      6    0.036239    0.003439   0.000254  63.8454       

Possible intermediate minimum found at image(s): 5 
  => have a look at the .interp file.
  => it is often a good idea to divide the path calculation into smaller fragments. 

   LBFGS    30      6    0.036120    0.004486   0.000354  63.8378       
   LBFGS    31      6    0.036058    0.007305   0.000607  63.8251       
   LBFGS    32      6    0.036551    0.015048   0.000903  63.8385       
   LBFGS    33      6    0.037583    0.014469   0.000910  63.8833       
   LBFGS    34      6    0.036786    0.003602   0.000391  63.9110       
   LBFGS    35      6    0.036345    0.004351   0.000400  63.9569       
   LBFGS    36      6    0.036307    0.008503   0.000485  64.0123       
   LBFGS    37      6    0.036394    0.003719   0.000353  64.0845       
   LBFGS    38      6    0.036663    0.008690   0.000507  64.1878       
   LBFGS    39      6    0.036720    0.004235   0.000330  64.2436       
   LBFGS    40      6    0.036635    0.005425   0.000385  64.2705       
   LBFGS    41      6    0.036402    0.006628   0.000509  64.3216       
   LBFGS    42      6    0.036230    0.009475   0.000734  64.4277       
   LBFGS    43      6    0.036050    0.006702   0.000540  64.5866       
   LBFGS    44      6    0.036103    0.006398   0.000601  64.8421       
   LBFGS    45      6    0.035224    0.012059   0.000815  64.8167       
   LBFGS    46      6    0.034724    0.004608   0.000411  64.8106       
   LBFGS    47      6    0.034225    0.005110   0.000309  64.8075       
   LBFGS    48      6    0.034036    0.004343   0.000436  64.8059       
   LBFGS    49      6    0.034109    0.008167   0.000543  64.8100       
   LBFGS    50      6    0.034044    0.004375   0.000286  64.8183       
   LBFGS    51      6    0.034106    0.007582   0.000455  64.8417       
   LBFGS    52      6    0.034407    0.010995   0.000556  64.8927       
   LBFGS    53      6    0.034830    0.007287   0.000550  64.9542       
   LBFGS    54      6    0.034813    0.004351   0.000297  64.9825       
   LBFGS    55      6    0.034592    0.003263   0.000227  64.9773       
   LBFGS    56      6    0.034437    0.003599   0.000232  64.9797       
   LBFGS    57      6    0.034281    0.005179   0.000290  64.9993       
   LBFGS    58      6    0.034166    0.004314   0.000326  65.0255       
   LBFGS    59      6    0.033830    0.007257   0.000509  65.1324       
   LBFGS    60      6    0.033113    0.009634   0.000771  65.4053       

Possible intermediate minimum found at image(s): 5 
  => have a look at the .interp file.
  => it is often a good idea to divide the path calculation into smaller fragments. 

   LBFGS    61      6    0.032175    0.015032   0.000880  65.7366       
   LBFGS    62      6    0.031945    0.014552   0.000769  65.7573       
   LBFGS    63      6    0.031829    0.005015   0.000404  65.7576       
   LBFGS    64      6    0.031527    0.005403   0.000365  65.7560       
   LBFGS    65      6    0.031266    0.007475   0.000452  65.7539       
   LBFGS    66      6    0.030654    0.009487   0.000784  65.7890       
   LBFGS    67      6    0.029555    0.013351   0.001054  65.8566       
   LBFGS    68      6    0.027203    0.039722   0.001875  65.9553       
   LBFGS    69      6    0.024980    0.021445   0.001281  66.0198       
   LBFGS    70      3    0.023405    0.025922   0.001543  66.1477       
   LBFGS    71      3    0.023435    0.034547   0.001863  66.0413       
   LBFGS    72      3    0.023472    0.050791   0.002559  66.0329       
   LBFGS    73      5    0.030251    0.052446   0.002595  66.0126       
   LBFGS    74      5    0.030251    0.052446   0.002595  66.0126       
   LBFGS    75      5    0.036527    0.046637   0.002830  65.7700       
   LBFGS    76      5    0.036527    0.046637   0.002830  65.7700       
   LBFGS    77      5    0.042738    0.052378   0.003100  65.4395       
   LBFGS    78      5    0.042738    0.052383   0.003101  65.4395       
   LBFGS    79      5    0.047931    0.052754   0.003267  65.0602       
   LBFGS    80      5    0.053175    0.054470   0.003367  64.7020       
   LBFGS    81      5    0.057811    0.055816   0.003233  64.3957       
   LBFGS    82      5    0.064627    0.054240   0.003319  64.0846       
   LBFGS    83      5    0.070559    0.057612   0.003241  63.8420       
   LBFGS    84      5    0.077172    0.053362   0.003380  63.6291       
   LBFGS    85      5    0.083969    0.059681   0.003345  63.4460       
   LBFGS    86      5    0.089831    0.056496   0.003196  63.2983       
   LBFGS    87      5    0.095003    0.051609   0.003116  63.1866       
   LBFGS    88      5    0.099825    0.055301   0.003010  63.0965       
   LBFGS    89      5    0.103496    0.057310   0.002945  63.0348       
   LBFGS    90      5    0.105323    0.060612   0.003139  63.0069       
   LBFGS    91      5    0.106537    0.057239   0.002905  62.9918       
   LBFGS    92      5    0.107965    0.056520   0.002869  62.9899       
   LBFGS    93      5    0.108349    0.060307   0.002843  63.0067       
   LBFGS    94      5    0.108760    0.060190   0.002973  63.0458       
   LBFGS    95      5    0.106905    0.050150   0.002756  63.1304       
   LBFGS    96      5    0.108393    0.083250   0.003558  63.2366       
   LBFGS    97      5    0.104928    0.053012   0.003060  63.3719       
   LBFGS    98      5    0.118010    0.122038   0.005858  63.5951       
   LBFGS    99      5    0.098884    0.041054   0.002811  63.7385       
   LBFGS   100      5    0.111913    0.149017   0.006388  63.9729       
   LBFGS   101      5    0.095478    0.049701   0.003017  63.9768       
   LBFGS   102      5    0.101155    0.074622   0.004787  64.0191       
   LBFGS   103      5    0.090588    0.048957   0.003106  63.9819       
   LBFGS   104      5    0.090588    0.048963   0.003107  63.9819       
   LBFGS   105      5    0.087549    0.049325   0.003081  63.9012       
   LBFGS   106      5    0.087549    0.049326   0.003081  63.9012       
   LBFGS   107      5    0.084099    0.049150   0.003165  63.8032       
   LBFGS   108      5    0.084099    0.049149   0.003165  63.8032       
   LBFGS   109      5    0.080264    0.048941   0.003260  63.6991       
   LBFGS   110      5    0.080264    0.048940   0.003260  63.6991       
   LBFGS   111      7    0.077303    0.049970   0.003370  63.5950       
   LBFGS   112      7    0.077303    0.049970   0.003370  63.5950       
   LBFGS   113      7    0.083179    0.050979   0.003486  63.4950       
   LBFGS   114      7    0.083871    0.050981   0.003370  63.3654       
   LBFGS   115      7    0.088486    0.051510   0.003444  63.2915       
   LBFGS   116      7    0.087838    0.051300   0.003337  63.1841       
   LBFGS   117      7    0.091243    0.051503   0.003389  63.1394       
   LBFGS   118      7    0.090109    0.051263   0.003301  63.0490       
   LBFGS   119      7    0.092770    0.051249   0.003336  63.0257       
   LBFGS   120      7    0.091635    0.051078   0.003271  62.9480       
   LBFGS   121      7    0.093719    0.050873   0.003273  62.9372       
   LBFGS   122      7    0.093100    0.050803   0.003254  62.8625       
   LBFGS   123      7    0.094564    0.050419   0.003199  62.8418       
   LBFGS   124      7    0.095030    0.050230   0.003175  62.7471       
   LBFGS   125      7    0.095853    0.049875   0.003118  62.6480       
   LBFGS   126      7    0.094168    0.049456   0.003184  62.3439       
   LBFGS   127      7    0.093791    0.048560   0.002930  62.2185       
   LBFGS   128      7    0.092521    0.048187   0.003306  62.0017       
   LBFGS   129      7    0.090165    0.046755   0.002917  61.8582       
   LBFGS   130      7    0.087501    0.045624   0.002947  61.7031       
   LBFGS   131      7    0.083862    0.044188   0.002979  61.5627       
   LBFGS   132      7    0.079908    0.042499   0.002921  61.4897       
   LBFGS   133      7    0.074647    0.040294   0.002781  61.5199       
   LBFGS   134      7    0.066800    0.037780   0.002700  61.5226       
   LBFGS   135      7    0.060557    0.034851   0.002401  61.5839       
   LBFGS   136      7    0.055486    0.033137   0.002475  61.6627       
   LBFGS   137      7    0.051162    0.038789   0.002505  61.7552       
   LBFGS   138      7    0.047212    0.047057   0.002656  61.8245       
   LBFGS   139      5    0.044406    0.050302   0.002830  61.7592       
   LBFGS   140      5    0.044406    0.050302   0.002830  61.7592       
   LBFGS   141      5    0.051787    0.051390   0.003131  61.6424       
   LBFGS   142      5    0.059992    0.050672   0.003608  61.5379       
   LBFGS   143      5    0.066636    0.057851   0.003631  61.3398       
   LBFGS   144      5    0.073069    0.062196   0.003653  61.1759       
   LBFGS   145      5    0.077341    0.063305   0.003627  61.0372       
   LBFGS   146      5    0.076914    0.062832   0.003561  60.9248       
   LBFGS   147      5    0.078628    0.061076   0.003479  60.8203       
   LBFGS   148      5    0.075669    0.062965   0.003474  60.7082       
   LBFGS   149      5    0.075986    0.056604   0.003288  60.6287       
   LBFGS   150      4    0.079292    0.069641   0.003708  60.5077       
   LBFGS   151      4    0.078750    0.056558   0.003224  60.4168       
   LBFGS   152      4    0.080180    0.059337   0.003218  60.2979       
   LBFGS   153      4    0.080251    0.054471   0.003074  60.1605       
   LBFGS   154      4    0.080291    0.049077   0.002930  60.0188       
   LBFGS   155      4    0.077978    0.046341   0.002652  59.8402       
   LBFGS   156      4    0.077978    0.046339   0.002652  59.8402       
   LBFGS   157      4    0.075127    0.040193   0.002406  59.6752       
   LBFGS   158      4    0.075127    0.040194   0.002406  59.6752       
   LBFGS   159      4    0.072150    0.035043   0.002340  59.5203       
   LBFGS   160      4    0.069088    0.031836   0.002467  59.3782       

Possible intermediate minimum found at image(s): 6 
  => have a look at the .interp file.
  => it is often a good idea to divide the path calculation into smaller fragments. 

   LBFGS   161      4    0.065746    0.041635   0.002569  59.2551       
   LBFGS   162      4    0.061171    0.036686   0.002350  59.1607       
   LBFGS   163      4    0.057173    0.039588   0.002344  59.0666       
   LBFGS   164      4    0.052334    0.032308   0.002124  58.9933       
   LBFGS   165      3    0.045156    0.023844   0.001809  58.9597       
   LBFGS   166      3    0.045156    0.023843   0.001809  58.9597       
   LBFGS   167      3    0.043138    0.022596   0.001711  58.9713       
   LBFGS   168      3    0.043138    0.022596   0.001711  58.9713       
   LBFGS   169      3    0.041383    0.023948   0.001756  58.9572       
   LBFGS   170      3    0.041383    0.023949   0.001756  58.9572       
   LBFGS   171      3    0.040235    0.026858   0.001805  58.9013       
   LBFGS   172      3    0.039198    0.028032   0.001807  58.8086       
   LBFGS   173      3    0.038190    0.026488   0.001676  58.6899       
   LBFGS   174      3    0.037145    0.027227   0.001599  58.5942       
   LBFGS   175      3    0.035916    0.025035   0.001500  58.4931       
   LBFGS   176      3    0.035916    0.025034   0.001500  58.4931       
   LBFGS   177      3    0.034778    0.023074   0.001432  58.4100       
   LBFGS   178      3    0.033717    0.020607   0.001291  58.3454       
   LBFGS   179      3    0.032829    0.017893   0.001219  58.2935       
   LBFGS   180      3    0.032829    0.017893   0.001218  58.2935       
   LBFGS   181      3    0.032091    0.017416   0.001162  58.2573       
   LBFGS   182      3    0.032091    0.017417   0.001162  58.2573       
   LBFGS   183      3    0.031443    0.016247   0.001113  58.2251       
   LBFGS   184      3    0.030854    0.017119   0.001109  58.2017       
   LBFGS   185      3    0.030349    0.015152   0.001133  58.1809       
   LBFGS   186      3    0.029853    0.016602   0.001222  58.1828       
   LBFGS   187      3    0.029451    0.017001   0.001304  58.2051       
   LBFGS   188      3    0.029073    0.025019   0.001570  58.2354       
   LBFGS   189      3    0.028789    0.030217   0.001996  58.2628       
   LBFGS   190      5    0.032845    0.066511   0.004008  58.3019       
   LBFGS   191      5    0.030550    0.072774   0.004048  58.3065       
   LBFGS   192      5    0.043473    0.152481   0.007572  58.3356       
   LBFGS   193      3    0.028638    0.038240   0.002206  58.2700       
   LBFGS   194      5    0.039257    0.107498   0.005888  58.2853       
   LBFGS   195      3    0.028843    0.048832   0.002537  58.2728       
   LBFGS   196      5    0.040504    0.146248   0.007494  58.3314       
   LBFGS   197      4    0.037102    0.108927   0.005993  58.3232       
   LBFGS   198      4    0.035252    0.099691   0.005045  58.3187       
   LBFGS   199      3    0.030037    0.029754   0.001943  58.3031       
