69
Coordinates from ORCA-job my_molecule_im8 E -2464.548131272030
  Pt          0.40679209104409     -0.85876901954563      0.19410150771819
  O           1.25055524867648      0.01480213182275      1.80113154835370
  O          -2.86968583454037     -1.28778812233191      0.21756648557270
  P           2.42465370991518      1.07791143237414      1.99894364063988
  P          -2.08788608417976     -2.32897892747826     -0.56562916680367
  O          -1.68268634261739     -3.60783855245891      0.43030776971133
  O          -0.68969580028425     -1.87370581996151     -1.20597266089801
  O           1.81866563894696      2.49767303226817      1.34684062641588
  O           3.79580376690179      0.79292791949762      1.41664810652520
  C           2.42574312174482      1.37134565722902      3.83487196426533
  C          -3.01247758008405     -3.10495071908640     -1.97517730105528
  C          -2.17526552995861     -4.23330989856330     -2.60204493301122
  C          -3.30738293090763     -1.99706115840451     -3.00553291425972
  C          -4.32802030574773     -3.65664202811389     -1.39075088994713
  C           1.02306793462519      1.79082229719644      4.30807422585184
  C           2.86863868352517      0.06225193230037      4.51702762796684
  C           3.45231738972972      2.48898045761245      4.10607663327132
  H          -2.17667095367541     -3.47664109645717      1.26419558441968
  H           2.56633267368053      2.92957949143349      0.88799004887275
  H          -1.22870823669185     -3.84605983451139     -3.02744991567319
  H          -2.75008860944007     -4.71787253423414     -3.42015361189908
  H          -1.92339951860183     -5.00906542684875     -1.85193418293154
  H          -2.37225775311368     -1.59370555219082     -3.44198542426427
  H          -3.86331945529157     -1.15746459047690     -2.54125928194406
  H          -3.92638225190883     -2.40704127192666     -3.83164038663420
  H          -4.13358057370099     -4.45633766199582     -0.64775004169712
  H          -4.94850116846743     -4.08938736549432     -2.20369549661268
  H          -4.91010594535380     -2.85564048070290     -0.89317328989459
  H           0.27735911908410      0.99566703527230      4.11268949060695
  H           0.68660007436231      2.71407916695114      3.79547882095326
  H           1.04031276110843      1.99090431430734      5.40075928835278
  H           2.14675189048853     -0.75623843814283      4.32630331561840
  H           2.93507700605787      0.21568229131871      5.61517707790267
  H           3.86448417620275     -0.26226200114953      4.15405316680393
  H           3.14718039491243      3.44105271422604      3.62619085853454
  H           4.45409627370892      2.21212255798860      3.72194587707534
  H           3.53179678903897      2.66948968979534      5.19882188277949
  Si          2.37907663159746     -1.66670630635314     -0.88292966138366
  C           3.26027396117205     -0.20590230849804     -1.68694673834248
  C           3.40686224333937     -2.41666888244895      0.51185578786995
  C           1.91551718202925     -2.97184437672058     -2.16541371652469
  H           3.59723162551785      0.49294979273426     -0.89484290372801
  H           2.62447186822320      0.31885580268996     -2.42746516983321
  H           4.15652460245531     -0.59231077983632     -2.21916435244432
  H           2.83278764900463     -3.14023833104147      1.12445273794390
  H           3.79417065123447     -1.60042561207674      1.15359488464847
  H           4.26436032579165     -2.95937013805434      0.05739202292610
  H           1.36992323452156     -3.81882822933105     -1.70654179898086
  H           2.85546782324713     -3.35725081465620     -2.61721792263432
  H           1.28080752541562     -2.55019043958472     -2.96804968021644
  H          -2.05795297711343      0.83073712549052     -0.05677824389363
  C          -0.03587366826828      0.87220880221304     -0.84512072775476
  C          -1.17829102745669      1.51064753517824     -0.12207094263948
  H          -0.27700232102757      0.50984784967908     -1.86423793299931
  H           0.90102900042510      1.45972151098705     -0.81904947566282
  Si         -1.78414583905706      3.13282227524075     -0.97746355021247
  H          -0.88044079331060      1.81990927800806      0.90200472902854
  C          -0.33422597225308      4.34930870127353     -1.07894474150525
  C          -3.16297372049065      3.83573526125926      0.11179954593673
  C          -2.44669178900509      2.73534564129392     -2.70754701918001
  H           0.16115385717695      4.43776568035255     -0.09005752186245
  H          -0.67375306886582      5.35865453777289     -1.39076796619861
  H           0.42813188580912      4.01036521345111     -1.81058912915491
  H          -2.78948441805227      4.07095516493027      1.12953538831544
  H          -3.99846742335794      3.11342233966857      0.21465665949008
  H          -3.57130088233982      4.77104642693701     -0.32474182443589
  H          -1.65085986174797      2.33591411501320     -3.36945175096906
  H          -2.85848734820307      3.64529207260369     -3.19161125191156
  H          -3.25795282560041      1.97969947030623     -2.65933378437729
