69
Coordinates from ORCA-job my_molecule_im0 E -2464.517687869945
  Pt          1.05499905797103     -1.31229498550726     -0.37534702898550
  O           1.38030105797101      0.07625001449274      1.05546897101450
  O          -1.24102094202899     -1.26970198550726     -0.55748302898550
  P           2.75491005797101      0.91195101449275      0.97361397101450
  P          -1.14389894202899     -2.29515198550724     -1.72761602898551
  O          -1.98767994202899     -3.66434298550724     -1.39888702898551
  O           0.41347905797102     -2.61670898550724     -1.88656402898551
  O           2.52970205797101      1.97299801449274     -0.29431302898550
  O           4.04631805797101      0.13928301449274      0.77451497101450
  C           2.70762005797101      1.98244901449274      2.49146497101449
  C          -1.85399794202899     -1.78749598550726     -3.34909602898551
  C          -1.53476994202899     -2.89060998550724     -4.37935402898551
  C          -1.17197394202899     -0.45981698550726     -3.73933802898551
  C          -3.37553794202899     -1.59683698550726     -3.19523302898551
  C           1.41592505797101      2.81749901449276      2.52600797101449
  C           2.79438105797101      1.06022501449274      3.72304597101449
  C           3.94799005797101      2.89563501449276      2.41852497101449
  H          -1.90518894202899     -3.87894998550724     -0.44696102898550
  H           3.33273005797101      1.90846001449274     -0.84885902898550
  H          -0.44269394202898     -3.05150898550724     -4.47417402898551
  H          -1.92762094202899     -2.58566798550724     -5.37190402898551
  H          -2.00726094202899     -3.85442298550724     -4.10505302898551
  H          -0.07459494202898     -0.58032398550725     -3.83789702898551
  H          -1.36895294202899      0.33867401449274     -2.99624902898551
  H          -1.56697894202899     -0.12186398550726     -4.71987402898551
  H          -3.87619494202899     -2.54124498550724     -2.90636802898551
  H          -3.79958094202899     -1.26240998550726     -4.16518302898551
  H          -3.61550894202899     -0.82691098550725     -2.43553702898551
  H           0.51804805797102      2.17334201449276      2.59803597101449
  H           1.30991205797101      3.44552001449276      1.61988397101449
  H           1.43344605797101      3.48798501449276      3.41185897101449
  H           1.90847305797101      0.39858701449274      3.79257097101449
  H           2.83645505797101      1.67721101449274      4.64572897101449
  H           3.70254605797101      0.42566101449274      3.69205297101449
  H           3.89805005797101      3.57173701449276      1.54139397101449
  H           4.87908005797102      2.29930601449276      2.34535597101449
  H           4.00252405797101      3.52438501449276      3.33216497101449
  Si          2.00961405797101     -3.19728298550724      0.70029497101450
  C           3.08173905797101     -4.11252498550724     -0.55302502898550
  C           2.98733005797101     -2.65458998550724      2.20890397101449
  C           0.50799805797102     -4.25701598550725      1.18008297101449
  H           4.00121905797101     -3.54044398550724     -0.78831902898550
  H           2.51733605797101     -4.28599298550725     -1.49026602898551
  H           3.38338005797101     -5.09581998550725     -0.13272702898550
  H           2.33080705797101     -2.20242298550724      2.97778397101449
  H           3.74401805797101     -1.90098298550726      1.90851897101449
  H           3.49338705797101     -3.54065798550724      2.64872797101449
  H          -0.21800494202899     -3.68566498550724      1.79310697101449
  H           0.85509805797103     -5.12435498550725      1.78212397101449
  H           0.00678005797102     -4.65013798550725      0.27285297101450
  H           2.58378205797101     -1.28017098550726     -0.61436002898550
  C          -0.60331994202897      3.57221001449276     -1.07825702898551
  C          -1.18980794202899      2.63934701449276     -0.29840602898550
  H           0.44397405797102      3.46568001449276     -1.41275902898551
  H          -1.13449794202899      4.48533801449275     -1.40306002898551
  Si         -2.94293694202899      2.69751101449276      0.39929297101450
  H          -0.57419194202897      1.76172001449274     -0.01717602898550
  C          -3.78473294202899      4.33268901449275     -0.06670002898550
  C          -2.83692594202899      2.53641001449276      2.28876697101449
  C          -3.92792494202899      1.22819601449274     -0.28974102898550
  H          -3.22867094202899      5.20240701449275      0.34013397101450
  H          -4.81739794202898      4.37380801449275      0.33764297101450
  H          -3.85068994202899      4.45586001449275     -1.16759002898551
  H          -2.26836894202899      3.37980401449276      2.73189397101449
  H          -2.32061894202899      1.59546901449274      2.57151197101449
  H          -3.84594194202899      2.52165101449276      2.75126797101449
  H          -4.12764694202899      1.36536401449274     -1.37283702898551
  H          -4.90407194202898      1.11115801449274      0.22545597101450
  H          -3.34414594202899      0.29254801449274     -0.16353802898550
