69
Coordinates from ORCA-job my_molecule_im6 E -2464.489293855639
  Pt          0.68993546253282     -0.85290098089404      0.00796012707284
  O           1.40676877150549      0.03086916665795      1.67568371751084
  O          -2.44268856306313     -0.85772674952830     -0.43369495051530
  P           2.70031698153847      0.95894838113202      1.72786181637404
  P          -1.79402146076737     -2.07550969105159     -1.11594773872784
  O          -1.94056011883434     -3.42759821350015     -0.16415233419409
  O          -0.27257998976952     -1.85228484626519     -1.52348617950380
  O           2.30739993848892      2.28952610874675      0.77409007564439
  O           4.04610309466752      0.42477920955575      1.29686381270673
  C           2.65154017720547      1.63440036257790      3.45940904254584
  C          -2.67588492332222     -2.61635626503394     -2.65172794519608
  C          -2.01353651568063     -3.85865544423282     -3.27738651171666
  C          -2.59148398551312     -1.41913047732159     -3.62069115497095
  C          -4.14272278783524     -2.90725038888342     -2.27624324495426
  C           1.28044168259567      2.27961513893023      3.73014589737374
  C           2.90203927409776      0.46189414285287      4.42764121527129
  C           3.78197907086406      2.67416639373227      3.56671671158309
  H          -1.71862095811825     -3.20591238534676      0.75774177056765
  H           3.09914757164914      2.43819970908634      0.22021734084628
  H          -0.95413315083525     -3.66678388684154     -3.53879300696258
  H          -2.55276209542969     -4.12959911958864     -4.21079824811498
  H          -2.05059490490851     -4.73106320797548     -2.59580578635828
  H          -1.53845106832743     -1.19728090091916     -3.88637068701098
  H          -3.03575211353950     -0.50858621872909     -3.17059937264302
  H          -3.14646604828910     -1.65067622612178     -4.55301174610093
  H          -4.21994269761653     -3.77970272418549     -1.59790820429023
  H          -4.72622319830456     -3.12737750130327     -3.19483328232945
  H          -4.60620816824043     -2.03746124180036     -1.76924679206202
  H           0.46582861802880      1.53284553170261      3.65370364663511
  H           1.07319061042533      3.09490258391769      3.00760619874918
  H           1.26221044513255      2.71432275977037      4.75223260907481
  H           2.10226810511098     -0.30092963805052      4.35030359036318
  H           2.92458777742300      0.83647233808867      5.47343980252428
  H           3.87176015089882     -0.03257347949820      4.21844232037229
  H           3.60971712749100      3.52288920344575      2.87424501703068
  H           4.76120386431013      2.21934891762964      3.31786992682069
  H           3.83120875727626      3.07712389228124      4.60025366900676
  Si          2.46433117015601     -2.43822769153543     -0.21955868556722
  C           3.67789469440616     -1.69976698980664     -1.46060647013220
  C           3.32273172109514     -2.73539077404413      1.44425756008372
  C           1.76631083652599     -4.09715266028674     -0.82987399564107
  H           4.09902663108596     -0.77217484548201     -1.02410704703736
  H           3.18766525536187     -1.47659543190086     -2.42844676411764
  H           4.50747408069813     -2.41699708930247     -1.64134496077059
  H           2.62017999549554     -3.04274126040942      2.24392964382798
  H           3.85794845383412     -1.81493773299513      1.74958473080558
  H           4.06474004560888     -3.55432319048017      1.30788157631460
  H           1.00238688291488     -4.50395075319335     -0.13711238859842
  H           2.60063956802956     -4.83162020517852     -0.88426845765323
  H           1.30332707062733     -4.00494293996680     -1.83019589960550
  H          -1.55597406044839      0.68661546656718     -0.21906762832795
  C          -0.00845747565545      1.56283313970109     -1.28426396410161
  C          -0.97066254398000      1.74760818433137     -0.25208138425358
  H          -0.34881825308147      1.19663283107834     -2.26849166457151
  H           1.00399948970188      2.00701329660958     -1.26779052157799
  Si         -2.44398867528039      3.11648095577911     -0.45175844207546
  H          -0.46046916021974      2.12984756776428      0.67056909391852
  C          -1.89664744564887      4.89922262341128     -0.85974673489435
  C          -3.25166803082583      3.15705477274115      1.25368878105752
  C          -3.60993265432751      2.48316131340558     -1.77893626034656
  H          -1.20452360608585      5.33043358073767     -0.10834188312962
  H          -2.80903644714416      5.54220982625475     -0.85416311449581
  H          -1.43562838598089      5.00816639101892     -1.86155257954368
  H          -2.55789240766546      3.56290158780045      2.01824177477691
  H          -3.56368469926366      2.14195407426869      1.56580522577570
  H          -4.15079015229049      3.81054582882289      1.23922111704413
  H          -3.13676417310162      2.50706021885197     -2.78146301982677
  H          -4.52700429946003      3.10636085830175     -1.81749367502023
  H          -3.89172815792896      1.43777479409892     -1.54424508473856
