51
Coordinates from ORCA-job my_molecule E -1977.868384801809
  Pt         -0.45785592443211     -0.34822432458932      0.59020958799400
  O           1.08888408183616     -1.24647191282509      1.51648517338388
  O          -2.21717204218749      0.26466827558982     -0.44416313219944
  P           2.47327374340081     -0.42933608663302      1.48131627585360
  P          -2.47694249377934     -1.21005640569553     -0.94503694889836
  O          -3.94672717280284     -1.76363896784485     -0.50690501989386
  O          -1.31534841922696     -2.04507459895666     -0.25261812420802
  O           2.90921400930101     -0.23182723594267     -0.09900141763274
  O           3.55454753181783     -1.02301185530966      2.35200346689163
  C           1.95174818547007      1.31088523123916      1.90071243649917
  C          -2.52675178894592     -1.39677296789793     -2.77181997046212
  C          -2.70595514333436     -2.89202357036923     -3.10448495143621
  C          -1.17722517053857     -0.87546360642775     -3.30845874852590
  C          -3.69620953605591     -0.55294044111689     -3.31799916747493
  C           0.67997231393681      1.60266025006739      1.09031973388578
  C           1.66682037075559      1.34713261802162      3.41410759281163
  C           3.05692544887856      2.31369035698453      1.52837184095386
  H          -4.04619635275454     -1.75289079737746      0.46742475532645
  H           3.45345749864774     -1.00681524576251     -0.38746276495361
  H          -1.89066083730349     -3.50364335804810     -2.66894838032019
  H          -2.68251748652764     -3.02349521847017     -4.20629872980018
  H          -3.67287230132761     -3.28175865469021     -2.73065791139219
  H          -0.32545026826801     -1.45240174205351     -2.89719101315117
  H          -1.02628535010376      0.19268477732910     -3.05676229979375
  H          -1.16273524291764     -0.97696712096168     -4.41323504098338
  H          -4.67293270582205     -0.91664280788171     -2.94379489478398
  H          -3.70394978540183     -0.61726527417832     -4.42599204282777
  H          -3.59008056405811      0.51456591320807     -3.03861989347804
  H          -0.28875176089983      1.00091772081105      1.58663959126733
  H           0.84941389831719      1.64065800011095     -0.00383499129643
  H           0.21265342673359      2.57519393204430      1.37155142461497
  H           0.86169561897674      0.63859200207021      3.69640347426021
  H           1.35995926993453      2.36907356758866      3.72278534268446
  H           2.57316788102153      1.06322188228293      3.98319031206456
  H           3.27989412466930      2.28941974176171      0.44440795160960
  H           3.99011836121063      2.06735683461094      2.07376736403761
  H           2.75796895312529      3.34599935340435      1.81026308847965
  Si          5.29594002747092     -3.19692514355043      0.04997406395860
  C           6.46746537649202     -1.96079254852714      0.86445457012249
  C           4.35272466289933     -4.19917968188703      1.33846667674382
  C           6.20021718431687     -4.30510951946304     -1.19563359186645
  H           5.87315951314636     -1.31252348395137      1.54121239778882
  H           6.99157107143081     -1.32778003976534      0.11946850640795
  H           7.23533749156168     -2.48682971470675      1.46914817979154
  H           3.61912892574521     -4.88727880796862      0.87168988181265
  H           3.81291113389151     -3.49508562302919      2.00461718327677
  H           5.04999500760732     -4.80390401088799      1.95504602630888
  H           5.50113412119998     -5.00885582924568     -1.69223008271001
  H           6.98050390032179     -4.90744578246620     -0.68482361946241
  H           6.69855878717734     -3.70476020555248     -1.98434914021781
  H           4.27019054959296     -2.40606070709088     -0.76190429336090
