69
Coordinates from ORCA-job my_molecule E -2464.527213187564
  Pt         -0.80311484878954     -0.67464523047040      1.75481788744699
  O          -1.18919699514450      0.87738833934806      3.11182638589033
  O          -2.51051004390243     -1.88738005917712      1.67002851229602
  P           0.26426318911951      1.47419196525327      2.94206370523118
  P          -1.88269924890395     -2.79545740159201      0.53920014972053
  O          -1.86580006580400     -4.37433126245119      0.95875694386692
  O          -0.42008188730865     -2.21400158655017      0.38213461930137
  O           0.21789984200122      3.04424050763959      2.49098372616911
  O           0.90888758777198      0.54192405498738      1.83706727416834
  C           1.24149691342017      1.56005161806750      4.49785302713995
  C          -2.85929904084141     -2.83523360848621     -1.01903703266944
  C          -2.11526903684170     -3.71188503911545     -2.04699045214736
  C          -2.96563568992684     -1.37933229074463     -1.51748539261270
  C          -4.25645950909948     -3.40526587871309     -0.69941062311648
  C           0.46812965744036      2.43029214178148      5.50900580751363
  C           1.38202650440706      0.11397363764087      5.01587910557249
  C           2.62440006203013      2.16245493227164      4.17735611250866
  H          -1.35884599641415     -4.49764135061108      1.78753819516385
  H          -0.36204751584812      3.16913364259764      1.70808624417551
  H          -1.10047459272388     -3.31864509267453     -2.25814924014062
  H          -2.68509103786772     -3.71606384220441     -2.99975831715716
  H          -2.01980927911897     -4.75868671111741     -1.69814448709501
  H          -1.96560032398463     -0.94457538548980     -1.71412926425121
  H          -3.48107174563336     -0.73438983395687     -0.77868725132200
  H          -3.54607899632527     -1.36122168234419     -2.46311468307885
  H          -4.19836789888683     -4.45176342160866     -0.34195298992239
  H          -4.87739036860167     -3.38731396578075     -1.61947424382503
  H          -4.77181737684105     -2.80031666024857      0.07333908857372
  H          -0.54257333057620      2.01894316114630      5.70358017115608
  H           0.35790226161205      3.47246114759801      5.15097892104478
  H           1.02170760937537      2.45082185378406      6.47096585847761
  H           0.39270545317848     -0.34335270507642      5.21492325758212
  H           1.95885543027371      0.12215618141282      5.96394884855810
  H           1.91693029771232     -0.52672040388756      4.28757281844856
  H           2.54185653181780      3.20308887413931      3.80762765186829
  H           3.16098664425948      1.56267153795694      3.41494968598428
  H           3.24082252596504      2.17180409110842      5.10066891743367
  Si          2.79724915059568     -0.08537786682524     -2.32437615208087
  C           4.13344879309226     -0.08809501908627     -3.67738940225118
  C           3.62130405266108     -0.14114769497984     -0.61671535415636
  C           1.67232219020255     -1.59982711134959     -2.53769208022683
  H           4.79610291025190      0.79856803420194     -3.59304019682193
  H           3.68191337813818     -0.07503284716138     -4.69143367475962
  H           4.77371129677230     -0.99227742119900     -3.60753154654668
  H           2.86868624884867     -0.05823273015173      0.19508137693906
  H           4.34671988163554      0.69116163467300     -0.49889062571155
  H           4.17434288332566     -1.09275722988518     -0.47258700514314
  H           0.98347843512314     -1.70547489181067     -1.67341973723955
  H           2.27688417569189     -2.52906670159651     -2.59843593300067
  H           1.06914590883710     -1.53010669027894     -3.46746605421897
  H          -0.22197974896781      0.81910691552056     -1.91596524019745
  C           1.77587297343926      1.52419505296899     -2.48291697851968
  C           0.51527388514170      1.58804438949156     -1.59173178919489
  H           1.50336757453920      1.66228097768625     -3.55375248107563
  H           2.46682774943755      2.36655867408864     -2.24791436258950
  Si         -0.37601344550074      3.26674066527998     -1.52962449496631
  H           0.76048501694728      1.31531275117352     -0.54048302363116
  C           0.77180262552919      4.57284767233346     -0.75931185015913
  C          -1.95026858399621      3.09310740612006     -0.46642075459875
  C          -0.88219704082566      3.83866538077786     -3.26724147216677
  H           1.10110370464314      4.28675002421763      0.26144989896140
  H           0.27287755233181      5.56207207792666     -0.69251959758219
  H           1.68743485543502      4.70283134660591     -1.37284520890560
  H          -1.77996678999971      2.57395011970289      0.50278472437869
  H          -2.70114004064351      2.47121137221444     -0.99777276462292
  H          -2.42287479840504      4.07508011957661     -0.25598317138981
  H           0.00437107981038      3.94535585755367     -3.92593555401554
  H          -1.39769521240761      4.82105575576016     -3.23688461006453
  H          -1.57041634268457      3.11051570201765     -3.74487382239579
