69
Coordinates from ORCA-job my_molecule E -2464.527206971876
  Pt     -0.805223     -0.672734      1.753627
  O      -1.189406      0.878225      3.112417
  O      -2.513030     -1.884724      1.669074
  P       0.264007      1.474807      2.941603
  P      -1.885652     -2.793433      0.538399
  O      -1.869147     -4.372158      0.958353
  O      -0.422982     -2.212225      0.381195
  O       0.217536      3.045149      2.491585
  O       0.907464      0.542815      1.835605
  C       1.243208      1.559008      4.495987
  C      -2.862436     -2.833283     -1.019544
  C      -2.120510     -3.711571     -2.047457
  C      -2.965666     -1.377635     -1.519953
  C      -4.260564     -3.400370     -0.698914
  C       0.468432      2.424313      5.510500
  C       1.388256      0.112168      5.010633
  C       2.623908      2.166627      4.175712
  H      -1.362944     -4.495252      1.787626
  H      -0.361741      3.170747      1.708312
  H      -1.108572     -3.315189     -2.266103
  H      -2.695370     -3.720747     -2.997123
  H      -2.019591     -4.756907     -1.696030
  H      -1.964041     -0.946231     -1.715828
  H      -3.480656     -0.730288     -0.782850
  H      -3.544423     -1.359928     -2.466660
  H      -4.204390     -4.445690     -0.337548
  H      -4.880501     -3.384958     -1.619721
  H      -4.775815     -2.791370      0.070826
  H      -0.541013      2.010116      5.705299
  H       0.355415      3.467294      5.155712
  H       1.023207      2.444068      6.471846
  H       0.400310     -0.347645      5.210687
  H       1.967415      0.119504      5.957252
  H       1.922480     -0.525808      4.279555
  H       2.537784      3.207903      3.808802
  H       3.162041      1.570193      3.411571
  H       3.241419      2.175112      5.098302
  Si      2.799820     -0.085022     -2.320438
  C       4.135088     -0.087902     -3.674401
  C       3.626708     -0.138550     -0.613960
  C       1.677273     -1.601555     -2.532993
  H       4.796859      0.799614     -3.591723
  H       3.683212     -0.076294     -4.688338
  H       4.777418     -0.990563     -3.603646
  H       2.875425     -0.073821      0.200632
  H       4.339518      0.703882     -0.491544
  H       4.195159     -1.082346     -0.478650
  H       0.986159     -1.706792     -1.670353
  H       2.283633     -2.529833     -2.590319
  H       1.076563     -1.534919     -3.464537
  H      -0.221013      0.817379     -1.915568
  C       1.776505      1.523305     -2.480725
  C       0.515366      1.586701     -1.590202
  H       1.504474      1.660990     -3.551732
  H       2.466058      2.366856     -2.245522
  Si     -0.377288      3.264629     -1.530182
  H       0.760633      1.314603     -0.538908
  C       0.768976      4.572637     -0.760700
  C      -1.951610      3.090275     -0.467067
  C      -0.884072      3.834973     -3.268470
  H       1.096496      4.286815      0.260625
  H       0.268832      5.561320     -0.695489
  H       1.685162      4.702710     -1.373312
  H      -1.779977      2.572786      0.502876
  H      -2.701843      2.466337     -0.996838
  H      -2.425388      4.071834     -0.257366
  H       0.002595      3.941657     -3.927054
  H      -1.399936      4.817144     -3.238023
  H      -1.572201      3.106634     -3.745839
69
Coordinates from ORCA-job my_molecule E -2464.527209799572
  Pt     -0.804588     -0.673296      1.753896
  O      -1.189137      0.877969      3.112221
  O      -2.512395     -1.885427      1.669255
  P       0.264306      1.474540      2.941621
  P      -1.884975     -2.793962      0.538496
  O      -1.868404     -4.372738      0.958312
  O      -0.422313     -2.212709      0.381229
  O       0.217854      3.044833      2.491427
  O       0.907942      0.542516      1.835774
  C       1.243040      1.559120      4.496348
  C      -2.861794     -2.833700     -1.019469
  C      -2.119489     -3.711816     -2.047339
  C      -2.965696     -1.377971     -1.519347
  C      -4.259700     -3.401390     -0.699004
  C       0.468828      2.425930      5.509952
  C       1.386676      0.112450      5.011826
  C       2.624431      2.164993      4.175979
  H      -1.362030     -4.495918      1.787464
  H      -0.361599      3.170344      1.708268
  H      -1.106387     -3.316933     -2.263437
  H      -2.692685     -3.719067     -2.998080
  H      -2.020959     -4.757754     -1.696846
  H      -1.964451     -0.945823     -1.715516
  H      -3.480623     -0.731234     -0.781772
  H      -3.545008     -1.360081     -2.465677
  H      -4.203120     -4.447148     -0.339123
  H      -4.880157     -3.384821     -1.619429
  H      -4.774557     -2.793765      0.071971
  H      -0.541020      2.012648      5.704698
  H       0.356702      3.468729      5.154259
  H       1.023296      2.445820      6.471436
  H       0.398282     -0.346609      5.211495
  H       1.965079      0.119940      5.958913
  H       1.921166     -0.526301      4.281524
  H       2.539508      3.206135      3.808358
  H       3.161918      1.567600      3.412264
  H       3.241693      2.173500      5.098748
  Si      2.799223     -0.084877     -2.321234
  C       4.135223     -0.087774     -3.674472
  C       3.624767     -0.138391     -0.614174
  C       1.676437     -1.601141     -2.533928
  H       4.797094      0.799647     -3.591308
  H       3.683784     -0.076045     -4.688568
  H       4.777068     -0.990766     -3.603606
  H       2.872743     -0.069234      0.199425
  H       4.340309      0.701886     -0.492751
  H       4.189695     -1.083986     -0.476325
  H       0.985763     -1.706505     -1.671055
  H       2.282563     -2.529552     -2.591803
  H       1.075296     -1.533986     -3.465197
  H      -0.221400      0.817763     -1.915827
  C       1.776190      1.523524     -2.481632
  C       0.515183      1.587022     -1.590847
  H       1.504039      1.660919     -3.552645
  H       2.466009      2.366898     -2.246763
  Si     -0.377197      3.265103     -1.530240
  H       0.760540      1.314750     -0.539541
  C       0.769458      4.572653     -0.760561
  C      -1.951385      3.090891     -0.466938
  C      -0.883936      3.835860     -3.268312
  H       1.097439      4.286730      0.260650
  H       0.269598      5.561459     -0.694911
  H       1.685509      4.702714     -1.373385
  H      -1.779951      2.573030      0.502822
  H      -2.701800      2.467398     -0.997013
  H      -2.424921      4.072537     -0.257058
  H       0.002653      3.942604     -3.926972
  H      -1.399713      4.818095     -3.237808
  H      -1.572107      3.107561     -3.745741
69
Coordinates from ORCA-job my_molecule E -2464.527212648499
  Pt     -0.803350     -0.674484      1.754581
  O      -1.188982      0.877428      3.111842
  O      -2.510891     -1.886952      1.669852
  P       0.264500      1.474098      2.941867
  P      -1.883256     -2.795119      0.538991
  O      -1.866451     -4.373982      0.958583
  O      -0.420643     -2.213709      0.381754
  O       0.218134      3.044232      2.491096
  O       0.908780      0.541928      1.836571
  C       1.242068      1.559617      4.497434
  C      -2.860006     -2.834799     -1.019127
  C      -2.116505     -3.712018     -2.046997
  C      -2.965657     -1.378936     -1.517865
  C      -4.257378     -3.404147     -0.699221
  C       0.468767      2.429443      5.509004
  C       1.382865      0.113384      5.014947
  C       2.624842      2.162241      4.176929
  H      -1.359641     -4.497285      1.787457
  H      -0.361687      3.169384      1.708151
  H      -1.101571     -3.319256     -2.258422
  H      -2.686545     -3.716093     -2.999659
  H      -2.021551     -4.758857     -1.698110
  H      -1.965330     -0.944876     -1.714550
  H      -3.480771     -0.733573     -0.779240
  H      -3.546038     -1.360779     -2.463523
  H      -4.199713     -4.450653     -0.341739
  H      -4.878479     -3.385958     -1.619160
  H      -4.772218     -2.798942      0.073650
  H      -0.541863      2.017932      5.703606
  H       0.358379      3.471735      5.151353
  H       1.022521      2.449771      6.470865
  H       0.393615     -0.344128      5.213960
  H       1.959816      0.121341      5.962944
  H       1.917756     -0.527012      4.286359
  H       2.542168      3.203010      3.807623
  H       3.161359      1.562789      3.414226
  H       3.241442      2.171215      5.100129
  Si      2.797770     -0.084963     -2.323550
  C       4.134417     -0.087774     -3.676131
  C       3.621541     -0.139523     -0.615742
  C       1.673757     -1.600137     -2.536578
  H       4.796735      0.799177     -3.592006
  H       3.683235     -0.075299     -4.690335
  H       4.775069     -0.991636     -3.605696
  H       2.868665     -0.059706      0.196127
  H       4.344329      0.694947     -0.497027
  H       4.177527     -1.089592     -0.472596
  H       0.984324     -1.705743     -1.672781
  H       2.278933     -2.529048     -2.596311
  H       1.071257     -1.531330     -3.466863
  H      -0.222006      0.818722     -1.916143
  C       1.775746      1.524053     -2.483098
  C       0.515091      1.587789     -1.591881
  H       1.503257      1.661524     -3.554010
  H       2.466349      2.366804     -2.248474
  Si     -0.376518      3.266302     -1.530014
  H       0.760446      1.315155     -0.540627
  C       0.771037      4.572727     -0.759806
  C      -1.950633      3.092491     -0.466620
  C      -0.882904      3.838016     -3.267673
  H       1.100030      4.286627      0.261066
  H       0.271895      5.561853     -0.693208
  H       1.686797      4.702739     -1.373131
  H      -1.779934      2.573679      0.502711
  H      -2.701418      2.470167     -0.997595
  H      -2.423510      4.074367     -0.256327
  H       0.003623      3.944789     -3.926405
  H      -1.398459      4.820376     -3.237192
  H      -1.571122      3.109844     -3.745270
69
Coordinates from ORCA-job my_molecule E -2464.527213187564
  Pt     -0.803115     -0.674645      1.754818
  O      -1.189197      0.877388      3.111826
  O      -2.510510     -1.887380      1.670029
  P       0.264263      1.474192      2.942064
  P      -1.882699     -2.795457      0.539200
  O      -1.865800     -4.374331      0.958757
  O      -0.420082     -2.214002      0.382135
  O       0.217900      3.044241      2.490984
  O       0.908888      0.541924      1.837067
  C       1.241497      1.560052      4.497853
  C      -2.859299     -2.835234     -1.019037
  C      -2.115269     -3.711885     -2.046990
  C      -2.965636     -1.379332     -1.517485
  C      -4.256460     -3.405266     -0.699411
  C       0.468130      2.430292      5.509006
  C       1.382027      0.113974      5.015879
  C       2.624400      2.162455      4.177356
  H      -1.358846     -4.497641      1.787538
  H      -0.362048      3.169134      1.708086
  H      -1.100475     -3.318645     -2.258149
  H      -2.685091     -3.716064     -2.999758
  H      -2.019809     -4.758687     -1.698144
  H      -1.965600     -0.944575     -1.714129
  H      -3.481072     -0.734390     -0.778687
  H      -3.546079     -1.361222     -2.463115
  H      -4.198368     -4.451763     -0.341953
  H      -4.877390     -3.387314     -1.619474
  H      -4.771817     -2.800317      0.073339
  H      -0.542573      2.018943      5.703580
  H       0.357902      3.472461      5.150979
  H       1.021708      2.450822      6.470966
  H       0.392705     -0.343353      5.214923
  H       1.958855      0.122156      5.963949
  H       1.916930     -0.526720      4.287573
  H       2.541857      3.203089      3.807628
  H       3.160987      1.562672      3.414950
  H       3.240823      2.171804      5.100669
  Si      2.797249     -0.085378     -2.324376
  C       4.133449     -0.088095     -3.677389
  C       3.621304     -0.141148     -0.616715
  C       1.672322     -1.599827     -2.537692
  H       4.796103      0.798568     -3.593040
  H       3.681913     -0.075033     -4.691434
  H       4.773711     -0.992277     -3.607532
  H       2.868686     -0.058233      0.195081
  H       4.346720      0.691162     -0.498891
  H       4.174343     -1.092757     -0.472587
  H       0.983478     -1.705475     -1.673420
  H       2.276884     -2.529067     -2.598436
  H       1.069146     -1.530107     -3.467466
  H      -0.221980      0.819107     -1.915965
  C       1.775873      1.524195     -2.482917
  C       0.515274      1.588044     -1.591732
  H       1.503368      1.662281     -3.553752
  H       2.466828      2.366559     -2.247914
  Si     -0.376013      3.266741     -1.529624
  H       0.760485      1.315313     -0.540483
  C       0.771803      4.572848     -0.759312
  C      -1.950269      3.093107     -0.466421
  C      -0.882197      3.838665     -3.267241
  H       1.101104      4.286750      0.261450
  H       0.272878      5.562072     -0.692520
  H       1.687435      4.702831     -1.372845
  H      -1.779967      2.573950      0.502785
  H      -2.701140      2.471211     -0.997773
  H      -2.422875      4.075080     -0.255983
  H       0.004371      3.945356     -3.925936
  H      -1.397695      4.821056     -3.236885
  H      -1.570416      3.110516     -3.744874
