63
Properties=species:S:1:pos:R:3 image5=T pbc="F F F"
O       -1.56663442       0.63922770       2.65583121
Si       0.03222268       0.49396833       2.68682225
Si      -3.11777364       0.34743964       2.99801737
C        0.72006981       1.98561428       3.48503241
C        0.60450934      -1.02977518       3.44997255
C       -3.69979865       1.72783014       4.22590133
C       -3.24175277      -1.20785446       3.92499184
C        0.51549366       0.55128173       0.93394841
C        1.87297045       0.15834050       0.47306898
C       -4.10952325       0.33018874       1.47680205
C       -5.36690301      -0.25732338       1.35226567
H        0.31308037       2.90746351       3.05222431
H        1.80970708       1.95913482       3.37582920
H        0.46852442       1.95269258       4.55193093
H        1.17544419      -1.71624490       2.79711989
H       -0.05767977      -1.81819098       3.82532434
H        1.29395850      -0.94274936       4.30821240
H       -4.77701870       1.87205976       4.04011313
H       -3.17666878       2.56612299       3.73954109
H       -3.81189862       2.40003918       5.20080123
H       -2.43565731      -1.80741583       4.36413218
H       -3.76682191      -2.05155603       3.43396703
H       -3.79974760      -1.12361701       4.88384276
H        0.20413635       1.52298292       0.53546852
H        2.37083970      -0.61738646       1.05727695
H        2.54466007       1.01906904       0.42519430
H       -3.73667732       0.89556082       0.61677248
H       -6.17714252      -0.16252736       2.08809525
H       -5.83408091      -0.87679320       0.57578111
Si       1.30499783      -0.56986372      -1.41589321
O       -0.01149587      -0.10331272      -2.28753196
O        2.59447133      -0.09445833      -2.34901348
Si       4.26416247      -0.17990354      -2.31432142
Si      -1.62872373       0.02224802      -2.56922890
C       -2.20928534       1.66260581      -1.90103508
C       -2.50823194      -1.40756798      -1.81431988
C        1.17959221      -2.41003125      -1.15179888
H       -0.21775239      -0.17438223       0.50932900
C        4.82167537      -1.62782002      -1.24709133
C        4.95520829       1.42722637      -1.62992706
C        4.72465782      -0.41449043      -4.10731719
C       -1.94381987      -0.09520164      -4.39242565
H       -2.05759465       1.71111597      -0.81567319
H       -3.27235217       1.85493845      -2.10102467
H       -1.62124231       2.47354854      -2.35426160
H       -3.30605059      -1.09280533      -1.14906748
H       -2.09684759      -2.15583192      -1.12064028
H       -3.14650039      -2.11964727      -2.38960158
H        1.97751194      -2.79677301      -0.51321016
H        1.19052583      -2.92550325      -2.11774233
H        0.25706775      -2.70406526      -0.63425367
H        4.52857319      -1.48245869      -0.19865191
H        5.91514669      -1.72794863      -1.26124051
H        4.39539670      -2.57778845      -1.59938686
H        4.74177411       1.53496083      -0.55771605
H        4.54286895       2.30444566      -2.14824129
H        6.04995042       1.45665005      -1.74137495
H        4.24774522      -1.32615349      -4.49738975
H        5.80903077      -0.50428054      -4.25707590
H        4.36406780       0.43302048      -4.70386500
H       -1.05434204       0.24526490      -4.94653227
H       -2.76366901       0.55824575      -4.73492478
H       -2.17817186      -1.07513339      -4.83698792
