19
.geom to .xyz and scaled by factor of 0.529177
P -0.3224231765 -0.0345522152 0.7484350727
O 0.2816363891 1.2931461425 1.5203093574
O 0.4356658046 -1.2723140132 1.4918941730
O -1.8082323482 -0.0031363651 1.0011374736
C 0.0389782668 -0.0117530898 -1.0991651667
C 1.5294720036 0.0316992910 -1.4793103817
C -0.5481432524 -1.2891192711 -1.7343892823
C -0.6731228364 1.2203938707 -1.6911788055
H 1.6092936540 0.0946304500 -2.5768119062
H 2.0768861926 -0.8601834083 -1.1342592803
H 2.0762251055 0.8931338569 -1.0800966049
H -0.1100112160 -2.2101557654 -1.3416808875
H -0.3661216536 -1.2947874265 -2.8224928802
H -1.6281664721 -1.3541976571 -1.5894644868
H -0.1370021196 2.1273693632 -1.3875609348
H -1.7143906521 1.3320823652 -1.3673186806
H -0.6324721012 1.1386737021 -2.7933943471
Pt 2.4648034742 -1.2310275521 1.6156269671
Pt 2.2393359865 1.2478959993 1.6213700344
