69
Coordinates from ORCA-job my_molecule E -2464.502063740090
  Pt          0.64061719343886      0.55967158875860      0.09478403170065
  O           2.10980267426222      1.11824569900855      1.44491760489832
  O           0.31188454940816     -2.37587518709276     -1.76651052156515
  P           3.22933063140282      1.50128647367781      0.36644500648942
  P           0.15623282738663     -0.99902502135777     -2.38104190952247
  O           1.71384305545944     -0.37484673494889     -2.72065762975419
  O          -0.54775329006493      0.15742871735819     -1.53042286287715
  O           2.06866393170008      1.70927875001999     -0.97679394825289
  O           4.30551319433899      0.53666858367876     -0.04332840303206
  C           3.81461192304736      3.22526359034753      0.70379272461095
  C          -0.69612186382289     -0.96588147416346     -4.02834833275192
  C          -0.64575727389875      0.45250699657625     -4.62328632563753
  C          -2.15417100185943     -1.41122401601798     -3.79486400805302
  C           0.03389852342227     -1.97332755114721     -4.93781208143463
  C           2.61978486289394      4.17389244765725      0.89726228356637
  C           4.65870846043481      3.13131246256282      1.99409675394391
  C           4.68941541728821      3.65998397993754     -0.48725269086390
  H           2.34054908669577     -1.09504787233663     -2.49557745954870
  H           2.24127235798934      1.07725741384858     -1.74124076686427
  H          -1.16216393210781      1.18270093536711     -3.97046319779386
  H          -1.14549316605576      0.45740455302126     -5.61512656228340
  H           0.39903474556501      0.79363943003981     -4.76479945488173
  H          -2.69586284706417     -0.69656928978539     -3.14368777064098
  H          -2.19798426213569     -2.41327064577851     -3.32305611199162
  H          -2.68739015736440     -1.46341416629675     -4.76752562376458
  H           1.08379387008077     -1.66605741578386     -5.11760291820677
  H          -0.47919223754696     -2.02926994559100     -5.92088613220628
  H           0.04122139251839     -2.98538669451304     -4.48709938154924
  H           1.97337499288873      3.84615013886897      1.73504570478522
  H           1.99555785270225      4.23419667786711     -0.01636897287354
  H           2.99157031991135      5.19517726796547      1.12551044569447
  H           4.04693681309108      2.79223483258866      2.85429824929972
  H           5.07170127463464      4.13266635947169      2.23916714218240
  H           5.50536537453031      2.42734148439334      1.86997466287801
  H           4.09694525654498      3.72447432381550     -1.42228807413042
  H           5.52090700984818      2.94745578556580     -0.65182112973369
  H           5.11801700882492      4.66468727074448     -0.28672732337686
  Si         -0.61440186299131     -2.38902477791547      2.12542413342679
  C           1.21085810991531     -2.86127736793047      2.15593249277261
  C          -1.37338782388196     -2.40820289224771      3.86025478727551
  C          -1.57695181433977     -3.44460267274695      0.89988647927784
  H           1.81570814343945     -2.13600437737003      2.73750832147283
  H           1.61002539236138     -2.88953170297543      1.12061554437843
  H           1.35180584964329     -3.86740494059749      2.60238609023680
  H          -2.42221904234563     -2.04832767860605      3.86035300974918
  H          -0.78980220856701     -1.78066703515731      4.56448693315053
  H          -1.37657060049881     -3.44663230371746      4.25308836362536
  H          -2.64789906046932     -3.16145198032828      0.85298052635338
  H          -1.52013467720531     -4.51476725451074      1.18935112378219
  H          -1.12701431734156     -3.33001010607573     -0.10984780415156
  H          -2.40927656367570     -0.24931741033849      0.21410725846143
  C          -0.71179196390119     -0.48850969061825      1.54879060711469
  C          -2.14954483057182     -0.03181553967936      1.27124481864364
  Si         -2.58623186178774      1.80036821693769      1.64934965436258
  H          -2.86134696447693     -0.63603010197226      1.88198214291395
  C          -1.92834978281691      2.99207331916554      0.33365972836343
  C          -1.87520646549641      2.25683774932912      3.34953433477632
  C          -4.48123743784399      1.90710790031463      1.69556687887061
  H          -0.81859607300796      2.99868344614368      0.31132748691657
  H          -2.27468809214784      4.02659137532251      0.53870681590263
  H          -2.27603180326395      2.70217410926612     -0.67864370449978
  H          -0.76519882395472      2.24235294808891      3.34147016594565
  H          -2.22118449633412      1.55667323060134      4.13859032550953
  H          -2.19017359943637      3.27875233394530      3.64636595602717
  H          -4.92267023882099      1.61176705664150      0.72078081354726
  H          -4.81592324111754      2.94265164969307      1.91260949118781
  H          -4.91035271118795      1.24449639997304      2.47568231024326
  H          -0.19405783619575      0.00037294293031      2.39868478603725
  H          -0.00899787006962     -0.92612459389330      0.67270511186760
