66
Coordinates from ORCA-job my_molecule_im6 E -2537.128552964132
  O           2.44947076080160     -0.13918986947222     -1.35866748418755
  Si          3.32640227988369      0.89734864721689     -0.35288702123648
  Si          2.51605183067938     -1.46667528995115     -2.42252012753329
  C           2.08240342230684      2.16970404208929      0.35554063976499
  C           1.37078016738963      3.09317799408542     -0.47600668709211
  C           1.43314546539300     -0.94471019775248     -3.86828911898502
  C           0.95972523733231      0.30964500825489     -4.02493897264025
  C           4.17835546084245     -0.04857710027965      1.03886663770804
  C           4.67615040736110      1.75269033931841     -1.37048232580232
  C           4.26161530377596     -1.85803656943175     -3.02725152454749
  C           1.82249364844712     -2.95071712644056     -1.49154680473094
  H           2.31543515038467      2.53957063733172      1.37483434252983
  H           1.43401969672227      3.01997643468375     -1.57973161629199
  H           1.11119037275306      4.10272953589839     -0.10762132730817
  H           1.15908899428219     -1.69928674943708     -4.63049924286960
  H           1.18941820674288      1.10460129962365     -3.29408788376817
  H           0.30776428758028      0.60651726985005     -4.86335449008200
  H           3.46936068689282     -0.59573848361069      1.69108414944259
  H           4.76969662739013      0.64460156055804      1.67398581351549
  H           4.89199782101017     -0.78415602367871      0.61079978408326
  H           4.27496629360528      2.30419596598696     -2.24437780676409
  H           5.38707036069053      0.98849338938362     -1.75195200241846
  H           5.26238811091676      2.46588213200509     -0.75398343314864
  H           4.73124660487531     -1.00360331766525     -3.55398110832511
  H           4.19308995578431     -2.69791749903352     -3.75183537631930
  H           4.92984889080266     -2.18694720548247     -2.20502627354030
  H           0.83095822646397     -2.70679581978962     -1.06242283364062
  H           2.50053715250079     -3.23598745589323     -0.66056902274706
  H           1.70454400160176     -3.83103488688102     -2.15584510058968
  Pt          0.00574948230487      1.67486610338956      0.25087032312570
  O          -1.95212563745585      1.07125257826066      0.00475176532069
  O          -2.97785966573714     -0.21472661551896      2.05452802178350
  P          -1.97761469799345      0.12730597614144     -1.32256414061307
  P          -3.03407195988888      0.82291356516495      3.21351594234152
  O          -3.80293342887863     -0.00182307670697      4.44369194316740
  O          -3.70357191430165      2.16952689547515      2.92312187762625
  O          -0.65193320214498     -0.85677801181080     -1.11678164596320
  O          -1.90122411099988      1.04095815916262     -2.53922274413343
  C          -3.30615242034649     -1.17900083298654     -1.50917090968068
  C          -1.34504166220050      1.09151696280070      3.99967965170121
  C          -1.53757809994581      1.37713333906509      5.50862794569348
  C          -0.70730528712124      2.32192993943487      3.34618827562657
  C          -0.48252488915543     -0.15972459715030      3.78583479865279
  C          -3.18703734591949     -2.31985566988265     -0.48240210696178
  C          -4.70872405107006     -0.54645203972669     -1.45132422584484
  C          -3.04022688568110     -1.71987280484931     -2.93869290863799
  H          -4.65554296156479     -0.32754827315424      4.08879504349511
  H           0.17255929118155     -0.37572469742292     -1.36849667257283
  H          -2.20447778584055      2.24607150433045      5.67642065313507
  H          -0.55237560155639      1.60438393933104      5.96816857944271
  H          -1.97394063810218      0.50288817201819      6.02713082028013
  H          -1.35044691958200      3.21970407239550      3.42397254984981
  H          -0.51937743143877      2.16704385245312      2.22588405473845
  H           0.29250802401769      2.52359173364471      3.78494987814126
  H          -0.95038058920823     -1.05666595782396      4.23750655258481
  H           0.51622762161156     -0.01884155317431      4.25205366184350
  H          -0.33773628748894     -0.36570956008959      2.70456437212821
  H          -3.37142237098529     -1.96056801559247      0.54767051234323
  H          -2.19049324993600     -2.80051000222763     -0.51847134334184
  H          -3.94236215755494     -3.09641069767931     -0.73367049702690
  H          -4.96208326837849     -0.20497811248999     -0.42904024899468
  H          -5.45065025828738     -1.31809262211049     -1.75267489414162
  H          -4.80929812215062      0.30486933778365     -2.15351583302310
  H          -2.02717044752418     -2.16049200591095     -3.02626329334498
  H          -3.13098930316922     -0.91779724705261     -3.69623740534404
  H          -3.78158719272006     -2.51414439897780     -3.16663213587201
