66
Coordinates from ORCA-job my_molecule_im9 E -2537.179431919436
  O           3.26654832721514     -0.73916448306045     -1.45703851659207
  Si          4.30503060757278      0.01537643374413     -0.36843765588824
  Si          2.40871646768054     -0.79088618596317     -2.89685016779511
  C           3.29673558107557      0.43386121198300      1.16907504304027
  C           3.20994424762323      1.65441982620071      1.73810356566107
  C           0.87949306412985      0.30866302917829     -2.73129531134945
  C           0.59432294188772      1.08451558840058     -1.65864777752444
  C           5.65035259433086     -1.22954860332292      0.07341857828486
  C           5.04476752849690      1.57729987164801     -1.12951952685980
  C           3.47058985592699     -0.16973459222100     -4.33026912687646
  C           1.87118500762627     -2.57356434362386     -3.19003075849606
  H           2.73470425403296     -0.39355921984856      1.64601294684257
  H           3.73482094236573      2.53314994508664      1.32273516427568
  H           2.61007897616799      1.84268041086718      2.64676299975958
  H           0.15124647157447      0.32923152347981     -3.56741590461738
  H           1.25060850202305      1.11916644194263     -0.77010681612890
  H          -0.30943807531902      1.71945056881272     -1.62250430042517
  H           5.20730114124358     -2.15142090784706      0.50233942936226
  H           6.35444850077311     -0.80892148450700      0.82056117818528
  H           6.23292593977698     -1.51938215104442     -0.82534763074503
  H           4.25573228450778      2.30040093989947     -1.42115080806056
  H           5.62828243156607      1.32527247311120     -2.03879374310801
  H           5.73194854656331      2.08625403483854     -0.42231890898798
  H           3.80248861288730      0.87482479915688     -4.16196074614678
  H           2.90025443619788     -0.19402040214713     -5.28202185827953
  H           4.37196297702139     -0.80423298052815     -4.45812103874984
  H           1.22094547724391     -2.93121298764396     -2.36630600302091
  H           2.75153500767336     -3.24514904097696     -3.25607253269770
  H           1.29981774958190     -2.66156178027244     -4.13745202241072
  Pt         -2.63834836372761      0.84478563768847      0.55631732799056
  O          -3.41004671727946     -0.29033818743891     -0.73925510255620
  O          -1.83359634170006      1.77874642813642      1.98743790012301
  P          -2.62442818389374     -1.07100989706811     -1.98569203298502
  P          -2.61895589727804      2.60579538173889      3.19867584557584
  O          -3.87119363921034      1.65220140622052      3.66642695751519
  O          -2.98156632719013      3.98690240641146      2.71559521701909
  O          -1.19591568931325     -1.58562616637540     -1.39055606685538
  O          -2.54872830289497     -0.14641454344338     -3.17892892703408
  C          -3.59133496129912     -2.62744302080666     -2.20060394581007
  C          -1.46977170682859      2.48905628827572      4.63601461662998
  C          -2.16515308842854      3.18240713583194      5.82614446834880
  C          -0.19242110441248      3.25661923962031      4.23498556339146
  C          -1.15155959331298      1.01730150813267      4.95705091826985
  C          -3.61310549068104     -3.43386269878903     -0.88930259386428
  C          -5.01529650719581     -2.21273582782193     -2.62391146338721
  C          -2.90400358835119     -3.42365106118402     -3.32987475494694
  H          -4.58601789486258      1.69135205329517      2.99609217497403
  H          -0.50753204784739     -0.87343299171451     -1.50554394009020
  H          -2.43970707799465      4.22700850378518      5.57765379155191
  H          -1.47334143171509      3.20330577673800      6.69405019038196
  H          -3.08489665674954      2.64491797865725      6.13082867844878
  H          -0.42297955297591      4.30494718775201      3.96067066828407
  H           0.31203001086415      2.77835184054292      3.37173788281203
  H           0.51415982122754      3.26653042392824      5.09100986310833
  H          -2.06495489167876      0.44940568736509      5.22118423191702
  H          -0.45570748407924      0.97418145592539      5.82125285901608
  H          -0.66334031384680      0.51077584160686      4.10070691670229
  H          -4.10096698510770     -2.86808752801572     -0.07066831202491
  H          -2.59078723840930     -3.70660816596004     -0.56170752826681
  H          -4.18740075662931     -4.37149996626514     -1.04448095286078
  H          -5.52593816810470     -1.64199124986032     -1.82361636645681
  H          -5.61467507368065     -3.12181441108778     -2.83945126444489
  H          -4.99509983485089     -1.58415893471119     -3.53615212214657
  H          -1.88006746878489     -3.73615731678520     -3.04398077852231
  H          -2.83831847072528     -2.82499516334829     -4.26041037909286
  H          -3.49638338049928     -4.33697298631956     -3.54704729136640
