66
Coordinates from ORCA-job my_molecule_im5 E -2537.119783656796
  O           2.49329031744284     -0.11670763778722     -1.35434805895662
  Si          3.38142665633820      0.92388376434904     -0.37203502621974
  Si          2.52308922281422     -1.44055449480318     -2.41691098728949
  C           2.13600287616100      2.22743266887299      0.29453593558432
  C           1.49311374174856      3.18245154432270     -0.54498813517043
  C           1.41580741222496     -0.90871038972778     -3.83986353299851
  C           0.93726129792510      0.34543318749340     -3.98337475440198
  C           4.22033056889540     -0.03152530358458      1.02166315560111
  C           4.74419016967944      1.74378496178388     -1.40377012546320
  C           4.25285007867764     -1.84528506934039     -3.05678213395028
  C           1.82821795598016     -2.93130939161809     -1.49909419396447
  H           2.31544378653755      2.57146744642523      1.33498105665491
  H           1.65606260973726      3.14289004442201     -1.64072228750836
  H           1.23909784033227      4.18742262750938     -0.16358204727413
  H           1.14078541158321     -1.65880484764035     -4.60629387728084
  H           1.17032414340632      1.13594888785129     -3.24911596830249
  H           0.28287435068972      0.64572090540856     -4.81903268617720
  H           3.50355654197974     -0.58064418512275      1.66354839320007
  H           4.82947574882659      0.63531099396306      1.66740198829478
  H           4.91653375915899     -0.77410578613113      0.57565445381782
  H           4.35174703801428      2.29243849763064     -2.28346673761983
  H           5.43370308796118      0.95755996456348     -1.78049168574354
  H           5.35343156984655      2.45011107989433     -0.80186423265846
  H           4.72530116808769     -0.99251667855733     -3.58365639591061
  H           4.16020445851520     -2.67796943825519     -3.78654937726552
  H           4.93048020461962     -2.19018473703380     -2.24883306896253
  H           0.84082687152046     -2.69389199724941     -1.05709711287564
  H           2.50950160177994     -3.24053871603974     -0.67981801078154
  H           1.70202576999343     -3.79435531836710     -2.18456106893150
  Pt          0.00118897049367      1.80801528298637      0.10674236166481
  O          -1.84064576744855      0.92981064071096      0.36927044717749
  O          -3.44091978444143     -0.37390898332857      2.25456064573999
  P          -1.93801353023122      0.10379964786878     -1.01839602689338
  P          -3.20711542571165      0.75885922464303      3.26871078400508
  O          -3.93774615585853      0.17643728607094      4.65902124547880
  O          -3.75150660500758      2.15999943032389      2.90503119642778
  O          -0.64713903750105     -0.93748486827307     -0.88523373874732
  O          -1.70313452595267      1.14401421718209     -2.14043640401456
  C          -3.29159701703707     -1.16621119496231     -1.43209256128142
  C          -1.42582611764736      1.05064387870040      3.89183982425678
  C          -1.53280924366430      1.41550996972902      5.39671970670453
  C          -0.76862997098671      2.23509488978976      3.16916329303629
  C          -0.59087345971118     -0.21978219193794      3.70732505188972
  C          -3.21768152404774     -2.37873311559666     -0.47835156644494
  C          -4.71240113189908     -0.57354072173292     -1.42693649367481
  C          -2.94573969207010     -1.61997616084754     -2.87864282135085
  H          -4.65630789817026     -0.38959315011082      4.30083324007593
  H           0.12410157969202     -0.49031993823711     -1.30088718075469
  H          -2.17993326699793      2.29892530061829      5.56770397867817
  H          -0.52323017776861      1.63929694958469      5.80196440920264
  H          -1.96205084507804      0.56627242959799      5.96140463546006
  H          -1.38729579964897      3.15324875545904      3.17999291421877
  H          -0.56876753919268      2.02424482986863      2.05187987959486
  H           0.24374071515726      2.43241614153950      3.58203474054114
  H          -1.05621022141504     -1.08665152628593      4.21553453126132
  H           0.41941129383094     -0.06733380492064      4.14770958264373
  H          -0.47067196344251     -0.47075697925999      2.63392101092034
  H          -3.44957992247005     -2.08753065868856      0.56404496482890
  H          -2.22223523614071     -2.86138300278255     -0.50845101455807
  H          -3.96281780888673     -3.13489599269067     -0.81307548673801
  H          -5.02743146259322     -0.25951393518092     -0.41384714254067
  H          -5.41629327806646     -1.36439805208769     -1.77248853207879
  H          -4.81103157950440      0.27835296771331     -2.12829036236787
  H          -1.93264372281330     -2.06099764508106     -2.95413753342641
  H          -3.02235879951668     -0.79140236413352     -3.60927261701601
  H          -3.67476030872960     -2.40528013948017     -3.17640243936542
