66
Coordinates from ORCA-job my_molecule_im4 E -2537.144135847520
  O           2.48564517256784     -0.18396254161462     -1.38305692101646
  Si          3.34163013133496      0.91743318296763     -0.43928229200814
  Si          2.50967326850235     -1.49834841919315     -2.45821407806226
  C           2.08184136043617      2.24663498621048      0.13842399308513
  C           1.44962121997533      3.17770945673495     -0.74165473887682
  C           1.41637481301608     -0.97183861019425     -3.89316682617459
  C           0.92370140397561      0.27774227774652     -4.02182701927691
  C           4.16423059912790      0.02336835804513      1.00637387722608
  C           4.72700333588461      1.72711951583601     -1.44977101938504
  C           4.24659629497889     -1.90492017800973     -3.08342699578683
  C           1.83117736465666     -2.97726667785883     -1.50768732878925
  H           2.25654280706241      2.62138827753526      1.17039523480017
  H           1.55513047296999      3.06494838977933     -1.83661773505235
  H           1.23274953360162      4.20770970164352     -0.40368694432061
  H           1.16457087553006     -1.71294524683093     -4.67619926915873
  H           1.12888142627531      1.05483360173163     -3.26655614505592
  H           0.28142226887877      0.58451530234332     -4.86527489311185
  H           3.44613460562793     -0.51208738933550      1.65833717626893
  H           4.75428165822850      0.72151089048126      1.63654176119322
  H           4.87827904472796     -0.72636794740827      0.60153721388508
  H           4.35848556332433      2.27121382889280     -2.34223639891210
  H           5.43815716518383      0.94719686984875     -1.79688796333744
  H           5.30781269379767      2.44316983796323     -0.83023835601558
  H           4.71764766255088     -1.05374685926818     -3.61449348440244
  H           4.17379963237099     -2.74728172646181     -3.80467960389511
  H           4.91874065470990     -2.23194270154748     -2.26333349998954
  H           0.84764255579107     -2.73807600535622     -1.06005724300537
  H           2.52517264627149     -3.25537507010069     -0.68744703097993
  H           1.69942133793122     -3.86204682735163     -2.16253042797494
  Pt         -0.04613556939076      1.87632534536162     -0.01194975816688
  O          -1.86872774079495      0.91248500077026      0.49782886149200
  O          -3.17898280817921     -0.24153089064980      1.97782873743334
  P          -1.82462842625083      0.03091885685247     -0.85689998313887
  P          -3.18877249049819      0.79004843546642      3.17899095795671
  O          -3.84156015784345     -0.17067462017820      4.38838484848612
  O          -3.94443442580492      2.09702833772178      3.01396185505610
  O          -0.62026245122763     -1.07423412959579     -0.69918526722069
  O          -1.36905299337955      1.13373054772076     -1.88435833542502
  C          -3.22126830413175     -1.10344117152493     -1.35389263744064
  C          -1.46803836956223      1.04140858290199      3.88363822958507
  C          -1.60179049623476      1.31933755239592      5.39826644346847
  C          -0.84113741986665      2.29719684721884      3.24568520646382
  C          -0.61432999266178     -0.21033855256295      3.62747042525376
  C          -3.18203305728867     -2.36665273524005     -0.46202281621614
  C          -4.62395041299618     -0.47412068889966     -1.28233802730494
  C          -2.87243504409507     -1.46602492563564     -2.81793937299196
  H          -4.77161990102248     -0.36182370961332      4.15078181110165
  H           0.23980210656589     -0.58000813282695     -0.72451510312617
  H          -2.24628729543860      2.20118929433125      5.58743519378388
  H          -0.59850397079211      1.52596618544949      5.82902879661297
  H          -2.04332673697623      0.45383355148395      5.92864197635903
  H          -1.53053935733996      3.16404026232322      3.28742430425187
  H          -0.59085979548667      2.14589314629412      2.15758033223375
  H           0.10650692476859      2.55240085048550      3.76567748675591
  H          -1.05943554981665     -1.10293296522045      4.11076194837890
  H           0.40739235848209     -0.06931431151593      4.04202597556429
  H          -0.53652822089638     -0.42207000202483      2.54302425408198
  H          -3.43902749387439     -2.12425812985107      0.58692460323915
  H          -2.19281691168474     -2.85922708014450     -0.48295329922768
  H          -3.93041471769108     -3.08443203945162     -0.86035364330077
  H          -4.91739725028923     -0.23760553852960     -0.24175624142012
  H          -5.33716322952381     -1.23074363953875     -1.67804886032286
  H          -4.72612205808415      0.43235204295498     -1.91039715518297
  H          -1.85277207065724     -1.88907244382363     -2.90202086796006
  H          -2.94123653998515     -0.58450297615989     -3.48538685263103
  H          -3.59447769934149     -2.23143443397352     -3.17062706835237
