66
Coordinates from ORCA-job my_molecule_im7 E -2537.144811089865
  O           2.41297568911702     -0.16721012355625     -1.37436134154020
  Si          3.24063357531320      0.86049509645595     -0.34244768528359
  Si          2.50218253543122     -1.49640933671213     -2.44072397444149
  C           1.89779132989052      2.05327464346904      0.39136245273489
  C           1.08158181021682      2.91645508661858     -0.37202726000669
  C           1.44223446385855     -0.97013412611726     -3.89642873638854
  C           0.96978258686711      0.28355533496823     -4.05555499515113
  C           4.13219488371692     -0.04686134698314      1.05052582778171
  C           4.59332370986840      1.76936382605141     -1.33254103947425
  C           4.26314783580211     -1.86920072990510     -3.01340592681615
  C           1.81732171215643     -2.96877723258903     -1.48927099184727
  H           2.17588746705107      2.44749890877295      1.39380626454460
  H           1.05753869383725      2.80673518658963     -1.47380133289211
  H           0.87283285696338      3.94787108860339     -0.03005613358492
  H           1.16762925543939     -1.72593641771542     -4.65649319596755
  H           1.19450799627321      1.07919915636701     -3.32333783510445
  H           0.31566427665029      0.58059286485608     -4.89116816018129
  H           3.44431318689882     -0.60280539665407      1.71659781706898
  H           4.71874303008088      0.66499279685471      1.67009579406741
  H           4.85918588923873     -0.77040299400943      0.62306379150077
  H           4.21536439369528      2.31399307096030     -2.22064603425903
  H           5.30891675059542      1.00008353680061     -1.70360454854902
  H           5.18705475812916      2.47773636426928     -0.71765618262454
  H           4.73088763933587     -1.01429728268202     -3.54138123866668
  H           4.21146082166032     -2.71336760791039     -3.73456880080643
  H           4.92536979989572     -2.18842890619854     -2.18246136310428
  H           0.82470958932561     -2.71569146707214     -1.06793992077859
  H           2.49675936846952     -3.23483833466178     -0.65283823744624
  H           1.70246037333379     -3.86106033491289     -2.13699065528786
  Pt         -0.38390833549605      1.52057211015807      0.76616008030442
  O          -1.80084135128828      1.31920711637744     -0.54200594081449
  O          -2.28176312924264      0.29272716013669      1.76550223921603
  P          -1.92540849039469      0.12477934596538     -1.61626501636170
  P          -2.83654526079627      0.93940001630487      3.11842782215142
  O          -3.58541188486437     -0.24715342067143      4.00572441831071
  O          -3.69018502433140      2.18008530801048      3.00985487874003
  O          -0.63553750736629     -0.84688701343549     -1.26649062294864
  O          -1.95309947536145      0.85740319761363     -2.94176264728880
  C          -3.29428416241092     -1.16719422136836     -1.56268794425352
  C          -1.26026141873493      1.12534165694506      4.09249078340101
  C          -1.54379105501277      1.35752823464065      5.58405232552423
  C          -0.59917520160224      2.38692000827215      3.54389868649316
  C          -0.39588794452712     -0.12716544354077      3.86763840561140
  C          -3.14990570198115     -2.26142139733821     -0.49082534246986
  C          -4.68507503197086     -0.51483620591349     -1.46318468573030
  C          -3.09479774878212     -1.77950072260855     -2.97428200241123
  H          -4.55456115745790     -0.18068079635605      3.93868970708254
  H           0.21068422714844     -0.34873419850757     -1.33788078381923
  H          -2.22552994290333      2.21837281009183      5.73148494057554
  H          -0.58873595681706      1.57379310264224      6.10683316113355
  H          -2.00513625067868      0.46294437256399      6.04312902458278
  H          -1.28378898564687      3.25959048727778      3.57749255758924
  H          -0.37308306018078      2.32242694513081      2.41541522251971
  H           0.37741571305580      2.60489749459344      4.01105559970338
  H          -0.89599617573850     -1.03203544546169      4.26702996680193
  H           0.59282941351060     -0.01843857263672      4.35750892533917
  H          -0.23731656174243     -0.30711524759409      2.78248419917064
  H          -3.31731277224089     -1.87520439373599      0.53361241472279
  H          -2.15888212012202     -2.75223922437008     -0.52431849849974
  H          -3.91511703004117     -3.04355162198694     -0.69710122817552
  H          -4.90712810752238     -0.16975027215547     -0.43383609109990
  H          -5.44712915956020     -1.27695534892971     -1.73840051064635
  H          -4.79936864449392      0.33884620050523     -2.15932961868869
  H          -2.07939784540325     -2.21440896227564     -3.07136748560536
  H          -3.19907643801496     -0.99637103380046     -3.74778364761656
  H          -3.83994670009894     -2.58161734850062     -3.14670965003989
