
                                 *****************
                                 * O   R   C   A *
                                 *****************

                                            #,                                       
                                            ###                                      
                                            ####                                     
                                            #####                                    
                                            ######                                   
                                           ########,                                 
                                     ,,################,,,,,                         
                               ,,#################################,,                 
                          ,,##########################################,,             
                       ,#########################################, ''#####,          
                    ,#############################################,,   '####,        
                  ,##################################################,,,,####,       
                ,###########''''           ''''###############################       
              ,#####''   ,,,,##########,,,,          '''####'''          '####       
            ,##' ,,,,###########################,,,                        '##       
           ' ,,###''''                  '''############,,,                           
         ,,##''                                '''############,,,,        ,,,,,,###''
      ,#''                                            '''#######################'''  
     '                                                          ''''####''''         
             ,#######,   #######,   ,#######,      ##                                
            ,#'     '#,  ##    ##  ,#'     '#,    #''#        ,####,    ,#,          
            ##       ##  ##   ,#'  ##            #'  '#       #'       ,# #          
            ##       ##  #######   ##           ,######,      #####,      #          
            '#,     ,#'  ##    ##  '#,     ,#' ,#      #,     #,   #      #          
             '#######'   ##     ##  '#######'  #'      '#     '####' #    #          



                #########################################################
                #                        -***-                          #
                #          Department of theory and spectroscopy        #
                #                                                       #
                #                      Frank Neese                      #
                #                                                       #
                #     Directorship, Architecture, Infrastructure        #
                #                    SHARK, DRIVERS                     #
                #        Core code/Algorithms in most modules           #
                #                                                       #
                #        Max Planck Institute fuer Kohlenforschung      #
                #                Kaiser Wilhelm Platz 1                 #
                #                 D-45470 Muelheim/Ruhr                 #
                #                      Germany                          #
                #                                                       #
                #                  All rights reserved                  #
                #                        -***-                          #
                #########################################################


                         Program Version 6.1.1  -  RELEASE   -
                                (GIT: $487d211c$)
                          ($2025-11-21 10:33:24 +0100$)


 With contributions from (in alphabetic order):
[Max-Planck-Institut fuer Kohlenforschung]                               
  Daniel Aravena         : Magnetic Suceptibility                        
  Michael Atanasov       : Ab Initio Ligand Field Theory (pilot matlab implementation)
  Alexander A. Auer      : GIAO ZORA, VPT2 properties, NMR spectrum      
  Ute Becker             : All parallelization in ORCA, NUMFREQ, NUMCALC 
  Giovanni Bistoni       : ED, misc. LED, open-shell LED, HFLD           
  Dmytro Bykov           : pre 5.0 version of the SCF Hessian            
  Marcos Casanova-Páez   : Triplet and SCS-CIS(D). UHF-(DLPNO)-IP/EA/STEOM-CCSD. UHF-CVS-IP/STEOM-CCSD   
  Vijay G. Chilkuri      : MRCI spin determinant printing, contributions to CSF-ICE 
  Pauline Colinet        : FMM embedding                                 
  Dipayan Datta          : RHF DLPNO-CCSD density                        
  Achintya Kumar Dutta   : EOM-CC, STEOM-CC                              
  Nicolas Foglia         : Exact transition moments, OPA infrastructure, MCD improvements    
  Dmitry Ganyushin       : Spin-Orbit,Spin-Spin,Magnetic field MRCI      
  Miquel Garcia-Rates    : C-PCM and meta-GGA Hessian, CCSD/C-PCM, Gaussian charge scheme 
  Tiago L. C. Gouveia    : GS-ROHF, GS-ROCIS                             
  Yang Guo               : DLPNO-NEVPT2, F12-NEVPT2, CIM, IAO-localization        
  Andreas Hansen         : Spin unrestricted coupled pair/coupled cluster methods 
  Ingolf Harden          : AUTO-CI MPn and infrastructure                
  Benjamin Helmich-Paris : MC-RPA, TRAH-(SCF,CASSCF), AVAS, COSX integrals, SCF dyn. polar., MC-PDFT, srDFT 
  Lee Huntington         : MR-EOM, pCC                                   
  Robert Izsak           : Overlap fitted RIJCOSX, COSX-SCS-MP3, EOM     
  Riya Kayal             : Wick's Theorem for AUTO-CI, AUTO-CI UHF-CCSDT 
  Emily Kempfer          : AUTO-CI RHF CISDT and CCSDT, approximate NEVPT4
  Christian Kollmar      : KDIIS, OOCD, Brueckner-CCSD(T), CCSD density, CASPT2, CASPT2-K, improved NEVPT2 
  Axel Koslowski         : Symmetry handling                             
  Simone Kossmann        : meta-GGA functionals, TD-DFT gradient, OOMP2, (MP2 Hessian; deprecated post 5.0) 
  Lucas Lang             : DCDCAS, Hyperfine gauge corrections, ICE-SOC+SSC
  Marvin Lechner         : AUTO-CI (C++ implementation), FIC-MRCC        
  Spencer Leger          : CASSCF response                               
  Dagmar Lenk            : GEPOL surface, SMD, ORCA-2-JSON               
  Dimitrios Liakos       : Extrapolation schemes; Compound Job, Property file
  Dimitrios Manganas     : Further ROCIS development; embedding schemes. LFT, Crystal Embedding 
  Dimitrios Pantazis     : SARC Basis sets                               
  Anastasios Papadopoulos: AUTO-CI, single reference methods and gradients 
  Taras Petrenko         : pre 6.0 DFT Hessian and TD-DFT gradient,  ECA, NRVS 
  Petra Pikulova         : Analytic Raman intensities                    
  Peter Pinski           : DLPNO-MP2, DLPNO-MP2 Gradient                 
  Shashank Vittal Rao    : ES-AILFT, MagRelax                            
  Christoph Reimann      : Effective Core Potentials                     
  Marius Retegan         : Local ZFS, SOC                                
  Christoph Riplinger    : Optimizer, TS searches, QM/MM, DLPNO-CCSD(T), (RO)-DLPNO pert. Triples 
  Michael Roemelt        : Original ROCIS implementation, recursive CI coupling coefficients
  Masaaki Saitow         : Open-shell DLPNO-CCSD energy and density      
  Barbara Sandhoefer     : DKH picture change effects                    
  Yorick L. A. Schmerwitz: GMF and freeze-and-release deltaSCF, NEB S-IDPP initial path                    
  Kantharuban Sivalingam : CASSCF convergence/infrastructure, NEVPT2, NEVPT3, NEVPT4(SD), FIC-MRCI and CEPA variants
  Bernardo de Souza      : ESD, SOC TD-DFT                               
  Georgi L. Stoychev     : AutoAux, RI-MP2 NMR, DLPNO-MP2 response, X2C  
  Van Anh Tran           : RI-MP2 g-tensors                              
  Willem Van den Heuvel  : Paramagnetic NMR                              
  Zikuan Wang            : NOTCH, Electric field optimization            
  Frank Wennmohs         : Technical directorship and infrastructure     
  Hang Xu                : AUTO-CI-Response properties                   
                                                                         
[FACCTs GmbH]                                                            
  Markus Bursch, Nicolas Foglia, Miquel Garcia-Rates, Ingolf Harden, Hagen Neugebauer, Anastasios Papadopoulos, 
  Christoph Riplinger, Bernardo de Souza, Georgi L. Stoychev                                                    
                                                                 
  APM, various basis sets, CI-OPT, improved COSX, DLPNO-Multilevel,           
  DOCKER, DRACO, updates on ESD, Fragmentator, GOAT, IRC, LR-CPCM, L-BFGS, MBIS, meta-GGA TD-DFT gradient, ML-optimized integration grids, 
  MM, NACMEs, nearIR, NEB, NEB-TS, NL-DFT gradient (VV10), 2- and 3-layer-ONIOM, interface openCOSMO-RS, QMMM,   
  Crystal-QMMM, RESP, rigid body optimization, SF, symmetry and pop. for TD-DFT, various functionals, SOLVATOR                                   
                                                                         
[Other institutions]                                                     
  V. Asgeirsson          : NEB                                           
  Christoph Bannwarth    : sTDA-DFT, sTD-DFT, PBEh-3c, B97-3c, D3        
  Giovanni Bistoni       : ETS/NOCV, ADLD/ADEX, COVALED                  
  Martin Brehm           : Molecular dynamics                            
  Ronald Cardenas        : ETS/NOCV                                      
  Martina Colucci        : COVALED                                       
  Sebastian Ehlert       : rSCAN, r2SCAN, r2SCAN-3c, D4, dhf basis sets  
  Marvin Friede          : D4 for Fr, Ra, Ac-Lr                          
  Lars Goerigk           : TD-DFT with DH, B97 family of functionals     
  Stefan Grimme          : VdW corrections, initial TS optimization, DFT functionals, gCP, sTDA/sTD-DF 
  Waldemar Hujo          : DFT-NL                                        
  H. Jonsson             : NEB                                           
  Holger Kruse           : gCP                                           
  Marcel Mueller         : wB97X-3c, vDZP basis set                      
  Hagen Neugebauer       : wr2SCAN, Native XTB                           
  Gianluca Regni         : ADLD/ADEX                                     
  Tobias Risthaus        : pre 6.0 range-separated hybrid DFT and stability analysis
  Lukas Wittmann         : regularized MP2, r2SCAN double-hybrids, wr2SCAN        
                                                                         
We gratefully acknowledge several colleagues who have allowed us to      
interface, adapt or use parts of their codes:                            
  Ed Valeev, F. Pavosevic, A. Kumar             : LibInt (2-el integral package), F12 methods 
  Garnet Chan, S. Sharma, J. Yang, R. Olivares  : DMRG                   
  Ulf Ekstrom                                   : XCFun DFT Library      
  Mihaly Kallay                                 : mrcc  (arbitrary order and MRCC methods)
  Frank Weinhold                                : gennbo (NPA and NBO analysis)           
  Simon Mueller                                 : openCOSMO-RS                            
  Christopher J. Cramer and Donald G. Truhlar   : smd solvation model                     
  S Lehtola, MJT Oliveira, MAL Marques          : LibXC Library                           
  Liviu Ungur et al                             : ANISO software                          


 Your calculation uses the libint2 library for the computation of 2-el integrals
 For citations please refer to: http://libint.valeyev.net

 Your ORCA version has been built with support for libXC version: 7.0.0
 For citations please refer to: https://libxc.gitlab.io

 This ORCA versions uses:
   CBLAS   interface :  Fast vector & matrix operations
   LAPACKE interface :  Fast linear algebra routines
   SCALAPACK package :  Parallel linear algebra routines
   Shared memory     :  Shared parallel matrices
   BLAS/LAPACK       :  OpenBLAS 0.3.29  USE64BITINT DYNAMIC_ARCH NO_AFFINITY Zen SINGLE_THREADED
        Core in use  :  Zen
   Copyright (c) 2011-2014, The OpenBLAS Project


  ***********************************
  * Starting time: Sun Mar  8 19:17:14 2026
  * Host name:     r038.ib.bridges2.psc.edu
  * Process ID:    89217
  * Working dir.:  /ocean/projects/mat250017p/desantos/ORCA/Projects/tBuPaKarstedtNEB/NEB
  ***********************************

NOTE: MaxCore=1900 MB was set to SCF,MP2,MDCI,CIPSI,MRCI,RASCI and CIS
      => If you want to overwrite this, your respective input block should be placed after the MaxCore statement
Your calculation utilizes a Nudged-Elastic-Band implementation
by V. Ásgeirsson, C. Riplinger & H. Jónsson
Please cite in your paper:
Ásgeirsson, V.; Birgisson, B. O.; Bjornsson, R.; Becker, U.; Neese, F.; Riplinger, R.;
Jónsson H. J. Chem. Theory Comput. 2021, 17, 4929-4945
   

Warning: RI is on but no J-basis has been assigned. Assigning Def2/J (nothing to worry about!)
================================================================================

cite the ECPs for Pt [Def2-ECP] as follows:
Ce-Yb(ecp-28): M. Dolg, H. Stoll, H.Preuss, J. Chem. Phys., 1989, 90, 1730-1734.
Y-Cd(ecp-28), Hf-Hg(ecp-46): D. Andrae,U. Haeussermann, M. Dolg, H. Stoll, H. Preuss, Theor. Chim. Acta, 1990, 77, 123-141.
In-Sb(ecp-28), Tl-Bi(ecp-46): B. Metz, H. Stoll, M. Dolg, J. Chem. Phys., 2000, 113, 2563-2569.
Te-Xe(ecp-28), Po-Rn(ecp-46): K. A. Peterson, D. Figgen, E. Goll, H. Stoll, M. Dolg, J. Chem. Phys., 2003, 119, 11113-11123.
Rb(ecp-28), Cs(ecp-46): T. Leininger, A. Nicklass, W. Kuechle, H. Stoll, M. Dolg, A. Bergner, Chem. Phys. Lett., 1996, 255, 274-280.
Sr(ecp-28), Ba(ecp-46): M. Kaupp, P. V. Schleyer, H. Stoll and H. Preuss, J. Chem. Phys., 1991, 94, 1360-1366.
La(ecp-46): M. Dolg, H. Stoll, A. Savin, H. Preuss, Theor. Chim. Acta, 1989, 75, 173-194.
Lu(ecp-28): X. Cao, M. Dolg, J. Chem. Phys., 2001, 115, 7348-7355.

ECP parameters for Pt [Def2-ECP] have been obtained from:
TURBOMOLE (7.0.2)

----- Orbital basis set information -----
Your calculation utilizes the basis: def2-SVP
   F. Weigend and R. Ahlrichs, Phys. Chem. Chem. Phys. 7, 3297 (2005).

----- AuxJ basis set information -----
Your calculation utilizes the auxiliary basis: def2/J
   H-Rn: F. Weigend, Phys. Chem. Chem. Phys. 8, 1057 (2006).
   Fr-Lr: K. Eichkorn, F. Weigend, O. Treutler, R. Ahlrichs; Theor. Chem. Acc. 97, 119 (1997).

================================================================================
                                        WARNINGS
                       Please study these warnings very carefully!
================================================================================


WARNING: Geometry Optimization
  ===> : Switching off AutoStart
         For restart on a previous wavefunction, please use MOREAD

================================================================================
                                       INPUT FILE
================================================================================
NAME = my_molecule.inp
|  1> ! RKS PBE def2-SVP FAST-NEB-TS FREQ
|  2> 
|  3> %pal nprocs 28 end
|  4> %maxcore 1900
|  5> 
|  6> %neb
|  7>   MaxIter 400
|  8>   NEB_End_XYZFile "product.xyz"                # The file containing your optimized product
|  9>   NImages 8                                    # Number of intermediate structures to calculate
| 10>   Restart_ALLXYZFile "my_molecule_MEP.allxyz"
| 11> end
| 12> 
| 13> * xyz 0 1
| 14>   O          -2.41556402003304      0.23246957779339     -0.04031071431388
| 15>   Si         -1.54952142867050      1.37879608753502      0.83138578129682
| 16>   Si         -2.45438882728539     -1.35894124007466     -0.59219751747754
| 17>   C          -2.69123423045141      2.86786643098033      1.07323490733068
| 18>   C          -3.90829100130849      3.07469499612313      0.34554063657819
| 19>   C          -3.39591928246658     -1.34773667541521     -2.22094027786551
| 20>   C          -3.88764315809131     -0.23589574638134     -2.80528357647952
| 21>   C          -0.99015751727383      0.67500255291046      2.49255374782283
| 22>   C          -0.04674097955302      1.93459632621579     -0.17385994254224
| 23>   C          -0.69450609269668     -1.99437924507679     -0.87676690384035
| 24>   C          -3.34394709972865     -2.44023936104806      0.67192321165217
| 25>   H          -2.19424972267384      3.77931777231457      1.46851401936439
| 26>   H          -4.26868792273021      2.32013595464036     -0.37620842150610
| 27>   H          -4.29573014563597      4.09411714451249      0.16539956361507
| 28>   H          -3.55479272848044     -2.31627790311453     -2.73569537440390
| 29>   H          -3.76049089778592      0.75677076972739     -2.33923140157323
| 30>   H          -4.43387817045091     -0.26119925244522     -3.76485325812737
| 31>   H          -1.85427959155098      0.26455216561080      3.05349829076904
| 32>   H          -0.52202550581788      1.46365789938102      3.11783166843647
| 33>   H          -0.24419887054904     -0.13541190624603      2.35676641231672
| 34>   H          -0.35751537038645      2.31607929805897     -1.16778420133237
| 35>   H           0.66003748079371      1.09430400424423     -0.33445100179442
| 36>   H           0.50454076145704      2.74573548958611      0.34595823771743
| 37>   H          -0.14514073883598     -1.34512801481238     -1.58858536309974
| 38>   H          -0.71118764934151     -3.02048880186741     -1.30002852721048
| 39>   H          -0.12037897510617     -2.03420845448004      0.07252612349141
| 40>   H          -4.34871012147734     -2.01944261013422      0.87992444184934
| 41>   H          -2.78012366719418     -2.48737144371043      1.62655437281136
| 42>   H          -3.46684290403995     -3.47763664075569      0.29707541481270
| 43>   Pt         -4.34699945998458      2.49979340796899      2.29937385017473
| 44>   O          -8.00966805902853      1.20287957374019      2.10864256843566
| 45>   O          -8.10263857420629      0.02522909090489      3.04137837733615
| 46>   P          -7.31047771837122      0.77911096689250      0.61861808236577
| 47>   P          -7.89380619317555      0.59577294082180      4.61629732588285
| 48>   O          -8.18285976643503     -0.85478756734216      5.33003215480394
| 49>   O          -8.76168595692934      1.74392169002566      5.02521854305589
| 50>   O          -5.88741765415402      0.07416392730697      0.97150502905566
| 51>   O          -7.28245506184656      2.08943951538340     -0.11829900715866
| 52>   C          -8.31101454589752     -0.57406535487496     -0.15558174637665
| 53>   C          -6.06855878963872      0.81106130689170      4.89559956506841
| 54>   C          -5.87340096637347      0.96465498083904      6.42036215244527
| 55>   C          -5.64858884936545      2.13465230795591      4.20586948632930
| 56>   C          -5.29285049237534     -0.40369147466609      4.36148832973241
| 57>   C          -8.07660890117507     -1.94171940715646      0.51178923013520
| 58>   C          -9.78967181636146     -0.14825764585696     -0.04679508304740
| 59>   C          -7.86721180105794     -0.61044394776630     -1.63554448105082
| 60>   H          -9.13273625441893     -0.90886483774417      5.56117574842646
| 61>   H          -5.23164855388126      0.78083501810037      1.31883814242370
| 62>   H          -6.48173701169795      1.79857675413989      6.82325679684971
| 63>   H          -4.80470523563806      1.17131087748347      6.63925778644838
| 64>   H          -6.16063388145908      0.03655192350174      6.95171345422689
| 65>   H          -6.06672887269756      3.02114655987054      4.71998958912842
| 66>   H          -6.08469636625902      2.19452876878917      3.14671125348006
| 67>   H          -4.51227309570948      2.23140282662498      4.29085175478717
| 68>   H          -5.62263677139685     -1.33176551816362      4.86781929138410
| 69>   H          -4.20904704829044     -0.26776153865776      4.56148788506164
| 70>   H          -5.43033258849616     -0.53443619337782      3.27210832992503
| 71>   H          -8.35979542665313     -1.93307601971806      1.58131657729162
| 72>   H          -7.01754187442235     -2.25551403827819      0.43488482387997
| 73>   H          -8.69809525379357     -2.70262921553313     -0.00636837916791
| 74>   H         -10.13247665315408     -0.13455795779528      1.00615592136001
| 75>   H         -10.41927119488251     -0.86861626109822     -0.60962056707229
| 76>   H          -9.95200494780004      0.86058540794587     -0.47630710409112
| 77>   H          -6.79885040559717     -0.89060596660487     -1.73644114038185
| 78>   H          -8.01088873701676      0.37433976026069     -2.12160515226330
| 79>   H          -8.47435684299211     -1.36528383488591     -2.17802973718305
| 80> **                         ****END OF INPUT****
================================================================================


--------------------------------------------------------------------------------
                        Nudged Elastic Band Calculation
--------------------------------------------------------------------------------

Reading restart file my_molecule_MEP.allxyz
Number of images (incl. end points)     ....  10
Number of intermediate images           ....  8
Number of optimized images              ....  8
Optimization of end points before NEB   ....  NO
Use existing gbw files for MO input     ....  NO
Number of atoms                         ....  66
Number of (active) degrees of freedom   ....  198
Constrained atoms                       ....  None

Reaction path read from file: my_molecule_MEP.allxyz
----------------------------------------
  REACTANT (ANGSTROEM)
----------------------------------------
O      2.515242     0.048421    -1.387631 
Si     3.383462     1.193788    -0.516847 
Si     2.474968    -1.542811    -1.939978 
C      2.243055     2.683431    -0.272668 
C      1.025824     2.892150    -0.999510 
C      1.526618    -1.531244    -3.564743 
C      1.031264    -0.419385    -4.145980 
C      3.944743     0.488977     1.143266 
C      4.885134     1.749027    -1.524064 
C      4.233963    -2.177256    -2.232146 
C      1.591300    -2.625052    -0.672534 
H      2.741109     3.593987     0.123346 
H      0.664482     2.138780    -1.722031 
H      0.639084     3.912083    -1.178274 
H      1.366539    -2.499501    -4.079658 
H      1.159343     0.572978    -3.679534 
H      0.480992    -0.444388    -5.103247 
H      3.081084     0.079045     1.705306 
H      4.414450     1.276986     1.768173 
H      4.689812    -0.322022     1.006075 
H      4.573234     2.130901    -2.517483 
H      5.591277     0.908415    -1.685772 
H      5.437497     2.559767    -1.004767 
H      4.780143    -1.527232    -2.945710 
H      4.216088    -3.203076    -2.656057 
H      4.811936    -2.217466    -1.285206 
H      0.587355    -2.204682    -0.459794 
H      2.159392    -2.672566     0.279542 
H      1.467060    -3.662261    -1.047463 
Pt     0.587359     2.315243     0.953965 
O     -3.072220     1.018759     0.757211 
O     -3.168164    -0.158239     1.690453 
P     -2.371643     0.592975    -0.731646 
P     -2.962149     0.412826     3.265558 
O     -3.253450    -1.037315     3.979245 
O     -3.830251     1.561570     3.672334 
O     -0.949422    -0.112510    -0.376453 
O     -2.341899     1.902483    -1.469949 
C     -3.372280    -0.760353    -1.505539 
C     -1.137352     0.627244     3.548407 
C     -0.945036     0.780504     5.073575 
C     -0.715610     1.950779     2.859753 
C     -0.361190    -0.587785     3.015607 
C     -3.138951    -2.127638    -0.837029 
C     -4.850832    -0.333848    -1.398104 
C     -2.927408    -0.798012    -2.985152 
H     -4.203803    -1.090681     4.208601 
H     -0.293400     0.594103    -0.029233 
H     -1.553633     1.614730     5.475443 
H      0.123366     0.986434     5.294580 
H     -1.233872    -0.147507     5.604219 
H     -1.133696     2.837350     3.373793 
H     -1.150578     2.011602     1.800128 
H      0.420636     2.046828     2.945915 
H     -0.692205    -1.515730     3.521368 
H      0.722312    -0.452258     3.217507 
H     -0.496830    -0.718475     1.925994 
H     -3.422703    -2.118063     0.232334 
H     -2.080021    -2.442050    -0.913157 
H     -3.760550    -2.888609    -1.354967 
H     -5.194388    -0.319432    -0.345411 
H     -5.480297    -1.054267    -1.961006 
H     -5.012453     0.674806    -1.828333 
H     -1.859082    -1.078690    -3.085055 
H     -3.070309     0.186462    -3.472059 
H     -3.534443    -1.553033    -3.527506 
----------------------------------------
  IMAGE 2 (ANGSTROEM)
----------------------------------------
O      2.612442    -0.016846    -1.380489 
Si     3.574993     0.982712    -0.435346 
Si     2.513115    -1.431564    -2.293459 
C      2.546887     2.465477     0.135632 
C      1.475598     3.057336    -0.613500 
C      1.444713    -1.032949    -3.788630 
C      0.970096     0.199813    -4.060305 
C      4.304331     0.044865     1.030518 
C      4.983847     1.684509    -1.489108 
C      4.224609    -1.987308    -2.885256 
C      1.720650    -2.773279    -1.231054 
H      3.136917     3.163366     0.768515 
H      1.086232     2.564068    -1.523044 
H      1.315094     4.152144    -0.591920 
H      1.199267    -1.850983    -4.494698 
H      1.184357     1.050583    -3.390541 
H      0.351245     0.419985    -4.947548 
H      3.519453    -0.433525     1.649781 
H      4.883399     0.733254     1.681132 
H      5.000948    -0.744954     0.679495 
H      4.585739     2.198589    -2.387609 
H      5.669077     0.880268    -1.828054 
H      5.584507     2.420583    -0.915130 
H      4.723906    -1.191968    -3.475333 
H      4.129647    -2.878226    -3.541679 
H      4.888703    -2.266066    -2.040749 
H      0.751249    -2.409232    -0.833629 
H      2.373075    -3.036572    -0.372737 
H      1.536899    -3.698789    -1.815295 
Pt     0.739112     2.269569     1.163345 
O     -3.073154     0.891816     0.590490 
O     -3.054077    -0.095325     1.728575 
P     -2.426187     0.279871    -0.851873 
P     -3.093318     0.761720     3.189871 
O     -3.594644    -0.506093     4.105679 
O     -3.926378     2.001818     3.192503 
O     -0.985238    -0.369837    -0.442916 
O     -2.432453     1.482774    -1.751812 
C     -3.425763    -1.168902    -1.467906 
C     -1.342183     0.959050     3.789548 
C     -1.410912     1.249940     5.307637 
C     -0.750479     2.182990     3.049109 
C     -0.514274    -0.304807     3.512330 
C     -3.247600    -2.434855    -0.611811 
C     -4.905212    -0.727814    -1.493864 
C     -2.944857    -1.427072    -2.915561 
H     -4.570765    -0.566253     4.059211 
H     -0.336116     0.345142    -0.180162 
H     -2.048573     2.128326     5.532636 
H     -0.391355     1.452767     5.698576 
H     -1.820344     0.379213     5.856013 
H     -1.190902     3.140808     3.386207 
H     -1.025747     2.115920     1.932944 
H      0.358508     2.248452     3.267149 
H     -0.959872    -1.191107     4.004073 
H      0.511032    -0.165333     3.916419 
H     -0.435490    -0.505962     2.426359 
H     -3.560646    -2.275280     0.437913 
H     -2.197076    -2.784529    -0.613819 
H     -3.877210    -3.244847    -1.039654 
H     -5.303398    -0.540138    -0.477656 
H     -5.511118    -1.534781    -1.958836 
H     -5.042072     0.191575    -2.096897 
H     -1.877005    -1.720810    -2.954751 
H     -3.079055    -0.528885    -3.549343 
H     -3.546174    -2.254411    -3.349685 
----------------------------------------
  IMAGE 3 (ANGSTROEM)
----------------------------------------
O      2.682054    -0.092679    -1.420279 
Si     3.589635     0.913194    -0.437559 
Si     2.534147    -1.442867    -2.412580 
C      2.446488     2.289606     0.204722 
C      1.655855     3.136627    -0.671959 
C      1.429068    -0.923228    -3.842682 
C      0.957698     0.331494    -3.996422 
C      4.369025    -0.044556     0.990236 
C      4.970632     1.701735    -1.465668 
C      4.229444    -1.965636    -3.070233 
C      1.754400    -2.829675    -1.399413 
H      2.809830     2.770048     1.139110 
H      1.613856     2.940866    -1.759163 
H      1.484841     4.197148    -0.402292 
H      1.154965    -1.678111    -4.605584 
H      1.193820     1.120916    -3.261787 
H      0.315515     0.629814    -4.843302 
H      3.615245    -0.551560     1.624932 
H      4.966539     0.632307     1.636278 
H      5.061172    -0.817249     0.594521 
H      4.560451     2.242504    -2.342638 
H      5.661880     0.918513    -1.841485 
H      5.569245     2.420665    -0.868847 
H      4.717119    -1.129548    -3.611844 
H      4.131375    -2.813614    -3.779881 
H      4.903395    -2.290787    -2.250440 
H      0.795957    -2.480206    -0.964118 
H      2.424520    -3.132368    -0.567968 
H      1.551954    -3.727710    -2.018725 
Pt     0.409289     1.939924     0.408749 
O     -2.869304     0.869433     0.555057 
O     -2.894424    -0.048311     1.751260 
P     -2.386136     0.152441    -0.910154 
P     -3.062790     0.884885     3.173122 
O     -3.668033    -0.342225     4.084709 
O     -3.900031     2.116886     3.030265 
O     -0.954050    -0.561351    -0.596875 
O     -2.388379     1.343252    -1.830184 
C     -3.456672    -1.275573    -1.459345 
C     -1.381660     1.095952     3.947013 
C     -1.576106     1.303953     5.467745 
C     -0.755524     2.369876     3.363049 
C     -0.513936    -0.143999     3.673663 
C     -3.299521    -2.513795    -0.559103 
C     -4.926742    -0.815949    -1.517263 
C     -2.968092    -1.593763    -2.895081 
H     -4.637796    -0.385234     3.957383 
H     -0.223620     0.162682    -0.552307 
H     -2.220976     2.180581     5.678178 
H     -0.583474     1.499342     5.927049 
H     -2.017922     0.415948     5.957817 
H     -1.370937     3.267752     3.564662 
H     -0.610476     2.325086     2.242494 
H      0.257725     2.519535     3.790525 
H     -0.970711    -1.056877     4.105080 
H      0.485879    -0.007813     4.136707 
H     -0.373699    -0.316262     2.586664 
H     -3.615414    -2.313763     0.482982 
H     -2.253191    -2.875108    -0.543991 
H     -3.936182    -3.330105    -0.963367 
H     -5.337399    -0.586488    -0.514657 
H     -5.535338    -1.635015    -1.957677 
H     -5.047101     0.078364    -2.159795 
H     -1.903092    -1.898318    -2.914542 
H     -3.089304    -0.720101    -3.564766 
H     -3.574990    -2.431482    -3.299996 
----------------------------------------
  IMAGE 4 (ANGSTROEM)
----------------------------------------
O      2.584457    -0.167668    -1.428301 
Si     3.429417     0.912480    -0.462553 
Si     2.521280    -1.495141    -2.470174 
C      2.164150     2.215959     0.160729 
C      1.563238     3.206019    -0.681426 
C      1.416978    -0.935776    -3.886646 
C      0.962814     0.330275    -3.997979 
C      4.258974     0.003583     0.968779 
C      4.821873     1.734001    -1.456929 
C      4.235787    -1.954632    -3.121957 
C      1.800981    -2.925226    -1.475318 
H      2.357407     2.555193     1.202718 
H      1.719482     3.169483    -1.775628 
H      1.398985     4.229389    -0.293522 
H      1.133505    -1.660358    -4.674046 
H      1.207334     1.093081    -3.238261 
H      0.324072     0.666126    -4.832937 
H      3.543231    -0.529721     1.624710 
H      4.856864     0.698459     1.595136 
H      4.965550    -0.746652     0.553470 
H      4.466351     2.291018    -2.346771 
H      5.530878     0.953850    -1.809513 
H      5.403925     2.436533    -0.823390 
H      4.715918    -1.104690    -3.648260 
H      4.152573    -2.792216    -3.846983 
H      4.908388    -2.289857    -2.304857 
H      0.838449    -2.624463    -1.018320 
H      2.497806    -3.207845    -0.658860 
H      1.617527    -3.823878    -2.097878 
Pt     0.036010     1.876314     0.006952 
O     -1.839852     0.863875     0.658199 
O     -3.113826    -0.174571     1.910136 
P     -1.990331     0.066325    -0.778082 
P     -3.169187     0.830441     3.171013 
O     -3.821352    -0.277093     4.247824 
O     -3.981459     2.100079     3.083456 
O     -0.722131    -0.974567    -0.781143 
O     -1.737262     1.277420    -1.717932 
C     -3.322133    -1.172528    -1.324115 
C     -1.459434     1.076326     3.882370 
C     -1.603281     1.357547     5.393864 
C     -0.818153     2.325548     3.243275 
C     -0.621558    -0.188785     3.638113 
C     -3.257595    -2.475095    -0.492203 
C     -4.771540    -0.657630    -1.353864 
C     -2.878179    -1.457908    -2.787969 
H     -4.794770    -0.186998     4.188857 
H      0.097689    -0.414220    -0.717893 
H     -2.222662     2.258741     5.575355 
H     -0.596571     1.540920     5.828183 
H     -2.066200     0.504493     5.926266 
H     -1.448525     3.225541     3.386850 
H     -0.665289     2.220479     2.139424 
H      0.180950     2.504677     3.694784 
H     -1.087846    -1.070438     4.121180 
H      0.396686    -0.061229     4.064407 
H     -0.533285    -0.406843     2.556428 
H     -3.588618    -2.316616     0.551324 
H     -2.246140    -2.921378    -0.483902 
H     -3.944330    -3.213273    -0.965446 
H     -5.180648    -0.460874    -0.345417 
H     -5.388266    -1.462300    -1.816941 
H     -4.890674     0.243128    -1.986314 
H     -1.833381    -1.817084    -2.845647 
H     -2.974691    -0.553882    -3.421252 
H     -3.540358    -2.245869    -3.205173 
----------------------------------------
  IMAGE 5 (ANGSTROEM)
----------------------------------------
O      2.574420    -0.114426    -1.381924 
Si     3.438818     0.917072    -0.377769 
Si     2.525194    -1.449703    -2.420486 
C      2.157000     2.169549     0.311408 
C      1.422287     3.084763    -0.506882 
C      1.437794    -0.907741    -3.854781 
C      0.980934     0.353138    -4.002270 
C      4.298621    -0.030976     1.011594 
C      4.819289     1.737074    -1.388121 
C      4.242639    -1.920896    -3.054575 
C      1.782399    -2.871017    -1.431578 
H      2.376415     2.539605     1.335637 
H      1.473335     3.024135    -1.611606 
H      1.149598     4.086064    -0.122642 
H      1.148037    -1.655942    -4.617644 
H      1.230025     1.139770    -3.268411 
H      0.329429     0.662390    -4.837216 
H      3.602886    -0.581072     1.675052 
H      4.912308     0.650286     1.638286 
H      4.997621    -0.768261     0.561494 
H      4.451177     2.281164    -2.280535 
H      5.500051     0.932997    -1.744232 
H      5.433721     2.435858    -0.782887 
H      4.728736    -1.080973    -3.590636 
H      4.149172    -2.764229    -3.771677 
H      4.911673    -2.255400    -2.234948 
H      0.808955    -2.562638    -1.002535 
H      2.458624    -3.154440    -0.598398 
H      1.610047    -3.769620    -2.057756 
Pt     0.063783     1.654113     0.246486 
O     -1.953987     1.094288     0.035244 
O     -2.957012    -0.076047     2.022229 
P     -2.123828     0.126183    -1.282626 
P     -3.017256     0.889220     3.255927 
O     -3.748908    -0.080721     4.404191 
O     -3.744052     2.221957     3.079959 
O     -0.790037    -0.848120    -1.189809 
O     -2.178140     1.119180    -2.440855 
C     -3.410950    -1.233935    -1.542040 
C     -1.332556     1.131658     4.054134 
C     -1.509517     1.365440     5.571921 
C     -0.693475     2.382580     3.431059 
C     -0.477274    -0.115374     3.789511 
C     -3.270354    -2.406203    -0.557716 
C     -4.858899    -0.712769    -1.560921 
C     -3.045605    -1.700463    -2.981075 
H     -4.636340    -0.317804     4.063805 
H      0.012784    -0.272922    -1.075463 
H     -2.157901     2.240908     5.776939 
H     -0.515047     1.566252     6.025394 
H     -1.948573     0.484113     6.076619 
H     -1.291544     3.293560     3.625985 
H     -0.586637     2.291562     2.309776 
H      0.332472     2.523600     3.832243 
H     -0.943160    -1.024005     4.219294 
H      0.527405     0.008255     4.246321 
H     -0.346309    -0.286883     2.700230 
H     -3.527695    -2.106892     0.476307 
H     -2.245266    -2.822383    -0.562278 
H     -3.962876    -3.215935    -0.876339 
H     -5.225651    -0.433298    -0.554630 
H     -5.505486    -1.535278    -1.940199 
H     -4.985053     0.146948    -2.247462 
H     -2.001401    -2.061036    -3.050067 
H     -3.175841    -0.880421    -3.713901 
H     -3.721022    -2.535862    -3.262158 
----------------------------------------
  IMAGE 6 (ANGSTROEM)
----------------------------------------
O      2.553353    -0.126840    -1.396196 
Si     3.384913     0.895771    -0.370814 
Si     2.515038    -1.470382    -2.427404 
C      2.032693     2.063922     0.322422 
C      1.200439     2.946525    -0.446840 
C      1.441998    -0.932450    -3.871455 
C      0.987111     0.327724    -4.026679 
C      4.258792    -0.020375     1.025065 
C      4.755292     1.756771    -1.357455 
C      4.242743    -1.934069    -3.038354 
C      1.776230    -2.879914    -1.420620 
H      2.222393     2.432233     1.362308 
H      1.198397     2.862643    -1.548042 
H      0.972653     3.967477    -0.086455 
H      1.154923    -1.683762    -4.631859 
H      1.230567     1.116804    -3.293373 
H      0.339359     0.634396    -4.864960 
H      3.578117    -0.576196     1.698397 
H      4.866490     0.678716     1.638161 
H      4.966995    -0.746484     0.572651 
H      4.407903     2.292599    -2.262776 
H      5.432941     0.943576    -1.699345 
H      5.374787     2.451053    -0.752927 
H      4.728582    -1.095492    -3.577097 
H      4.161338    -2.783218    -3.750037 
H      4.907001    -2.258663    -2.210702 
H      0.801262    -2.566950    -0.998207 
H      2.452988    -3.147661    -0.582450 
H      1.607506    -3.788779    -2.032381 
Pt    -0.021900     1.594744     0.603402 
O     -1.778790     1.293515    -0.371170 
O     -2.441589     0.187428     1.852431 
P     -2.097993     0.171681    -1.469801 
P     -2.853170     0.921615     3.173532 
O     -3.604874    -0.222669     4.125072 
O     -3.711828     2.182049     3.063182 
O     -0.782209    -0.819115    -1.300908 
O     -2.298529     1.018484    -2.726169 
C     -3.407770    -1.216321    -1.564241 
C     -1.267890     1.155627     4.113996 
C     -1.506403     1.344518     5.616561 
C     -0.636196     2.437040     3.554741 
C     -0.404696    -0.089453     3.833846 
C     -3.252356    -2.365080    -0.556992 
C     -4.851870    -0.688737    -1.557223 
C     -3.067377    -1.718084    -2.996998 
H     -4.568161    -0.211825     3.954555 
H      0.000925    -0.280694    -1.028233 
H     -2.169813     2.211861     5.804809 
H     -0.532211     1.543126     6.110713 
H     -1.961271     0.447324     6.076322 
H     -1.260030     3.329633     3.752954 
H     -0.541474     2.383282     2.439560 
H      0.387879     2.587979     3.955251 
H     -0.898416    -1.003516     4.222955 
H      0.594367     0.001580     4.306763 
H     -0.274309    -0.249406     2.742116 
H     -3.506824    -2.063931     0.478613 
H     -2.230908    -2.789937    -0.561919 
H     -3.950749    -3.178827    -0.860400 
H     -5.205241    -0.414098    -0.543806 
H     -5.507848    -1.507470    -1.929562 
H     -4.983347     0.175201    -2.236357 
H     -2.018875    -2.067286    -3.065416 
H     -3.202651    -0.898103    -3.727261 
H     -3.738404    -2.561108    -3.257495 
----------------------------------------
  IMAGE 7 (ANGSTROEM)
----------------------------------------
O      2.557194    -0.102391    -1.382730 
Si     3.443905     0.901603    -0.386204 
Si     2.513747    -1.448359    -2.419504 
C      2.199380     2.191738     0.311146 
C      1.320874     2.950546    -0.412603 
C      1.441407    -0.910563    -3.862421 
C      0.982480     0.343410    -4.018779 
C      4.294041    -0.031663     1.014492 
C      4.821707     1.735037    -1.386853 
C      4.239431    -1.919592    -3.035885 
C      1.773638    -2.861615    -1.419454 
H      2.359223     2.503288     1.363337 
H      1.180716     2.796073    -1.497896 
H      0.885296     3.880091    -0.003831 
H      1.152197    -1.667729    -4.618394 
H      1.227196     1.136775    -3.288692 
H      0.324480     0.648146    -4.851044 
H      3.595715    -0.577582     1.678032 
H      4.902925     0.657401     1.637351 
H      4.996409    -0.770399     0.573736 
H      4.453494     2.276141    -2.280923 
H      5.501690     0.929239    -1.740083 
H      5.435756     2.434291    -0.782042 
H      4.728518    -1.084941    -3.577887 
H      4.147165    -2.766476    -3.749440 
H      4.907691    -2.252604    -2.214886 
H      0.797480    -2.548530    -0.999330 
H      2.447933    -3.140939    -0.583328 
H      1.604197    -3.763880    -2.041164 
Pt    -0.864581     1.473023     0.988171 
O     -2.043653     1.356786    -0.569966 
O     -2.340885     0.366945     1.837142 
P     -2.130575     0.141635    -1.635658 
P     -2.856024     1.000099     3.248837 
O     -3.569402    -0.282833     4.019094 
O     -3.722430     2.231424     3.216165 
O     -0.806592    -0.784419    -1.262149 
O     -2.198719     0.886550    -2.951651 
C     -3.418088    -1.242561    -1.649181 
C     -1.237837     1.159094     4.164316 
C     -1.486210     1.371704     5.665374 
C     -0.565374     2.415098     3.605600 
C     -0.397891    -0.102229     3.899003 
C     -3.247545    -2.356740    -0.601242 
C     -4.864370    -0.716172    -1.619771 
C     -3.103497    -1.800399    -3.064260 
H     -4.540948    -0.150361     4.008198 
H     -0.044125    -0.222869    -1.000595 
H     -2.148024     2.242873     5.842418 
H     -0.518542     1.556130     6.178050 
H     -1.957807     0.477773     6.115522 
H     -1.192713     3.317440     3.751021 
H     -0.412493     2.445618     2.455148 
H      0.455047     2.567070     4.007492 
H     -0.908084    -1.006714     4.283434 
H      0.598830    -0.017401     4.376853 
H     -0.250634    -0.255024     2.807431 
H     -3.499791    -2.026484     0.426252 
H     -2.223225    -2.774039    -0.594527 
H     -3.942257    -3.185023    -0.869492 
H     -5.191398    -0.429279    -0.600287 
H     -5.533877    -1.535016    -1.965725 
H     -5.011801     0.144507    -2.300045 
H     -2.050594    -2.142280    -3.125663 
H     -3.240541    -1.003534    -3.818284 
H     -3.769235    -2.656906    -3.291747 
----------------------------------------
  IMAGE 8 (ANGSTROEM)
----------------------------------------
O      2.751687    -0.131724    -1.316135 
Si     3.787947     0.797226    -0.374447 
Si     2.548589    -1.324656    -2.491425 
C      2.730438     2.098586     0.514911 
C      1.933537     2.978083    -0.077675 
C      1.351608    -0.600844    -3.745378 
C      0.909153     0.658919    -3.703942 
C      4.667125    -0.288943     0.891951 
C      5.069843     1.644322    -1.472965 
C      4.188216    -1.755833    -3.324651 
C      1.801552    -2.841347    -1.656907 
H      2.820617     2.152348     1.623149 
H      1.784590     3.010152    -1.180120 
H      1.372698     3.763028     0.483128 
H      0.968517    -1.260767    -4.553729 
H      1.250653     1.359026    -2.913668 
H      0.169478     1.067855    -4.417838 
H      3.949530    -0.847622     1.526889 
H      5.311725     0.323385     1.557277 
H      5.320730    -1.027525     0.382824 
H      4.589361     2.244853    -2.271994 
H      5.727464     0.892416    -1.956939 
H      5.713090     2.324803    -0.877133 
H      4.652197    -0.858209    -3.781650 
H      4.015194    -2.492317    -4.137172 
H      4.912897    -2.203770    -2.613937 
H      0.855925    -2.567644    -1.146140 
H      2.496879    -3.269138    -0.905888 
H      1.569849    -3.632766    -2.399356 
Pt    -2.276850     1.917655     0.660555 
O     -3.222211     0.718537    -0.512476 
O     -2.402289     0.567931     2.051077 
P     -2.419884    -0.105415    -1.669512 
P     -2.861606     1.293904     3.439660 
O     -3.692107     0.117272     4.214631 
O     -3.596472     2.600961     3.224721 
O     -1.075610    -0.759003    -0.974765 
O     -2.157735     0.749471    -2.882299 
C     -3.521886    -1.584908    -1.876771 
C     -1.275285     1.396813     4.359305 
C     -1.577594     1.679217     5.839850 
C     -0.525404     2.583297     3.716220 
C     -0.503419     0.077603     4.167648 
C     -3.336090    -2.618650    -0.749364 
C     -4.992020    -1.120161    -1.921063 
C     -3.086160    -2.159716    -3.237947 
H     -4.629005     0.134830     3.933710 
H     -0.294561    -0.196566    -1.154886 
H     -2.194320     2.593981     5.954172 
H     -0.629736     1.825721     6.397771 
H     -2.127073     0.832914     6.297032 
H     -1.078604     3.532252     3.854587 
H     -0.368933     2.433681     2.619623 
H      0.484620     2.684798     4.164992 
H     -1.081242    -0.784371     4.556274 
H      0.463891     0.122871     4.708243 
H     -0.301955    -0.111021     3.095783 
H     -3.633614    -2.213420     0.238725 
H     -2.290426    -2.972843    -0.674521 
H     -3.983011    -3.497660    -0.963621 
H     -5.336834    -0.777263    -0.925988 
H     -5.632007    -1.972634    -2.234752 
H     -5.145651    -0.292770    -2.641494 
H     -2.021601    -2.471086    -3.210564 
H     -3.193139    -1.393878    -4.030850 
H     -3.705263    -3.044243    -3.494747 
----------------------------------------
  IMAGE 9 (ANGSTROEM)
----------------------------------------
O      2.950109    -0.319871    -1.257129 
Si     4.029320     0.581639    -0.336969 
Si     2.544552    -1.210101    -2.618173 
C      2.994852     1.685945     0.799993 
C      2.409659     2.828042     0.436009 
C      1.193071    -0.251748    -3.505710 
C      0.794893     0.988243    -3.141605 
C      5.054310    -0.603140     0.707546 
C      5.142288     1.617629    -1.456928 
C      4.051136    -1.429350    -3.734207 
C      1.838524    -2.866801    -2.060553 
H      2.852667     1.345035     1.847617 
H      2.493933     3.239441    -0.590555 
H      1.796390     3.435537     1.134671 
H      0.669751    -0.726825    -4.358464 
H      1.276716     1.509305    -2.294791 
H     -0.030144     1.510019    -3.650902 
H      4.393656    -1.255737     1.314263 
H      5.724615    -0.052494     1.399158 
H      5.683675    -1.255043     0.067937 
H      4.558737     2.274606    -2.133305 
H      5.781980     0.964671    -2.085836 
H      5.809613     2.262544    -0.848875 
H      4.461526    -0.442594    -4.029796 
H      3.779908    -1.974608    -4.661011 
H      4.851705    -2.000962    -3.221866 
H      0.953892    -2.699336    -1.412883 
H      2.584200    -3.455342    -1.489663 
H      1.512309    -3.471064    -2.932012 
Pt    -2.781801     1.658559     0.408319 
O     -3.574576     0.421207    -0.756943 
O     -1.986264     1.361899     2.080430 
P     -2.608547    -0.418097    -1.840346 
P     -2.830795     1.767911     3.460267 
O     -3.689751     0.428405     3.884189 
O     -3.659171     3.019906     3.371121 
O     -1.253577    -0.879352    -1.033333 
O     -2.372086     0.400011    -3.081752 
C     -3.593113    -1.966005    -2.021981 
C     -1.328096     1.739000     4.535436 
C     -1.772581     2.089969     5.963705 
C     -0.401583     2.830556     3.954448 
C     -0.675010     0.346114     4.456958 
C     -3.426896    -2.896971    -0.807276 
C     -5.069033    -1.539468    -2.175843 
C     -3.062556    -2.613993    -3.313773 
H     -4.637318     0.612317     3.715242 
H     -0.489535    -0.340837    -1.348766 
H     -2.311930     3.057411     5.986491 
H     -0.877143     2.172721     6.613523 
H     -2.436839     1.308598     6.382140 
H     -0.901289     3.820094     3.961712 
H     -0.122583     2.597261     2.908332 
H      0.526465     2.895883     4.556762 
H     -1.361798    -0.445101     4.817253 
H      0.239080     0.329241     5.085529 
H     -0.387807     0.099290     3.416643 
H     -3.779010    -2.421708     0.130708 
H     -2.374370    -3.207006    -0.661587 
H     -4.038432    -3.809600    -0.970893 
H     -5.462992    -1.122284    -1.228951 
H     -5.680675    -2.422284    -2.452638 
H     -5.193015    -0.769545    -2.963680 
H     -1.998531    -2.907801    -3.204001 
H     -3.132701    -1.902239    -4.159339 
H     -3.651984    -3.521702    -3.554068 
----------------------------------------

  PRODUCT (ANGSTROEM)
----------------------------------------
O      3.262168    -0.731662    -1.470572 
Si     4.303202     0.028636    -0.388436 
Si     2.397852    -0.789322    -2.906272 
C      3.300673     0.447173     1.152827 
C      3.212519     1.668677     1.719610 
C      0.865818     0.305583    -2.736004 
C      0.583078     1.082834    -1.663727 
C      5.654627    -1.210921     0.049866 
C      5.034284     1.591304    -1.156317 
C      3.451034    -0.167830    -4.345940 
C      1.864813    -2.574379    -3.193099 
H      2.743571    -0.381037     1.634155 
H      3.732584     2.548209     1.299912 
H      2.616255     1.856956     2.630632 
H      0.133644     0.321951    -3.568779 
H      1.243354     1.121564    -0.778318 
H     -0.322581     1.714890    -1.624765 
H      5.216590    -2.133298     0.482830 
H      6.360793    -0.786370     0.792822 
H      6.233978    -1.500807    -0.850963 
H      4.241542     2.311186    -1.445848 
H      5.614404     1.339204    -2.067740 
H      5.723061     2.104039    -0.453415 
H      3.780284     0.878171    -4.181433 
H      2.876380    -0.196052    -5.294981 
H      4.353879    -0.799657    -4.476599 
H      1.219571    -2.932354    -2.365596 
H      2.747043    -3.243226    -3.261771 
H      1.289356    -2.666306    -4.137666 
Pt    -2.638496     0.837372     0.566721 
O     -3.412462    -0.303085    -0.722798 
O     -1.830190     1.777071     1.992068 
P     -2.630071    -1.083899    -1.971173 
P     -2.612637     2.604186     3.205143 
O     -3.859563     1.647529     3.680759 
O     -2.982004     3.983044     2.720764 
O     -1.197140    -1.592548    -1.381559 
O     -2.562928    -0.161664    -3.166744 
C     -3.592857    -2.643945    -2.178230 
C     -1.456433     2.494333     4.637383 
C     -2.148563     3.187999     5.829222 
C     -0.183476     3.265188     4.228774 
C     -1.131917     1.024330     4.960122 
C     -3.605912    -3.447572    -0.865102 
C     -5.020114    -2.234815    -2.595823 
C     -2.908158    -3.440361    -3.308951 
H     -4.577608     1.682884     3.013665 
H     -0.511634    -0.878363    -1.501279 
H     -2.427686     4.231153     5.579749 
H     -1.452812     3.213048     6.693861 
H     -3.065119     2.648174     6.139331 
H     -0.418736     4.312156     3.953265 
H      0.318536     2.786692     3.364233 
H      0.527025     3.279272     5.081487 
H     -2.042213     0.454031     5.229717 
H     -0.431933     0.985366     5.821177 
H     -0.646012     0.517538     4.102621 
H     -4.091828    -2.881612    -0.045440 
H     -2.581200    -3.716262    -0.541664 
H     -4.177844    -4.387415    -1.015586 
H     -5.528911    -1.664000    -1.794405 
H     -5.617502    -3.146313    -2.806613 
H     -5.006202    -1.608165    -3.509504 
H     -1.881891    -3.748897    -3.027135 
H     -2.848745    -2.843523    -4.241073 
H     -3.498541    -4.356083    -3.521397 



----------------------
NEB settings
----------------------
Method type                             ....  regular
Free endpoints                          ....  off 
Tangent type                            ....  improved 
Number of intermediate images           ....  8 
Number of images free to move           ....  8 
Spring type for image distribution      ....  distance between adjacent images 
Spring constant                         ....  energy weighted (0.0100 -to- 0.1000) Eh/Bohr^2 
Spring force perp. to the path          ....  none 
Generation of initial path              ....  restart (from my_molecule_MEP.allxyz) 
Initial path via TS guess               ....  off 

Minimization of RMSD: Rotation          ....  always 
Minimization of RMSD: Translation type  ....  centroid 
Center fixed to origin                  ....  true 
Remove external force                   ....  true 

Reparametrization of the path           ....  off 
Convergence thresholds:
Convergence monitored for               ....  all images
Optimization method:
Method                                  ....  L-BFGS
Max. iterations                         ....  400 
Step size                               ....  1.00 
Maximum allowed step size               ....  0.10 Bohr

LBFGS parameters: 
               Memory                   ....  20 
               Initial step size        ....  0.0010 
               Estimate curvature       ....  YES 
               Reset on maxmove         ....  YES 
               Reparam. on reset        ....  NO 
Displacement along initial path:             58.4160 Bohr
Writing initial trajectory to file      ....  my_molecule_initial_path_trj.xyz



----------------------
NEB OPTIMIZATION      
----------------------

Following output files will be written:
Energy profile during opt. written to    ....  my_molecule.interp
Optimization log-file                    ....  my_molecule.NEB.log
Current trajectory will be written to    ....  my_molecule_MEP_trj.xyz
       and to allxyz file                ....  my_molecule_MEP.allxyz
       and individual images to xyz file ....  my_molecule_im{NIm}.xyz
Trajectory history will be written to    ....  my_molecule_MEP_ALL_trj.xyz
Highest energy image will be written to  ....  my_molecule_NEB-HEI_converged.xyz
Converged TS will be written to          ....  my_molecule_NEB-TS_converged.xyz

Single point energy and gradient calculation of reactant and
product configurations (have to be performed only once)


           ************************************************************
           *        Program running with 28 parallel MPI-processes    *
           *              working on a common directory               *
           ************************************************************

------------------------------------------------------------------------------
                         ORCA PROPERTY INTEGRAL CALCULATIONS
------------------------------------------------------------------------------

GBWName                                   ... my_molecule_im0.gbw
Number of atoms                           ...     66
Number of basis functions                 ...    616
Max core memory                           ...   1900 MB

Dipole integrals                          ... YES
Quadrupole integrals                      ...  NO
Linear momentum integrals                 ...  NO
Angular momentum integrals                ...  NO
Higher moments length integrals           ...  NO
Higher moments velocity integrals         ...  NO
Kinetic energy integrals                  ...  NO
GIAO right hand sides                     ...  NO
GIAO dipole derivative integrals          ...  NO
SOC integrals                             ...  NO
EPR diamagnetic integrals (GIAO)          ...  NO
EPR gauge integrals                       ...  NO
Field gradient integrals                  ...  NO (   0 nuclei)
Spin-dipole/Fermi contact integrals       ...  NO (   0 nuclei)
Contact density integrals                 ...  NO (   0 nuclei)
Nucleus-orbit integrals                   ...  NO (   0 nuclei)
Geometric perturbations                   ... YES (  66 nuclei)

Choice of electric origin   ... Center of mass
Position of electric origin ... ( -0.1879,  1.4880,  0.7147) 
Choice of magnetic origin   ... GIAO
Position of magnetic origin ... (  0.0000,  0.0000,  0.0000) 

Calculating integrals                     ... Electric Dipole (Length)     done (  0.4 sec)
Calculating integrals                     ... Geometrical perturbation right hand sides

-----------------------
GEOMETRIC PERTURBATIONS (66 nuclei)
-----------------------

MaxCore                            ...   1900 MB
Number of batches                  ...      2

BATCH   0: Atoms    0 -   64 (195 perturbations)
   => H(core) and overlap derivative integrals     ... done (    11.6 sec)
   => Making and storing internal U-coefficients   ... done (     0.2 sec)
   => RI-J derivative integrals                    ... done (    29.6 sec)
   => RI-J response operators                      ... done (     9.8 sec)
   => ECP derivative integrals                     ... done (   300.7 sec)
   => XC derivative integrals                      ... done (    44.0 sec)
   => XC response operators                        ... done (    22.4 sec)
   => Completing and storing right hand sides      ... done (     0.3 sec)
BATCH   1: Atoms   65 -   65 (  3 perturbations)
   => H(core) and overlap derivative integrals     ... done (     0.1 sec)
   => Making and storing internal U-coefficients   ... done (     0.0 sec)
   => RI-J derivative integrals                    ... done (     1.9 sec)
   => RI-J response operators                      ... done (     1.0 sec)
   => ECP derivative integrals                     ... done (     4.7 sec)
   => XC derivative integrals                      ... done (     6.1 sec)
   => XC response operators                        ... done (     0.5 sec)
   => Completing and storing right hand sides      ... done (     0.0 sec)
   => Total time for right hand sides = 437.2 sec

  geometrical perturbations done (437.7 sec)

Property integrals calculated in 438.1 sec

Maximum memory used throughout the entire PROPINT-calculation: 1658.1 MB


           ************************************************************
           *        Program running with 28 parallel MPI-processes    *
           *              working on a common directory               *
           ************************************************************

------------------------------------------------------------------------------
                         ORCA PROPERTY INTEGRAL CALCULATIONS
------------------------------------------------------------------------------

GBWName                                   ... my_molecule_im9.gbw
Number of atoms                           ...     66
Number of basis functions                 ...    616
Max core memory                           ...   1900 MB

Dipole integrals                          ... YES
Quadrupole integrals                      ...  NO
Linear momentum integrals                 ...  NO
Angular momentum integrals                ...  NO
Higher moments length integrals           ...  NO
Higher moments velocity integrals         ...  NO
Kinetic energy integrals                  ...  NO
GIAO right hand sides                     ...  NO
GIAO dipole derivative integrals          ...  NO
SOC integrals                             ...  NO
EPR diamagnetic integrals (GIAO)          ...  NO
EPR gauge integrals                       ...  NO
Field gradient integrals                  ...  NO (   0 nuclei)
Spin-dipole/Fermi contact integrals       ...  NO (   0 nuclei)
Contact density integrals                 ...  NO (   0 nuclei)
Nucleus-orbit integrals                   ...  NO (   0 nuclei)
Geometric perturbations                   ... YES (  66 nuclei)

Choice of electric origin   ... Center of mass
Position of electric origin ... ( -1.8250,  0.7192,  0.2548) 
Choice of magnetic origin   ... GIAO
Position of magnetic origin ... (  0.0000,  0.0000,  0.0000) 

Calculating integrals                     ... Electric Dipole (Length)     done (  0.4 sec)
Calculating integrals                     ... Geometrical perturbation right hand sides

-----------------------
GEOMETRIC PERTURBATIONS (66 nuclei)
-----------------------

MaxCore                            ...   1900 MB
Number of batches                  ...      1

BATCH   0: Atoms    0 -   65 (198 perturbations)
   => H(core) and overlap derivative integrals     ... done (    10.1 sec)
   => Making and storing internal U-coefficients   ... done (     0.2 sec)
   => RI-J derivative integrals                    ... done (    26.7 sec)
   => RI-J response operators                      ... done (     9.2 sec)
   => ECP derivative integrals                     ... done (   261.5 sec)
   => XC derivative integrals                      ... done (    30.8 sec)
   => XC response operators                        ... done (    14.4 sec)
   => Completing and storing right hand sides      ... done (     0.1 sec)
   => Total time for right hand sides = 356.0 sec

  geometrical perturbations done (356.1 sec)

Property integrals calculated in 356.5 sec

Maximum memory used throughout the entire PROPINT-calculation: 1599.1 MB
Properties of fixed NEB end points:
               Reactant:
                         E               ....  -2537.143799 Eh
                         RMS(F)          ....      0.000013 Eh/Bohr
                         MAX(|F|)        ....      0.000092 Eh/Bohr
               Product:
                         E               ....  -2537.179432 Eh
                         RMS(F)          ....      0.000085 Eh/Bohr
                         MAX(|F|)        ....      0.000347 Eh/Bohr



Starting iterations:

Optim.  Iteration  HEI  E(HEI)-E(0)  max(|Fp|)   RMS(Fp)    dS
   LBFGS     0      5    0.048431    0.031712   0.002015  58.4160       
   LBFGS     1      5    0.044029    0.022983   0.001709  58.4078       
   LBFGS     2      5    0.041726    0.019058   0.001504  58.4210       
   LBFGS     3      5    0.038916    0.021178   0.001455  58.4862       
   LBFGS     4      5    0.034765    0.058626   0.003660  58.6256       
   LBFGS     5      5    0.040804    0.146830   0.009080  58.8550       
   LBFGS     6      5    0.034805    0.030250   0.002751  58.7581       
   LBFGS     7      4    0.032451    0.019032   0.001689  58.7601       
   LBFGS     8      4    0.034536    0.035471   0.002915  58.7998       
   LBFGS     9      4    0.034867    0.049190   0.003299  58.7893       
   LBFGS    10      4    0.035436    0.050393   0.003598  58.7817       
   LBFGS    11      4    0.036380    0.054958   0.003638  58.7968       
   LBFGS    12      4    0.036399    0.018467   0.001508  58.7774       
   LBFGS    13      4    0.036447    0.015857   0.001266  58.7548       
   LBFGS    14      4    0.036696    0.013532   0.001135  58.6941       
   LBFGS    15      4    0.037090    0.067249   0.004160  58.6908       
   LBFGS    16      4    0.037138    0.018200   0.001394  58.7027       
   LBFGS    17      4    0.037570    0.027374   0.001955  58.7594       
   LBFGS    18      4    0.038039    0.035863   0.002409  58.8673       
   LBFGS    19      4    0.038014    0.019449   0.001336  58.8916       
   LBFGS    20      4    0.037985    0.020480   0.001387  58.9002       
   LBFGS    21      4    0.037807    0.020149   0.001515  58.9186       
   LBFGS    22      4    0.037615    0.040138   0.002607  58.9789       
   LBFGS    23      4    0.037541    0.008792   0.000841  58.9970       
   LBFGS    24      4    0.037240    0.034249   0.002189  59.0477       
   LBFGS    25      4    0.036948    0.026832   0.001774  59.0873       
   LBFGS    26      4    0.035081    0.008366   0.000942  59.3573       
   LBFGS    27      4    0.033669    0.030397   0.001928  59.4374       
   LBFGS    28      4    0.031976    0.020210   0.001519  59.5288       
   LBFGS    29      4    0.030649    0.031767   0.001968  59.6460       

Possible intermediate minimum found at image(s): 3 
  => have a look at the .interp file.
  => it is often a good idea to divide the path calculation into smaller fragments. 

   LBFGS    30      4    0.029987    0.074310   0.003730  59.6222       
   LBFGS    31      4    0.029715    0.072294   0.003872  59.6203       
   LBFGS    32      4    0.029365    0.071318   0.004328  59.6584       
   LBFGS    33      4    0.028538    0.019859   0.001591  59.7132       
   LBFGS    34      4    0.028245    0.019913   0.001376  59.7299       
   LBFGS    35      4    0.028249    0.022991   0.002112  59.8049       
   LBFGS    36      4    0.027567    0.032901   0.002088  59.7844       
   LBFGS    37      4    0.027576    0.023714   0.001824  59.7780       
   LBFGS    38      4    0.027699    0.029426   0.002144  59.7776       
   LBFGS    39      4    0.027041    0.023138   0.002042  59.7965       
   LBFGS    40      4    0.027001    0.018470   0.001671  59.7937       
   LBFGS    41      2    0.026850    0.023290   0.001751  59.7819       
   LBFGS    42      2    0.026874    0.020432   0.002005  59.7027       
   LBFGS    43      4    0.027782    0.044789   0.003083  59.6739       
   LBFGS    44      2    0.026927    0.015959   0.001598  59.7133       
   LBFGS    45      2    0.026949    0.020685   0.001718  59.6906       
   LBFGS    46      2    0.026981    0.026544   0.001874  59.6389       
   LBFGS    47      2    0.027013    0.015736   0.001630  59.4884       
   LBFGS    48      4    0.027765    0.041199   0.003509  59.3811       
   LBFGS    49      2    0.027099    0.017317   0.001684  59.4304       
   LBFGS    50      2    0.027153    0.029833   0.002686  59.4300       
   LBFGS    51      2    0.027225    0.030713   0.002307  59.4226       
   LBFGS    52      6    0.027568    0.032671   0.002731  59.2843       
   LBFGS    53      6    0.032492    0.038918   0.002546  59.1532       
   LBFGS    54      6    0.037380    0.036379   0.002480  59.1490       
   LBFGS    55      6    0.043490    0.047655   0.003021  59.1940       
   LBFGS    56      6    0.044218    0.018203   0.001554  59.2062       
   LBFGS    57      6    0.045223    0.028999   0.002069  59.2549       
   LBFGS    58      6    0.047442    0.016308   0.001697  59.3756       
   LBFGS    59      6    0.046328    0.018692   0.001470  59.4277       
   LBFGS    60      6    0.045329    0.017564   0.001407  59.4881       
   LBFGS    61      6    0.041520    0.022806   0.001480  59.7778       
   LBFGS    62      6    0.040916    0.020817   0.001253  59.8597       
   LBFGS    63      6    0.040487    0.009172   0.000894  59.9212       
   LBFGS    64      6    0.039228    0.041631   0.002649  60.1984       
   LBFGS    65      6    0.039071    0.022568   0.001428  60.1628       
   LBFGS    66      6    0.038341    0.007270   0.000860  60.2772       
   LBFGS    67      6    0.036828    0.031532   0.002814  60.6329       
   LBFGS    68      6    0.036033    0.040679   0.002325  60.6076       
   LBFGS    69      6    0.035818    0.020180   0.001690  60.5778       
   LBFGS    70      6    0.036735    0.011588   0.001225  60.5237       
   LBFGS    71      6    0.038703    0.023562   0.001681  60.5079       
   LBFGS    72      6    0.039163    0.014338   0.001313  60.5092       
   LBFGS    73      6    0.039718    0.026243   0.001686  60.5380       
   LBFGS    74      6    0.037281    0.021694   0.001721  60.5832       
   LBFGS    75      6    0.036330    0.012265   0.001058  60.6087       
   LBFGS    76      6    0.035540    0.035557   0.002215  60.6714       
   LBFGS    77      6    0.033927    0.022459   0.001473  60.7197       
   LBFGS    78      6    0.030516    0.039764   0.002479  60.9948       
   LBFGS    79      6    0.030302    0.014657   0.001060  61.0019       
   LBFGS    80      6    0.030938    0.022255   0.001522  61.0048       
   LBFGS    81      6    0.033249    0.037812   0.002360  61.0271       
   LBFGS    82      6    0.034526    0.033242   0.001942  61.0409       
   LBFGS    83      6    0.033550    0.007076   0.000621  61.0305       
   LBFGS    84      6    0.034195    0.024343   0.001626  61.0093       
   LBFGS    85      6    0.035260    0.030074   0.001775  61.0010       
   LBFGS    86      6    0.035542    0.018874   0.001308  60.9981       
   LBFGS    87      6    0.037537    0.014236   0.001031  61.0142       
   LBFGS    88      6    0.037791    0.010399   0.000980  61.0407       
   LBFGS    89      6    0.037843    0.014584   0.001043  61.0529       
   LBFGS    90      6    0.037926    0.008764   0.000754  61.2101       
   LBFGS    91      6    0.037656    0.016291   0.001273  61.2309       
   LBFGS    92      6    0.037616    0.005296   0.000565  61.2497       
   LBFGS    93      6    0.037567    0.005483   0.000576  61.2666       
   LBFGS    94      6    0.037451    0.005237   0.000633  61.3820       
   LBFGS    95      6    0.037030    0.007638   0.000705  61.6187       
   LBFGS    96      6    0.037324    0.029708   0.001812  61.6708       

Possible intermediate minimum found at image(s): 4 
  => have a look at the .interp file.
  => it is often a good idea to divide the path calculation into smaller fragments. 

   LBFGS    97      6    0.036807    0.013615   0.000986  61.6933       
   LBFGS    98      6    0.036123    0.010734   0.000809  61.8239       
   LBFGS    99      6    0.026272    0.039215   0.002493  62.1955       
   LBFGS   100      6    0.026510    0.076256   0.004278  62.2251       
   LBFGS   101      6    0.023587    0.026436   0.001732  62.2484       
   LBFGS   102      6    0.023332    0.032005   0.002009  62.2858       
   LBFGS   103      6    0.023332    0.032005   0.002009  62.2858       
   LBFGS   104      5    0.025983    0.051059   0.003089  62.4278       
   LBFGS   105      5    0.030192    0.089873   0.005553  62.6104       
   LBFGS   106      5    0.030361    0.016082   0.001455  62.7361       
   LBFGS   107      5    0.030565    0.015116   0.001289  62.7113       
   LBFGS   108      5    0.031087    0.027496   0.001718  62.6673       
   LBFGS   109      5    0.030773    0.065989   0.003564  62.5784       
   LBFGS   110      5    0.030291    0.054159   0.002827  62.5026       
   LBFGS   111      5    0.029807    0.048074   0.002535  62.4468       
   LBFGS   112      5    0.029494    0.030453   0.001700  62.4102       
   LBFGS   113      5    0.027987    0.008064   0.000826  62.2415       
   LBFGS   114      5    0.027404    0.022648   0.001564  62.3269       
   LBFGS   115      5    0.027039    0.010021   0.000687  62.2561       
   LBFGS   116      5    0.026566    0.040972   0.002081  62.0404       
   LBFGS   117      5    0.026203    0.007766   0.000754  62.1900       
   LBFGS   118      5    0.026066    0.005428   0.000611  62.1592       
   LBFGS   119      5    0.025258    0.006400   0.000640  61.9408       
   LBFGS   120      5    0.025133    0.008700   0.000667  62.0918       
   LBFGS   121      5    0.025043    0.005777   0.000556  62.0608       
   LBFGS   122      5    0.024810    0.004917   0.000515  62.0183       
   LBFGS   123      5    0.024487    0.007511   0.000576  61.9814       
   LBFGS   124      5    0.024487    0.007510   0.000576  61.9814       
   LBFGS   125      5    0.024149    0.012680   0.000863  62.1012       
   LBFGS   126      5    0.024016    0.005802   0.000548  62.0338       
