66
Coordinates from ORCA-job my_molecule_im2 E -2537.121961678878
  O           2.67056790915720     -0.05335984985546     -1.41759732614074
  Si          3.61944036229798      0.92285341866550     -0.44254156378909
  Si          2.52758960813186     -1.42166041502422     -2.38980581239406
  C           2.56922762720311      2.38336657873610      0.14904318534245
  C           1.66967830532004      3.10959549763303     -0.71975786587947
  C           1.42980082006114     -0.93808760812723     -3.83751979081478
  C           0.92287324666347      0.29954252246255     -4.01134172926017
  C           4.34036435248665     -0.04704721656601      1.00669671232445
  C           5.02079310760720      1.67738794497185     -1.46953550455040
  C           4.22697738086896     -1.96215074682641     -3.02545157265117
  C           1.73355299700724     -2.79522615702168     -1.37008041171925
  H           3.06239111578458      2.97842380573490      0.94748111710431
  H           1.45789810709000      2.73277093975005     -1.73667057971799
  H           1.55521358522844      4.20582111716632     -0.61296287686094
  H           1.18075582455956     -1.71065340665805     -4.59161406158897
  H           1.13262800801278      1.10683050797876     -3.28864317176672
  H           0.27654901103854      0.56695277452688     -4.86529544483484
  H           3.55123753589991     -0.53033525839421      1.61679336251673
  H           4.92999582597242      0.61946661563231      1.67049069120053
  H           5.02601108629233     -0.83896405951874      0.63892207627788
  H           4.60843806210261      2.21951932046463     -2.34508128812045
  H           5.71400282377402      0.89629716078017     -1.84433220063338
  H           5.61458582116138      2.40051491775024     -0.87243232408103
  H           4.72429792401640     -1.14045711448995     -3.58014178272570
  H           4.12945883908892     -2.82364363534189     -3.71909486744974
  H           4.89386210034203     -2.27612148118420     -2.19544280059020
  H           0.77485628767744     -2.43315373930998     -0.94548825440531
  H           2.39363108721344     -3.10172538140417     -0.53218102053850
  H           1.52789904669974     -3.69346011604024     -1.98848402233264
  Pt          0.60036748032601      2.21344545585784      0.77754453063103
  O          -2.99446631645004      0.88775424660021      0.55341446910843
  O          -2.93929550847880     -0.06753612307008      1.71651369870608
  P          -2.41419457189038      0.23149380833789     -0.89878601892431
  P          -3.09600214754906      0.80648113179817      3.16013705246673
  O          -3.65080489450280     -0.45318816604792      4.05502701267927
  O          -3.93804835923326      2.04041616607444      3.07956850795667
  O          -0.95541848398506     -0.39996402888346     -0.54489976414762
  O          -2.47499930837224      1.41169146793269     -1.82712416120714
  C          -3.42891187968657     -1.23872082223975     -1.43022469534163
  C          -1.39969573820238      1.02693811075161      3.89459627557290
  C          -1.57583452623874      1.26665796820827      5.41226427746063
  C          -0.80193668804718      2.28842805070202      3.25601673476224
  C          -0.51235564838745     -0.19825842168749      3.62547005844200
  C          -3.26304053813474     -2.45393532589910     -0.50103679721505
  C          -4.90288216329094     -0.78543007510223     -1.48528770713474
  C          -2.94483768625433     -1.58592113424346     -2.85821413247542
  H          -4.60896888661911     -0.56629288774723      3.88952209429572
  H          -0.29658939218434      0.34087949675580     -0.34102349743364
  H          -2.24880727094381      2.12345086939860      5.61599444166398
  H          -0.58736441183284      1.48986371654960      5.86657226770649
  H          -1.99242528414100      0.37115314755542      5.91166409349555
  H          -1.42325648121369      3.19089026793813      3.41515221621288
  H          -0.79009979556105      2.16498606583210      2.12181375204955
  H           0.22236480751550      2.47699570155741      3.63509965857899
  H          -0.95396878877674     -1.11795223936146      4.05581548656243
  H           0.48325139235065     -0.04225573908498      4.09199535812383
  H          -0.36572000516038     -0.35872540578126      2.53786385110240
  H          -3.58238404820150     -2.23082718132412      0.53495868655426
  H          -2.21355346032822     -2.80589194039680     -0.47400073768547
  H          -3.89227905528571     -3.28546087938729     -0.88565686790442
  H          -5.30146174900542     -0.54283685678153     -0.48073913313545
  H          -5.51648319493588     -1.60796536427411     -1.91112012016461
  H          -5.02622082447907      0.10493323612217     -2.13283935395937
  H          -1.88167403781183     -1.89779405663478     -2.87134333156868
  H          -3.05998721398503     -0.72373597558461     -3.54389525431275
  H          -3.55659312978193     -2.42706322093157     -3.24874382344254
