66
Coordinates from ORCA-job my_molecule_im8 E -2537.159456269523
  O           2.93981035849871     -0.27873011887599     -1.23573436662607
  Si          3.99492539191822      0.64250506541624     -0.30642113105702
  Si          2.56458298021861     -1.24797375557362     -2.55058299981622
  C           2.94322299335117      1.79680837761764      0.75449916108776
  C           2.30352748086210      2.89633247412536      0.29852161481968
  C           1.23390481312262     -0.34186113923486     -3.52790669715198
  C           0.82161836811903      0.91819792422724     -3.26650901418269
  C           4.97337780701488     -0.51757061269424      0.81254873564979
  C           5.14340987576638      1.62155869146335     -1.44228301764952
  C           4.10299874360536     -1.55707461745976     -3.60327966192573
  C           1.84146032468474     -2.87048104866683     -1.91778078570406
  H           2.82451073441894      1.55461576545481      1.82990156201221
  H           2.36597136229229      3.21534215798061     -0.75683802588573
  H           1.68141858601051      3.53432396524911      0.95243039597106
  H           0.72717468852393     -0.87903316840082     -4.35472319313207
  H           1.28463268958109      1.51128587922426     -2.45615891648181
  H           0.00211127935076      1.39582628870168     -3.83020313663261
  H           4.28757669719382     -1.13135648598740      1.43203379625259
  H           5.64294765498085      0.04395703669238      1.49656824041690
  H           5.60218732591278     -1.21010967155210      0.21551181464318
  H           4.57202486891114      2.26771871338043     -2.14040043711849
  H           5.76982689146879      0.93742496299179     -2.05167409800843
  H           5.82261295634376      2.27449995879724     -0.85633965941160
  H           4.54180516092154     -0.60341423608237     -3.96099982787958
  H           3.86360485488508     -2.17458895672396     -4.49381054877950
  H           4.87727991533168     -2.09584095102178     -3.01765327320068
  H           0.93460861190745     -2.67313702916218     -1.30977650568039
  H           2.57011091554793     -3.42013075922808     -1.28710992683296
  H           1.54983926323761     -3.53202185895759     -2.76049079706952
  Pt         -2.90659250188049      1.66993654492780      0.41598922499274
  O          -3.64808253431592      0.54469026896313     -0.88682464355364
  O          -1.98040466204495      1.34385497475410      2.04766075698725
  P          -2.67846129893356     -0.31450384160713     -1.95723551372353
  P          -2.77117487487395      1.69392620135193      3.46634180542772
  O          -3.60169847362899      0.33417837465575      3.88326279653303
  O          -3.62674224953073      2.93277603464628      3.41693927619183
  O          -1.32704506189234     -0.69898435486428     -1.10996009505325
  O          -2.45739430421280      0.45829450279492     -3.23011596737426
  C          -3.61441825261399     -1.89920047886394     -2.10447987959429
  C          -1.27213734703188      1.67785900975175      4.55275275581269
  C          -1.75310703530004      1.99890066732253      5.97962357310780
  C          -0.34531022432317      2.79342121018302      4.02539468637842
  C          -0.58175358095650      0.30304780635889      4.49355951437694
  C          -3.41082226551457     -2.78747406445404     -0.86422602482532
  C          -5.10245569306081     -1.52641365112651     -2.27291940348725
  C          -3.08198029324497     -2.59018729511963     -3.37491931368789
  H          -4.55482823096986      0.54736645004886      3.81136560450581
  H          -0.56283035495832     -0.17953822733485     -1.45567252512161
  H          -2.31380069186046      2.95418735203431      6.01287943336271
  H          -0.86885363566919      2.09058036307687      6.64453141814288
  H          -2.40388862037343      1.19588507385955      6.37922904013565
  H          -0.86478908663180      3.77266226475365      4.02073937124216
  H          -0.00484211334231      2.57789347415067      2.99404596469516
  H           0.54739438611122      2.87386677222571      4.67964868502968
  H          -1.25427300925780     -0.50518493627036      4.84264931358939
  H           0.31237302252740      0.31538090600301      5.15263619379991
  H          -0.25034867823902      0.05783882125204      3.46590718355008
  H          -3.73613437595755     -2.28315077163491      0.06805059163274
  H          -2.35117881755998     -3.08433232269415     -0.74278538342050
  H          -4.01865587691591     -3.71006707996305     -0.97844345465134
  H          -5.51430721360703     -1.09271950099921     -1.34153503240404
  H          -5.68315697955105     -2.43771601271440     -2.52445823582677
  H          -5.24779820477775     -0.78943230023636     -3.08822442134981
  H          -2.01341208662574     -2.86909541515196     -3.26982130348845
  H          -3.17837605900380     -1.92773971849118     -4.25708464997417
  H          -3.66179631395972     -3.51787995328937     -3.55984064258498
