66
Coordinates from ORCA-job my_molecule_im0 E -2537.143799370434
  O           2.51524195454545      0.04842104545455     -1.38763103030303
  Si          3.38346195454545      1.19378804545454     -0.51684703030303
  Si          2.47496795454545     -1.54281095454546     -1.93997803030303
  C           2.24305495454545      2.68343104545454     -0.27266803030303
  C           1.02582395454545      2.89215004545455     -0.99951003030303
  C           1.52661795454546     -1.53124395454546     -3.56474303030303
  C           1.03126395454545     -0.41938495454546     -4.14598003030303
  C           3.94474295454545      0.48897704545454      1.14326596969697
  C           4.88513395454545      1.74902704545454     -1.52406403030303
  C           4.23396295454545     -2.17725595454545     -2.23214603030303
  C           1.59129995454546     -2.62505195454546     -0.67253403030303
  H           2.74110895454545      3.59398704545454      0.12334596969697
  H           0.66448195454545      2.13878004545455     -1.72203103030303
  H           0.63908395454545      3.91208304545454     -1.17827403030303
  H           1.36653895454546     -2.49950095454545     -4.07965803030303
  H           1.15934295454546      0.57297804545455     -3.67953403030303
  H           0.48099195454545     -0.44438795454546     -5.10324703030303
  H           3.08108395454545      0.07904504545455      1.70530596969697
  H           4.41444995454545      1.27698604545454      1.76817296969697
  H           4.68981195454545     -0.32202195454546      1.00607496969697
  H           4.57323395454545      2.13090104545455     -2.51748303030303
  H           5.59127695454545      0.90841504545455     -1.68577203030303
  H           5.43749695454545      2.55976704545454     -1.00476703030303
  H           4.78014295454545     -1.52723195454546     -2.94571003030303
  H           4.21608795454545     -3.20307595454545     -2.65605703030303
  H           4.81193595454545     -2.21746595454545     -1.28520603030303
  H           0.58735495454545     -2.20468195454546     -0.45979403030303
  H           2.15939195454545     -2.67256595454545      0.27954196969697
  H           1.46705995454546     -3.66226095454545     -1.04746303030303
  Pt          0.58735895454545      2.31524304545455      0.95396496969697
  O          -3.07222004545455      1.01875904545455      0.75721096969697
  O          -3.16816404545455     -0.15823895454545      1.69045296969697
  P          -2.37164304545455      0.59297504545455     -0.73164603030303
  P          -2.96214904545455      0.41282604545454      3.26555796969697
  O          -3.25345004545455     -1.03731495454545      3.97924496969697
  O          -3.83025104545455      1.56157004545454      3.67233396969697
  O          -0.94942204545455     -0.11250995454545     -0.37645303030303
  O          -2.34189904545455      1.90248304545454     -1.46994903030303
  C          -3.37228004545455     -0.76035295454545     -1.50553903030303
  C          -1.13735204545454      0.62724404545455      3.54840696969697
  C          -0.94503604545455      0.78050404545455      5.07357496969697
  C          -0.71561004545455      1.95077904545454      2.85975296969697
  C          -0.36119004545455     -0.58778495454545      3.01560696969697
  C          -3.13895104545455     -2.12763795454545     -0.83702903030303
  C          -4.85083204545455     -0.33384795454546     -1.39810403030303
  C          -2.92740804545455     -0.79801195454545     -2.98515203030303
  H          -4.20380304545455     -1.09068095454546      4.20860096969697
  H          -0.29340004545455      0.59410304545455     -0.02923303030303
  H          -1.55363304545454      1.61473004545454      5.47544296969697
  H           0.12336595454546      0.98643404545455      5.29457996969697
  H          -1.23387204545454     -0.14750695454545      5.60421896969697
  H          -1.13369604545454      2.83735004545454      3.37379296969697
  H          -1.15057804545454      2.01160204545454      1.80012796969697
  H           0.42063595454545      2.04682804545454      2.94591496969697
  H          -0.69220504545455     -1.51572995454546      3.52136796969697
  H           0.72231195454545     -0.45225795454546      3.21750696969697
  H          -0.49683004545455     -0.71847495454545      1.92599396969697
  H          -3.42270304545455     -2.11806295454545      0.23233396969697
  H          -2.08002104545454     -2.44204995454546     -0.91315703030303
  H          -3.76055004545455     -2.88860895454545     -1.35496703030303
  H          -5.19438804545455     -0.31943195454546     -0.34541103030303
  H          -5.48029704545455     -1.05426695454545     -1.96100603030303
  H          -5.01245304545455      0.67480604545455     -1.82833303030303
  H          -1.85908204545454     -1.07868995454546     -3.08505503030303
  H          -3.07030904545455      0.18646204545455     -3.47205903030303
  H          -3.53444304545455     -1.55303295454546     -3.52750603030303
