66
Coordinates from ORCA-job my_molecule_im1 E -2537.137612763786
  O           2.58796279831258     -0.00695404057738     -1.36913125249421
  Si          3.56715613531678      0.98406452663547     -0.43007574930583
  Si          2.49634654453719     -1.41287865665836     -2.29632180174756
  C           2.55042414072722      2.48331670471503      0.11513721214134
  C           1.44475061067495      3.01663133268799     -0.62725920437091
  C           1.42693805733724     -1.01233296566083     -3.79028575275897
  C           0.93015833730680      0.21337785622018     -4.05423958724041
  C           4.27071494370747      0.03495030257585      1.04149026272883
  C           4.98179642257216      1.66799926315190     -1.48728040657110
  C           4.21220128027098     -1.95623761212341     -2.88610189950999
  C           1.71114705866095     -2.77469793299753     -1.25386968813215
  H           3.15120087061155      3.22219379449970      0.68830655340937
  H           1.03018686704587      2.46793291084662     -1.49196430773968
  H           1.25475984833443      4.10650682593675     -0.64528302647341
  H           1.19778047655373     -1.82895447562648     -4.50364830035152
  H           1.12594976221973      1.06439085150026     -3.37934534149955
  H           0.30977992601990      0.42738053203190     -4.94201535646686
  H           3.46867497817896     -0.43289060058789      1.64698715620716
  H           4.85081935058786      0.71107408134865      1.70368590627242
  H           4.95852210985762     -0.76564863962886      0.69731834291055
  H           4.58024399368138      2.18480252586269     -2.38289965528666
  H           5.66308484687045      0.86248631082499     -1.83041661364113
  H           5.58620902366330      2.40268714790678     -0.91533820958134
  H           4.71086297578077     -1.15760788908670     -3.47205831578589
  H           4.12296876919306     -2.84633203667741     -3.54429720573913
  H           4.87364499919466     -2.23436920160812     -2.03924569812631
  H           0.74095524934081     -2.42316635488290     -0.84739360866843
  H           2.36658588833024     -3.05164766957107     -0.40220162996619
  H           1.53128776371968     -3.68964221219215     -1.85589833045702
  Pt          0.76115006684724      2.26204579269890      1.17794272388903
  O          -3.04321967183223      0.93309682809452      0.59038690093051
  O          -3.12238889018884     -0.08497705270896      1.69628113148214
  P          -2.34884701974903      0.29680077118424     -0.81900226053698
  P          -3.13305053225530      0.73647587954675      3.17291365154206
  O          -3.60965024963554     -0.55899584735052      4.06189902068483
  O          -3.97794084794383      1.96961173540276      3.22395474774802
  O          -0.93145692230524     -0.36072849108427     -0.34603789657365
  O          -2.30203300287255      1.48363205530656     -1.73877318590798
  C          -3.36209806774741     -1.14662912771429     -1.41675047398047
  C          -1.37210311487665      0.93443747466709      3.73272883494267
  C          -1.42685709646184      1.26502470994522      5.24199571966140
  C          -0.78101967406290      2.14338492644927      2.96888610902485
  C          -0.55426231406560     -0.33970710564309      3.47148766950934
  C          -3.19542207734597     -2.40545389728280     -0.54701003985546
  C          -4.83557430155566     -0.68469096917984     -1.43314648990118
  C          -2.88871450092083     -1.42302307287927     -2.86245072703913
  H          -4.58697189116622     -0.61551329905416      4.04554567207921
  H          -0.27868348848873      0.35504761156132     -0.08390352521043
  H          -2.06679374241028      2.14804430112169      5.44037879972164
  H          -0.40487402758745      1.48415779362049      5.61661050219159
  H          -1.83014597552060      0.41011287001479      5.81878739452894
  H          -1.23096068336447      3.10509343271408      3.27981071878686
  H          -1.03122443767003      2.04344212966945      1.84808884610853
  H           0.32515833292128      2.21747694760254      3.21758883432702
  H          -1.00279581715547     -1.21585240739644      3.97841690721508
  H           0.47359364940129     -0.20034910580824      3.86923143066148
  H          -0.47939326212403     -0.55906116268972      2.38883209766188
  H          -3.51503765108446     -2.23215167132727      0.49805890134789
  H          -2.14676364563991     -2.76054500614180     -0.53700946662430
  H          -3.82664739443298     -3.21589830006211     -0.97104126002802
  H          -5.22093677086260     -0.49189988369953     -0.41303770207155
  H          -5.45708997968635     -1.48226636571672     -1.89292890272504
  H          -4.96429038237320      0.23764222753398     -2.03358988544089
  H          -1.82511408249433     -1.73249739823070     -2.89944713465504
  H          -3.00844707064155     -0.52715179160499     -3.50230849548822
  H          -3.50220749125608     -2.24457021042462     -3.28974365976201
