66
Coordinates from ORCA-job my_molecule_MEP E -2537.143799370434
  O       2.515242      0.048421     -1.387631
  Si      3.383462      1.193788     -0.516847
  Si      2.474968     -1.542811     -1.939978
  C       2.243055      2.683431     -0.272668
  C       1.025824      2.892150     -0.999510
  C       1.526618     -1.531244     -3.564743
  C       1.031264     -0.419385     -4.145980
  C       3.944743      0.488977      1.143266
  C       4.885134      1.749027     -1.524064
  C       4.233963     -2.177256     -2.232146
  C       1.591300     -2.625052     -0.672534
  H       2.741109      3.593987      0.123346
  H       0.664482      2.138780     -1.722031
  H       0.639084      3.912083     -1.178274
  H       1.366539     -2.499501     -4.079658
  H       1.159343      0.572978     -3.679534
  H       0.480992     -0.444388     -5.103247
  H       3.081084      0.079045      1.705306
  H       4.414450      1.276986      1.768173
  H       4.689812     -0.322022      1.006075
  H       4.573234      2.130901     -2.517483
  H       5.591277      0.908415     -1.685772
  H       5.437497      2.559767     -1.004767
  H       4.780143     -1.527232     -2.945710
  H       4.216088     -3.203076     -2.656057
  H       4.811936     -2.217466     -1.285206
  H       0.587355     -2.204682     -0.459794
  H       2.159392     -2.672566      0.279542
  H       1.467060     -3.662261     -1.047463
  Pt      0.587359      2.315243      0.953965
  O      -3.072220      1.018759      0.757211
  O      -3.168164     -0.158239      1.690453
  P      -2.371643      0.592975     -0.731646
  P      -2.962149      0.412826      3.265558
  O      -3.253450     -1.037315      3.979245
  O      -3.830251      1.561570      3.672334
  O      -0.949422     -0.112510     -0.376453
  O      -2.341899      1.902483     -1.469949
  C      -3.372280     -0.760353     -1.505539
  C      -1.137352      0.627244      3.548407
  C      -0.945036      0.780504      5.073575
  C      -0.715610      1.950779      2.859753
  C      -0.361190     -0.587785      3.015607
  C      -3.138951     -2.127638     -0.837029
  C      -4.850832     -0.333848     -1.398104
  C      -2.927408     -0.798012     -2.985152
  H      -4.203803     -1.090681      4.208601
  H      -0.293400      0.594103     -0.029233
  H      -1.553633      1.614730      5.475443
  H       0.123366      0.986434      5.294580
  H      -1.233872     -0.147507      5.604219
  H      -1.133696      2.837350      3.373793
  H      -1.150578      2.011602      1.800128
  H       0.420636      2.046828      2.945915
  H      -0.692205     -1.515730      3.521368
  H       0.722312     -0.452258      3.217507
  H      -0.496830     -0.718475      1.925994
  H      -3.422703     -2.118063      0.232334
  H      -2.080021     -2.442050     -0.913157
  H      -3.760550     -2.888609     -1.354967
  H      -5.194388     -0.319432     -0.345411
  H      -5.480297     -1.054267     -1.961006
  H      -5.012453      0.674806     -1.828333
  H      -1.859082     -1.078690     -3.085055
  H      -3.070309      0.186462     -3.472059
  H      -3.534443     -1.553033     -3.527506
66
Coordinates from ORCA-job my_molecule_MEP E -2537.137612763786
  O       2.587963     -0.006954     -1.369131
  Si      3.567156      0.984065     -0.430076
  Si      2.496347     -1.412879     -2.296322
  C       2.550424      2.483317      0.115137
  C       1.444751      3.016631     -0.627259
  C       1.426938     -1.012333     -3.790286
  C       0.930158      0.213378     -4.054240
  C       4.270715      0.034950      1.041490
  C       4.981796      1.667999     -1.487280
  C       4.212201     -1.956238     -2.886102
  C       1.711147     -2.774698     -1.253870
  H       3.151201      3.222194      0.688307
  H       1.030187      2.467933     -1.491964
  H       1.254760      4.106507     -0.645283
  H       1.197780     -1.828954     -4.503648
  H       1.125950      1.064391     -3.379345
  H       0.309780      0.427381     -4.942015
  H       3.468675     -0.432891      1.646987
  H       4.850819      0.711074      1.703686
  H       4.958522     -0.765649      0.697318
  H       4.580244      2.184803     -2.382900
  H       5.663085      0.862486     -1.830417
  H       5.586209      2.402687     -0.915338
  H       4.710863     -1.157608     -3.472058
  H       4.122969     -2.846332     -3.544297
  H       4.873645     -2.234369     -2.039246
  H       0.740955     -2.423166     -0.847394
  H       2.366586     -3.051648     -0.402202
  H       1.531288     -3.689642     -1.855898
  Pt      0.761150      2.262046      1.177943
  O      -3.043220      0.933097      0.590387
  O      -3.122389     -0.084977      1.696281
  P      -2.348847      0.296801     -0.819002
  P      -3.133051      0.736476      3.172914
  O      -3.609650     -0.558996      4.061899
  O      -3.977941      1.969612      3.223955
  O      -0.931457     -0.360728     -0.346038
  O      -2.302033      1.483632     -1.738773
  C      -3.362098     -1.146629     -1.416750
  C      -1.372103      0.934437      3.732729
  C      -1.426857      1.265025      5.241996
  C      -0.781020      2.143385      2.968886
  C      -0.554262     -0.339707      3.471488
  C      -3.195422     -2.405454     -0.547010
  C      -4.835574     -0.684691     -1.433146
  C      -2.888715     -1.423023     -2.862451
  H      -4.586972     -0.615513      4.045546
  H      -0.278683      0.355048     -0.083904
  H      -2.066794      2.148044      5.440379
  H      -0.404874      1.484158      5.616611
  H      -1.830146      0.410113      5.818787
  H      -1.230961      3.105093      3.279811
  H      -1.031224      2.043442      1.848089
  H       0.325158      2.217477      3.217589
  H      -1.002796     -1.215852      3.978417
  H       0.473594     -0.200349      3.869231
  H      -0.479393     -0.559061      2.388832
  H      -3.515038     -2.232152      0.498059
  H      -2.146764     -2.760545     -0.537009
  H      -3.826647     -3.215898     -0.971041
  H      -5.220937     -0.491900     -0.413038
  H      -5.457090     -1.482266     -1.892929
  H      -4.964290      0.237642     -2.033590
  H      -1.825114     -1.732497     -2.899447
  H      -3.008447     -0.527152     -3.502308
  H      -3.502207     -2.244570     -3.289744
66
Coordinates from ORCA-job my_molecule_MEP E -2537.121961678878
  O       2.670568     -0.053360     -1.417597
  Si      3.619440      0.922853     -0.442542
  Si      2.527590     -1.421660     -2.389806
  C       2.569228      2.383367      0.149043
  C       1.669678      3.109595     -0.719758
  C       1.429801     -0.938088     -3.837520
  C       0.922873      0.299543     -4.011342
  C       4.340364     -0.047047      1.006697
  C       5.020793      1.677388     -1.469536
  C       4.226977     -1.962151     -3.025452
  C       1.733553     -2.795226     -1.370080
  H       3.062391      2.978424      0.947481
  H       1.457898      2.732771     -1.736671
  H       1.555214      4.205821     -0.612963
  H       1.180756     -1.710653     -4.591614
  H       1.132628      1.106831     -3.288643
  H       0.276549      0.566953     -4.865295
  H       3.551238     -0.530335      1.616793
  H       4.929996      0.619467      1.670491
  H       5.026011     -0.838964      0.638922
  H       4.608438      2.219519     -2.345081
  H       5.714003      0.896297     -1.844332
  H       5.614586      2.400515     -0.872432
  H       4.724298     -1.140457     -3.580142
  H       4.129459     -2.823644     -3.719095
  H       4.893862     -2.276121     -2.195443
  H       0.774856     -2.433154     -0.945488
  H       2.393631     -3.101725     -0.532181
  H       1.527899     -3.693460     -1.988484
  Pt      0.600367      2.213445      0.777545
  O      -2.994466      0.887754      0.553414
  O      -2.939296     -0.067536      1.716514
  P      -2.414195      0.231494     -0.898786
  P      -3.096002      0.806481      3.160137
  O      -3.650805     -0.453188      4.055027
  O      -3.938048      2.040416      3.079569
  O      -0.955418     -0.399964     -0.544900
  O      -2.474999      1.411691     -1.827124
  C      -3.428912     -1.238721     -1.430225
  C      -1.399696      1.026938      3.894596
  C      -1.575835      1.266658      5.412264
  C      -0.801937      2.288428      3.256017
  C      -0.512356     -0.198258      3.625470
  C      -3.263041     -2.453935     -0.501037
  C      -4.902882     -0.785430     -1.485288
  C      -2.944838     -1.585921     -2.858214
  H      -4.608969     -0.566293      3.889522
  H      -0.296589      0.340879     -0.341023
  H      -2.248807      2.123451      5.615994
  H      -0.587364      1.489864      5.866572
  H      -1.992425      0.371153      5.911664
  H      -1.423256      3.190890      3.415152
  H      -0.790100      2.164986      2.121814
  H       0.222365      2.476996      3.635100
  H      -0.953969     -1.117952      4.055815
  H       0.483251     -0.042256      4.091995
  H      -0.365720     -0.358725      2.537864
  H      -3.582384     -2.230827      0.534959
  H      -2.213553     -2.805892     -0.474001
  H      -3.892279     -3.285461     -0.885657
  H      -5.301462     -0.542837     -0.480739
  H      -5.516483     -1.607965     -1.911120
  H      -5.026221      0.104933     -2.132839
  H      -1.881674     -1.897794     -2.871343
  H      -3.059987     -0.723736     -3.543895
  H      -3.556593     -2.427063     -3.248744
66
Coordinates from ORCA-job my_molecule_MEP E -2537.124120715383
  O       2.609090     -0.132831     -1.419927
  Si      3.467649      0.918322     -0.432894
  Si      2.518601     -1.476030     -2.429240
  C       2.282431      2.289529      0.147484
  C       1.600843      3.142150     -0.810160
  C       1.423586     -0.976180     -3.875376
  C       0.909968      0.262792     -4.022993
  C       4.236709     -0.014670      1.017880
  C       4.857533      1.716391     -1.445805
  C       4.230923     -1.966520     -3.067789
  C       1.765447     -2.894394     -1.439207
  H       2.589140      2.777319      1.096806
  H       1.655705      2.929235     -1.894409
  H       1.423609      4.209746     -0.574006
  H       1.194496     -1.729758     -4.654631
  H       1.096391      1.049723     -3.271863
  H       0.276646      0.549005     -4.880916
  H       3.478261     -0.525137      1.644478
  H       4.816235      0.673979      1.667902
  H       4.943738     -0.783841      0.640967
  H       4.453584      2.251209     -2.329568
  H       5.567832      0.945016     -1.811012
  H       5.435961      2.446612     -0.842147
  H       4.715185     -1.128500     -3.609067
  H       4.147656     -2.819080     -3.774451
  H       4.900225     -2.282994     -2.240882
  H       0.796971     -2.575362     -1.004253
  H       2.438832     -3.189689     -0.607759
  H       1.589364     -3.789403     -2.070741
  Pt      0.211206      1.987734      0.107231
  O      -2.548270      0.904541      0.586664
  O      -2.853921     -0.057805      1.697798
  P      -2.136268      0.126124     -0.867559
  P      -3.074825      0.827185      3.139634
  O      -3.672135     -0.460414      3.970517
  O      -3.966129      2.024058      3.026129
  O      -0.779619     -0.712402     -0.544725
  O      -2.002852      1.320877     -1.782901
  C      -3.340374     -1.194087     -1.376070
  C      -1.406804      1.066499      3.917406
  C      -1.644955      1.253561      5.433702
  C      -0.795870      2.356949      3.343434
  C      -0.515961     -0.158581      3.645418
  C      -3.232295     -2.447725     -0.486660
  C      -4.775573     -0.634584     -1.363124
  C      -2.913757     -1.524209     -2.828549
  H      -4.649144     -0.440758      3.908093
  H      -0.019768     -0.011248     -0.514552
  H      -2.312042      2.116433      5.632188
  H      -0.670557      1.459123      5.924626
  H      -2.087848      0.352245      5.899292
  H      -1.473828      3.222470      3.476477
  H      -0.548599      2.281773      2.250100
  H       0.161860      2.569276      3.863250
  H      -0.959661     -1.084203      4.063322
  H       0.474289     -0.005789      4.123182
  H      -0.354660     -0.316533      2.560325
  H      -3.533236     -2.239228      0.557696
  H      -2.204051     -2.857154     -0.478115
  H      -3.908619     -3.228929     -0.894803
  H      -5.126470     -0.411457     -0.336583
  H      -5.454225     -1.399756     -1.797415
  H      -4.865849      0.284510     -1.974777
  H      -1.865488     -1.880101     -2.877525
  H      -3.005340     -0.637931     -3.486276
  H      -3.570973     -2.327100     -3.223269
66
Coordinates from ORCA-job my_molecule_MEP E -2537.144135847520
  O       2.485645     -0.183963     -1.383057
  Si      3.341630      0.917433     -0.439282
  Si      2.509673     -1.498348     -2.458214
  C       2.081841      2.246635      0.138424
  C       1.449621      3.177709     -0.741655
  C       1.416375     -0.971839     -3.893167
  C       0.923701      0.277742     -4.021827
  C       4.164231      0.023368      1.006374
  C       4.727003      1.727120     -1.449771
  C       4.246596     -1.904920     -3.083427
  C       1.831177     -2.977267     -1.507687
  H       2.256543      2.621388      1.170395
  H       1.555130      3.064948     -1.836618
  H       1.232750      4.207710     -0.403687
  H       1.164571     -1.712945     -4.676199
  H       1.128881      1.054834     -3.266556
  H       0.281422      0.584515     -4.865275
  H       3.446135     -0.512087      1.658337
  H       4.754282      0.721511      1.636542
  H       4.878279     -0.726368      0.601537
  H       4.358486      2.271214     -2.342236
  H       5.438157      0.947197     -1.796888
  H       5.307813      2.443170     -0.830238
  H       4.717648     -1.053747     -3.614493
  H       4.173800     -2.747282     -3.804680
  H       4.918741     -2.231943     -2.263333
  H       0.847643     -2.738076     -1.060057
  H       2.525173     -3.255375     -0.687447
  H       1.699421     -3.862047     -2.162530
  Pt     -0.046136      1.876325     -0.011950
  O      -1.868728      0.912485      0.497829
  O      -3.178983     -0.241531      1.977829
  P      -1.824628      0.030919     -0.856900
  P      -3.188772      0.790048      3.178991
  O      -3.841560     -0.170675      4.388385
  O      -3.944434      2.097028      3.013962
  O      -0.620262     -1.074234     -0.699185
  O      -1.369053      1.133731     -1.884358
  C      -3.221268     -1.103441     -1.353893
  C      -1.468038      1.041409      3.883638
  C      -1.601790      1.319338      5.398266
  C      -0.841137      2.297197      3.245685
  C      -0.614330     -0.210339      3.627470
  C      -3.182033     -2.366653     -0.462023
  C      -4.623950     -0.474121     -1.282338
  C      -2.872435     -1.466025     -2.817939
  H      -4.771620     -0.361824      4.150782
  H       0.239802     -0.580008     -0.724515
  H      -2.246287      2.201189      5.587435
  H      -0.598504      1.525966      5.829029
  H      -2.043327      0.453834      5.928642
  H      -1.530539      3.164040      3.287424
  H      -0.590860      2.145893      2.157580
  H       0.106507      2.552401      3.765677
  H      -1.059436     -1.102933      4.110762
  H       0.407392     -0.069314      4.042026
  H      -0.536528     -0.422070      2.543024
  H      -3.439027     -2.124258      0.586925
  H      -2.192817     -2.859227     -0.482953
  H      -3.930415     -3.084432     -0.860354
  H      -4.917397     -0.237606     -0.241756
  H      -5.337163     -1.230744     -1.678049
  H      -4.726122      0.432352     -1.910397
  H      -1.852772     -1.889072     -2.902021
  H      -2.941237     -0.584503     -3.485387
  H      -3.594478     -2.231434     -3.170627
66
Coordinates from ORCA-job my_molecule_MEP E -2537.119783656796
  O       2.493290     -0.116708     -1.354348
  Si      3.381427      0.923884     -0.372035
  Si      2.523089     -1.440554     -2.416911
  C       2.136003      2.227433      0.294536
  C       1.493114      3.182452     -0.544988
  C       1.415807     -0.908710     -3.839864
  C       0.937261      0.345433     -3.983375
  C       4.220331     -0.031525      1.021663
  C       4.744190      1.743785     -1.403770
  C       4.252850     -1.845285     -3.056782
  C       1.828218     -2.931309     -1.499094
  H       2.315444      2.571467      1.334981
  H       1.656063      3.142890     -1.640722
  H       1.239098      4.187423     -0.163582
  H       1.140785     -1.658805     -4.606294
  H       1.170324      1.135949     -3.249116
  H       0.282874      0.645721     -4.819033
  H       3.503557     -0.580644      1.663548
  H       4.829476      0.635311      1.667402
  H       4.916534     -0.774106      0.575654
  H       4.351747      2.292438     -2.283467
  H       5.433703      0.957560     -1.780492
  H       5.353432      2.450111     -0.801864
  H       4.725301     -0.992517     -3.583656
  H       4.160204     -2.677969     -3.786549
  H       4.930480     -2.190185     -2.248833
  H       0.840827     -2.693892     -1.057097
  H       2.509502     -3.240539     -0.679818
  H       1.702026     -3.794355     -2.184561
  Pt      0.001189      1.808015      0.106742
  O      -1.840646      0.929811      0.369270
  O      -3.440920     -0.373909      2.254561
  P      -1.938014      0.103800     -1.018396
  P      -3.207115      0.758859      3.268711
  O      -3.937746      0.176437      4.659021
  O      -3.751507      2.159999      2.905031
  O      -0.647139     -0.937485     -0.885234
  O      -1.703135      1.144014     -2.140436
  C      -3.291597     -1.166211     -1.432093
  C      -1.425826      1.050644      3.891840
  C      -1.532809      1.415510      5.396720
  C      -0.768630      2.235095      3.169163
  C      -0.590873     -0.219782      3.707325
  C      -3.217682     -2.378733     -0.478352
  C      -4.712401     -0.573541     -1.426936
  C      -2.945740     -1.619976     -2.878643
  H      -4.656308     -0.389593      4.300833
  H       0.124102     -0.490320     -1.300887
  H      -2.179933      2.298925      5.567704
  H      -0.523230      1.639297      5.801964
  H      -1.962051      0.566272      5.961405
  H      -1.387296      3.153249      3.179993
  H      -0.568768      2.024245      2.051880
  H       0.243741      2.432416      3.582035
  H      -1.056210     -1.086652      4.215535
  H       0.419411     -0.067334      4.147710
  H      -0.470672     -0.470757      2.633921
  H      -3.449580     -2.087531      0.564045
  H      -2.222235     -2.861383     -0.508451
  H      -3.962818     -3.134896     -0.813075
  H      -5.027431     -0.259514     -0.413847
  H      -5.416293     -1.364398     -1.772489
  H      -4.811032      0.278353     -2.128290
  H      -1.932644     -2.060998     -2.954138
  H      -3.022359     -0.791402     -3.609273
  H      -3.674760     -2.405280     -3.176402
66
Coordinates from ORCA-job my_molecule_MEP E -2537.128552964132
  O       2.449471     -0.139190     -1.358667
  Si      3.326402      0.897349     -0.352887
  Si      2.516052     -1.466675     -2.422520
  C       2.082403      2.169704      0.355541
  C       1.370780      3.093178     -0.476007
  C       1.433145     -0.944710     -3.868289
  C       0.959725      0.309645     -4.024939
  C       4.178355     -0.048577      1.038867
  C       4.676150      1.752690     -1.370482
  C       4.261615     -1.858037     -3.027252
  C       1.822494     -2.950717     -1.491547
  H       2.315435      2.539571      1.374834
  H       1.434020      3.019976     -1.579732
  H       1.111190      4.102730     -0.107621
  H       1.159089     -1.699287     -4.630499
  H       1.189418      1.104601     -3.294088
  H       0.307764      0.606517     -4.863354
  H       3.469361     -0.595738      1.691084
  H       4.769697      0.644602      1.673986
  H       4.891998     -0.784156      0.610800
  H       4.274966      2.304196     -2.244378
  H       5.387070      0.988493     -1.751952
  H       5.262388      2.465882     -0.753983
  H       4.731247     -1.003603     -3.553981
  H       4.193090     -2.697917     -3.751835
  H       4.929849     -2.186947     -2.205026
  H       0.830958     -2.706796     -1.062423
  H       2.500537     -3.235987     -0.660569
  H       1.704544     -3.831035     -2.155845
  Pt      0.005749      1.674866      0.250870
  O      -1.952126      1.071253      0.004752
  O      -2.977860     -0.214727      2.054528
  P      -1.977615      0.127306     -1.322564
  P      -3.034072      0.822914      3.213516
  O      -3.802933     -0.001823      4.443692
  O      -3.703572      2.169527      2.923122
  O      -0.651933     -0.856778     -1.116782
  O      -1.901224      1.040958     -2.539223
  C      -3.306152     -1.179001     -1.509171
  C      -1.345042      1.091517      3.999680
  C      -1.537578      1.377133      5.508628
  C      -0.707305      2.321930      3.346188
  C      -0.482525     -0.159725      3.785835
  C      -3.187037     -2.319856     -0.482402
  C      -4.708724     -0.546452     -1.451324
  C      -3.040227     -1.719873     -2.938693
  H      -4.655543     -0.327548      4.088795
  H       0.172559     -0.375725     -1.368497
  H      -2.204478      2.246072      5.676421
  H      -0.552376      1.604384      5.968169
  H      -1.973941      0.502888      6.027131
  H      -1.350447      3.219704      3.423973
  H      -0.519377      2.167044      2.225884
  H       0.292508      2.523592      3.784950
  H      -0.950381     -1.056666      4.237507
  H       0.516228     -0.018842      4.252054
  H      -0.337736     -0.365710      2.704564
  H      -3.371422     -1.960568      0.547671
  H      -2.190493     -2.800510     -0.518471
  H      -3.942362     -3.096411     -0.733670
  H      -4.962083     -0.204978     -0.429040
  H      -5.450650     -1.318093     -1.752675
  H      -4.809298      0.304869     -2.153516
  H      -2.027170     -2.160492     -3.026263
  H      -3.130989     -0.917797     -3.696237
  H      -3.781587     -2.514144     -3.166632
66
Coordinates from ORCA-job my_molecule_MEP E -2537.144811089865
  O       2.412976     -0.167210     -1.374361
  Si      3.240634      0.860495     -0.342448
  Si      2.502183     -1.496409     -2.440724
  C       1.897791      2.053275      0.391362
  C       1.081582      2.916455     -0.372027
  C       1.442234     -0.970134     -3.896429
  C       0.969783      0.283555     -4.055555
  C       4.132195     -0.046861      1.050526
  C       4.593324      1.769364     -1.332541
  C       4.263148     -1.869201     -3.013406
  C       1.817322     -2.968777     -1.489271
  H       2.175887      2.447499      1.393806
  H       1.057539      2.806735     -1.473801
  H       0.872833      3.947871     -0.030056
  H       1.167629     -1.725936     -4.656493
  H       1.194508      1.079199     -3.323338
  H       0.315664      0.580593     -4.891168
  H       3.444313     -0.602805      1.716598
  H       4.718743      0.664993      1.670096
  H       4.859186     -0.770403      0.623064
  H       4.215364      2.313993     -2.220646
  H       5.308917      1.000084     -1.703605
  H       5.187055      2.477736     -0.717656
  H       4.730888     -1.014297     -3.541381
  H       4.211461     -2.713368     -3.734569
  H       4.925370     -2.188429     -2.182461
  H       0.824710     -2.715691     -1.067940
  H       2.496759     -3.234838     -0.652838
  H       1.702460     -3.861060     -2.136991
  Pt     -0.383908      1.520572      0.766160
  O      -1.800841      1.319207     -0.542006
  O      -2.281763      0.292727      1.765502
  P      -1.925408      0.124779     -1.616265
  P      -2.836545      0.939400      3.118428
  O      -3.585412     -0.247153      4.005724
  O      -3.690185      2.180085      3.009855
  O      -0.635538     -0.846887     -1.266491
  O      -1.953099      0.857403     -2.941763
  C      -3.294284     -1.167194     -1.562688
  C      -1.260261      1.125342      4.092491
  C      -1.543791      1.357528      5.584052
  C      -0.599175      2.386920      3.543899
  C      -0.395888     -0.127165      3.867638
  C      -3.149906     -2.261421     -0.490825
  C      -4.685075     -0.514836     -1.463185
  C      -3.094798     -1.779501     -2.974282
  H      -4.554561     -0.180681      3.938690
  H       0.210684     -0.348734     -1.337881
  H      -2.225530      2.218373      5.731485
  H      -0.588736      1.573793      6.106833
  H      -2.005136      0.462944      6.043129
  H      -1.283789      3.259590      3.577493
  H      -0.373083      2.322427      2.415415
  H       0.377416      2.604897      4.011056
  H      -0.895996     -1.032035      4.267030
  H       0.592829     -0.018439      4.357509
  H      -0.237317     -0.307115      2.782484
  H      -3.317313     -1.875204      0.533612
  H      -2.158882     -2.752239     -0.524318
  H      -3.915117     -3.043552     -0.697101
  H      -4.907128     -0.169750     -0.433836
  H      -5.447129     -1.276955     -1.738401
  H      -4.799369      0.338846     -2.159330
  H      -2.079398     -2.214409     -3.071367
  H      -3.199076     -0.996371     -3.747784
  H      -3.839947     -2.581617     -3.146710
66
Coordinates from ORCA-job my_molecule_MEP E -2537.159456269523
  O       2.939810     -0.278730     -1.235734
  Si      3.994925      0.642505     -0.306421
  Si      2.564583     -1.247974     -2.550583
  C       2.943223      1.796808      0.754499
  C       2.303527      2.896332      0.298522
  C       1.233905     -0.341861     -3.527907
  C       0.821618      0.918198     -3.266509
  C       4.973378     -0.517571      0.812549
  C       5.143410      1.621559     -1.442283
  C       4.102999     -1.557075     -3.603280
  C       1.841460     -2.870481     -1.917781
  H       2.824511      1.554616      1.829902
  H       2.365971      3.215342     -0.756838
  H       1.681419      3.534324      0.952430
  H       0.727175     -0.879033     -4.354723
  H       1.284633      1.511286     -2.456159
  H       0.002111      1.395826     -3.830203
  H       4.287577     -1.131356      1.432034
  H       5.642948      0.043957      1.496568
  H       5.602187     -1.210110      0.215512
  H       4.572025      2.267719     -2.140400
  H       5.769827      0.937425     -2.051674
  H       5.822613      2.274500     -0.856340
  H       4.541805     -0.603414     -3.961000
  H       3.863605     -2.174589     -4.493811
  H       4.877280     -2.095841     -3.017653
  H       0.934609     -2.673137     -1.309777
  H       2.570111     -3.420131     -1.287110
  H       1.549839     -3.532022     -2.760491
  Pt     -2.906593      1.669937      0.415989
  O      -3.648083      0.544690     -0.886825
  O      -1.980405      1.343855      2.047661
  P      -2.678461     -0.314504     -1.957236
  P      -2.771175      1.693926      3.466342
  O      -3.601698      0.334178      3.883263
  O      -3.626742      2.932776      3.416939
  O      -1.327045     -0.698984     -1.109960
  O      -2.457394      0.458295     -3.230116
  C      -3.614418     -1.899200     -2.104480
  C      -1.272137      1.677859      4.552753
  C      -1.753107      1.998901      5.979624
  C      -0.345310      2.793421      4.025395
  C      -0.581754      0.303048      4.493560
  C      -3.410822     -2.787474     -0.864226
  C      -5.102456     -1.526414     -2.272919
  C      -3.081980     -2.590187     -3.374919
  H      -4.554828      0.547366      3.811366
  H      -0.562830     -0.179538     -1.455673
  H      -2.313801      2.954187      6.012879
  H      -0.868854      2.090580      6.644531
  H      -2.403889      1.195885      6.379229
  H      -0.864789      3.772662      4.020739
  H      -0.004842      2.577893      2.994046
  H       0.547394      2.873867      4.679649
  H      -1.254273     -0.505185      4.842649
  H       0.312373      0.315381      5.152636
  H      -0.250349      0.057839      3.465907
  H      -3.736134     -2.283151      0.068051
  H      -2.351179     -3.084332     -0.742785
  H      -4.018656     -3.710067     -0.978443
  H      -5.514307     -1.092720     -1.341535
  H      -5.683157     -2.437716     -2.524458
  H      -5.247798     -0.789432     -3.088224
  H      -2.013412     -2.869095     -3.269821
  H      -3.178376     -1.927740     -4.257085
  H      -3.661796     -3.517880     -3.559841
66
Coordinates from ORCA-job my_molecule_MEP E -2537.179431919436
  O       3.266548     -0.739164     -1.457039
  Si      4.305031      0.015376     -0.368438
  Si      2.408716     -0.790886     -2.896850
  C       3.296736      0.433861      1.169075
  C       3.209944      1.654420      1.738104
  C       0.879493      0.308663     -2.731295
  C       0.594323      1.084516     -1.658648
  C       5.650353     -1.229549      0.073419
  C       5.044768      1.577300     -1.129520
  C       3.470590     -0.169735     -4.330269
  C       1.871185     -2.573564     -3.190031
  H       2.734704     -0.393559      1.646013
  H       3.734821      2.533150      1.322735
  H       2.610079      1.842680      2.646763
  H       0.151246      0.329232     -3.567416
  H       1.250609      1.119166     -0.770107
  H      -0.309438      1.719451     -1.622504
  H       5.207301     -2.151421      0.502339
  H       6.354449     -0.808921      0.820561
  H       6.232926     -1.519382     -0.825348
  H       4.255732      2.300401     -1.421151
  H       5.628282      1.325272     -2.038794
  H       5.731949      2.086254     -0.422319
  H       3.802489      0.874825     -4.161961
  H       2.900254     -0.194020     -5.282022
  H       4.371963     -0.804233     -4.458121
  H       1.220945     -2.931213     -2.366306
  H       2.751535     -3.245149     -3.256073
  H       1.299818     -2.661562     -4.137452
  Pt     -2.638348      0.844786      0.556317
  O      -3.410047     -0.290338     -0.739255
  O      -1.833596      1.778746      1.987438
  P      -2.624428     -1.071010     -1.985692
  P      -2.618956      2.605795      3.198676
  O      -3.871194      1.652201      3.666427
  O      -2.981566      3.986902      2.715595
  O      -1.195916     -1.585626     -1.390556
  O      -2.548728     -0.146415     -3.178929
  C      -3.591335     -2.627443     -2.200604
  C      -1.469772      2.489056      4.636015
  C      -2.165153      3.182407      5.826144
  C      -0.192421      3.256619      4.234986
  C      -1.151560      1.017302      4.957051
  C      -3.613105     -3.433863     -0.889303
  C      -5.015297     -2.212736     -2.623911
  C      -2.904004     -3.423651     -3.329875
  H      -4.586018      1.691352      2.996092
  H      -0.507532     -0.873433     -1.505544
  H      -2.439707      4.227009      5.577654
  H      -1.473341      3.203306      6.694050
  H      -3.084897      2.644918      6.130829
  H      -0.422980      4.304947      3.960671
  H       0.312030      2.778352      3.371738
  H       0.514160      3.266530      5.091010
  H      -2.064955      0.449406      5.221184
  H      -0.455707      0.974181      5.821253
  H      -0.663340      0.510776      4.100707
  H      -4.100967     -2.868088     -0.070668
  H      -2.590787     -3.706608     -0.561708
  H      -4.187401     -4.371500     -1.044481
  H      -5.525938     -1.641991     -1.823616
  H      -5.614675     -3.121814     -2.839451
  H      -4.995100     -1.584159     -3.536152
  H      -1.880067     -3.736157     -3.043981
  H      -2.838318     -2.824995     -4.260410
  H      -3.496383     -4.336973     -3.547047
