66
Coordinates from ORCA-job my_molecule_im3 E -2537.124120715383
  O           2.60909005814804     -0.13283075400220     -1.41992692908166
  Si          3.46764893337434      0.91832195217403     -0.43289440960175
  Si          2.51860083474045     -1.47603048497418     -2.42924040109157
  C           2.28243053718290      2.28952858022446      0.14748439512213
  C           1.60084277712947      3.14215009475462     -0.81016047643309
  C           1.42358563933725     -0.97617999441731     -3.87537573984980
  C           0.90996809380866      0.26279236852468     -4.02299328310345
  C           4.23670860252917     -0.01467032438991      1.01787982843153
  C           4.85753263573207      1.71639081605568     -1.44580450983798
  C           4.23092312097350     -1.96652009086994     -3.06778870755514
  C           1.76544702239927     -2.89439449554798     -1.43920739789640
  H           2.58914016703729      2.77731893494292      1.09680590044858
  H           1.65570479674152      2.92923512437970     -1.89440890541777
  H           1.42360942667024      4.20974648688520     -0.57400626921134
  H           1.19449594032377     -1.72975818869413     -4.65463106611232
  H           1.09639096418452      1.04972272643725     -3.27186344780909
  H           0.27664621521780      0.54900486356907     -4.88091627055817
  H           3.47826115689494     -0.52513716695630      1.64447777786033
  H           4.81623530560238      0.67397944350661      1.66790164152795
  H           4.94373832277074     -0.78384078443114      0.64096678846161
  H           4.45358361279485      2.25120898402073     -2.32956813428316
  H           5.56783171590864      0.94501582074073     -1.81101192166860
  H           5.43596118182577      2.44661169877738     -0.84214733834923
  H           4.71518510775229     -1.12849965620591     -3.60906704641420
  H           4.14765554061603     -2.81908047096052     -3.77445146235419
  H           4.90022507154472     -2.28299427861124     -2.24088184038598
  H           0.79697091653305     -2.57536198124010     -1.00425329152007
  H           2.43883223235596     -3.18968850706462     -0.60775872710603
  H           1.58936407243547     -3.78940349970927     -2.07074083381799
  Pt          0.21120591313796      1.98773446966164      0.10723108500289
  O          -2.54826950898561      0.90454135516650      0.58666425467126
  O          -2.85392053752278     -0.05780544115154      1.69779782779163
  P          -2.13626786787636      0.12612399473778     -0.86755882616405
  P          -3.07482462199668      0.82718487093275      3.13963364759153
  O          -3.67213547451249     -0.46041355458326      3.97051712000095
  O          -3.96612888735387      2.02405779547024      3.02612884060273
  O          -0.77961946223814     -0.71240200658277     -0.54472501698756
  O          -2.00285209849397      1.32087664604929     -1.78290062720705
  C          -3.34037439794685     -1.19408688123409     -1.37607033330563
  C          -1.40680377811338      1.06649866739135      3.91740644658357
  C          -1.64495545565234      1.25356141614199      5.43370151316884
  C          -0.79587025005966      2.35694907699299      3.34343362055144
  C          -0.51596091828333     -0.15858128788595      3.64541834271804
  C          -3.23229527417484     -2.44772533050952     -0.48665979624751
  C          -4.77557270953898     -0.63458374244342     -1.36312361711189
  C          -2.91375674386243     -1.52420943443632     -2.82854947557377
  H          -4.64914395897514     -0.44075790910906      3.90809280135651
  H          -0.01976755037854     -0.01124754563741     -0.51455186351100
  H          -2.31204176537369      2.11643282888532      5.63218843422390
  H          -0.67055682938711      1.45912322121815      5.92462596935591
  H          -2.08784782551988      0.35224497206114      5.89929203535004
  H          -1.47382792283345      3.22247020804669      3.47647712489355
  H          -0.54859908179482      2.28177338814444      2.25010046548238
  H           0.16185979643783      2.56927600656135      3.86324998095013
  H          -0.95966075574183     -1.08420345511799      4.06332162910065
  H           0.47428897136073     -0.00578878260716      4.12318189935164
  H          -0.35466009319955     -0.31653339836312      2.56032540562157
  H          -3.53323601070973     -2.23922828931267      0.55769599969842
  H          -2.20405130807060     -2.85715441680838     -0.47811485201175
  H          -3.90861872499358     -3.22892933689416     -0.89480252766724
  H          -5.12647033256009     -0.41145715201340     -0.33658277794859
  H          -5.45422473128199     -1.39975632929556     -1.79741496197334
  H          -4.86584894456582      0.28451028784292     -1.97477746877801
  H          -1.86548764016777     -1.88010072563436     -2.87752487294593
  H          -3.00534047547904     -0.63793124896795     -3.48627628196864
  H          -3.57097274585731     -2.32710015363478     -3.22326906705878
