51
Coordinates from ORCA-job my_molecule E -1977.777104535399
  Pt      0.027015     -0.506359      0.405927
  O       1.935714     -0.545877      0.987449
  O      -1.799482     -0.450829     -0.267464
  P       2.582122      0.962505      1.032959
  P      -2.276350     -1.894785     -0.832682
  O      -3.925902     -1.800160     -0.974949
  O      -1.834974     -3.035685      0.042160
  O       2.189319      1.540931     -0.465692
  O       4.053253      0.987309      1.257994
  C       1.769901      2.066828      2.273840
  C      -1.510032     -2.030889     -2.516382
  C      -1.931018     -3.382441     -3.101286
  C       0.021065     -2.027882     -2.316185
  C      -1.942108     -0.909364     -3.459132
  C       0.282527      2.235853      2.036326
  C       2.022687      1.441906      3.663169
  C       2.487217      3.434787      2.247604
  H      -4.269697     -0.890443     -1.112625
  H       2.597636      0.913213     -1.106976
  H      -1.662567     -4.166795     -2.381840
  H      -1.385357     -3.577229     -4.043678
  H      -3.010890     -3.382925     -3.328222
  H       0.355112     -2.843491     -1.658795
  H       0.373338     -1.081616     -1.864114
  H       0.547235     -2.112745     -3.290667
  H      -3.034292     -0.884624     -3.614418
  H      -1.420819     -1.096998     -4.407835
  H      -1.624631      0.082897     -3.104005
  H      -0.185079      1.231570      2.085589
  H       0.089732      2.766576      1.100328
  H      -0.148392      2.835018      2.850297
  H       1.600221      0.434919      3.806127
  H       1.597488      2.110870      4.421092
  H       3.097462      1.365995      3.850284
  H       2.330175      4.026990      1.338364
  H       3.571016      3.324792      2.368140
  H       2.112438      4.050536      3.084225
  Si      4.265116     -3.429888     -0.374932
  C       6.011087     -2.758315     -0.240207
  C       3.672230     -4.152687      1.258496
  C       4.191935     -4.747277     -1.697557
  H       6.086402     -2.103792      0.635772
  H       6.305512     -2.146492     -1.107762
  H       6.757899     -3.564751     -0.125931
  H       2.662312     -4.578496      1.127927
  H       3.605025     -3.385817      2.050673
  H       4.336882     -4.958521      1.608499
  H       3.158827     -5.090268     -1.861618
  H       4.816425     -5.597459     -1.393930
  H       4.587246     -4.350918     -2.640562
  H       3.347947     -2.340210     -0.841989
51
Coordinates from ORCA-job my_molecule E -1977.787453266525
  Pt      0.089917     -0.491997      0.458008
  O       1.957086     -0.518089      1.015345
  O      -1.783404     -0.447953     -0.241211
  P       2.637569      0.971696      1.068093
  P      -2.236564     -1.903377     -0.805410
  O      -3.874833     -1.816277     -0.949221
  O      -1.796642     -3.049061      0.073449
  O       2.246969      1.571587     -0.428679
  O       4.114711      0.961343      1.317718
  C       1.767527      2.073804      2.272038
  C      -1.505894     -2.029464     -2.508600
  C      -1.952515     -3.391461     -3.088150
  C       0.021988     -2.020610     -2.321634
  C      -1.954921     -0.875918     -3.422748
  C       0.273675      2.227293      1.953883
  C       1.972569      1.435354      3.665119
  C       2.478112      3.442740      2.242474
  H      -4.205444     -0.905501     -1.071747
  H       2.644716      0.954181     -1.080109
  H      -1.674053     -4.201930     -2.387309
  H      -1.440074     -3.578433     -4.054544
  H      -3.044295     -3.400559     -3.272189
  H       0.361416     -2.845485     -1.668215
  H       0.377870     -1.063189     -1.858475
  H       0.543575     -2.097933     -3.299128
  H      -3.054648     -0.853385     -3.551686
  H      -1.470621     -1.021602     -4.409875
  H      -1.634012      0.113562     -3.038530
  H      -0.214541      1.217075      1.957360
  H       0.114164      2.751780      0.993619
  H      -0.222175      2.821737      2.750098
  H       1.526688      0.425588      3.765097
  H       1.514791      2.097805      4.427062
  H       3.051948      1.341716      3.892531
  H       2.342106      3.995480      1.291473
  H       3.566834      3.334977      2.407524
  H       2.063674      4.082907      3.049674
  Si      4.273139     -3.434462     -0.389405
  C       6.027820     -2.770958     -0.229589
  C       3.662661     -4.150513      1.245725
  C       4.201010     -4.759273     -1.724319
  H       6.104924     -2.119408      0.664410
  H       6.332794     -2.156591     -1.100677
  H       6.768489     -3.589205     -0.116093
  H       2.644628     -4.571964      1.114398
  H       3.601672     -3.380754      2.041927
  H       4.325538     -4.966017      1.599906
  H       3.161093     -5.103057     -1.889514
  H       4.824084     -5.627378     -1.427229
  H       4.595692     -4.361098     -2.680549
  H       3.359120     -2.330252     -0.850282
51
Coordinates from ORCA-job my_molecule E -1977.792383294150
  Pt      0.065979     -0.480593      0.486247
  O       1.975283     -0.481388      1.044497
  O      -1.790150     -0.454098     -0.209296
  P       2.707962      0.981230      1.111381
  P      -2.197983     -1.923937     -0.770852
  O      -3.824839     -1.864548     -0.923485
  O      -1.746527     -3.072137      0.109648
  O       2.324673      1.612730     -0.380770
  O       4.187351      0.915872      1.391550
  C       1.775695      2.084652      2.268181
  C      -1.498615     -2.027375     -2.492124
  C      -1.958865     -3.392909     -3.070280
  C       0.026557     -2.007323     -2.324943
  C      -1.977348     -0.850599     -3.369190
  C       0.296589      2.220680      1.847397
  C       1.905432      1.435197      3.664535
  C       2.478402      3.455604      2.246229
  H      -4.149336     -0.951510     -1.024639
  H       2.710736      1.009729     -1.049096
  H      -1.668425     -4.226430     -2.395177
  H      -1.480076     -3.562433     -4.058929
  H      -3.059193     -3.417924     -3.207423
  H       0.373041     -2.840635     -1.680910
  H       0.381347     -1.044785     -1.850720
  H       0.542491     -2.073178     -3.306568
  H      -3.082832     -0.843681     -3.469339
  H      -1.538289     -0.942207     -4.389226
  H      -1.662533      0.131085     -2.952188
  H      -0.203028      1.203001      1.779970
  H       0.186377      2.741638      0.871891
  H      -0.278679      2.789340      2.616433
  H       1.434600      0.429388      3.708864
  H       1.406216      2.086892      4.418339
  H       2.975399      1.320219      3.949044
  H       2.378630      3.959357      1.258276
  H       3.561969      3.349848      2.469234
  H       2.018388      4.118652      3.012886
  Si      4.277917     -3.434171     -0.408004
  C       6.044045     -2.786860     -0.213562
  C       3.641257     -4.143713      1.225773
  C       4.208135     -4.764596     -1.759277
  H       6.122188     -2.148568      0.696466
  H       6.363400     -2.170330     -1.082054
  H       6.771955     -3.619832     -0.103104
  H       2.617432     -4.557590      1.092720
  H       3.587116     -3.373185      2.024243
  H       4.297661     -4.967533      1.584300
  H       3.164424     -5.106972     -1.926987
  H       4.822999     -5.649284     -1.474309
  H       4.600095     -4.366982     -2.723412
  H       3.370912     -2.310341     -0.860429
51
Coordinates from ORCA-job my_molecule E -1977.794842033968
  Pt      0.096066     -0.449231      0.512642
  O       1.989048     -0.450790      1.051100
  O      -1.771485     -0.425005     -0.186277
  P       2.768815      0.978862      1.140596
  P      -2.148900     -1.910715     -0.724357
  O      -3.773618     -1.885499     -0.858192
  O      -1.662140     -3.043743      0.162950
  O       2.421907      1.649159     -0.348122
  O       4.237740      0.858928      1.470680
  C       1.773742      2.080481      2.248174
  C      -1.486563     -2.014442     -2.462772
  C      -1.959828     -3.377493     -3.027069
  C       0.040017     -1.989105     -2.325044
  C      -1.997235     -0.836344     -3.314260
  C       0.331777      2.177466      1.721719
  C       1.819468      1.428755      3.646345
  C       2.450938      3.465055      2.248621
  H      -4.105315     -0.969333     -0.913566
  H       2.803906      1.061388     -1.031839
  H      -1.648252     -4.218303     -2.373479
  H      -1.522691     -3.536402     -4.035763
  H      -3.064679     -3.414959     -3.111820
  H       0.395281     -2.827788     -1.693998
  H       0.394242     -1.030494     -1.844838
  H       0.545632     -2.043852     -3.313064
  H      -3.105122     -0.843353     -3.383597
  H      -1.603062     -0.901925     -4.352557
  H      -1.681477      0.139209     -2.889248
  H      -0.125836      1.137701      1.546683
  H       0.267309      2.725735      0.760213
  H      -0.340132      2.659643      2.467916
  H       1.335941      0.429833      3.643093
  H       1.279312      2.070583      4.377605
  H       2.867470      1.301172      3.990728
  H       2.404573      3.928865      1.240367
  H       3.517407      3.375025      2.541976
  H       1.935111      4.137981      2.967472
  Si      4.279025     -3.434736     -0.430188
  C       6.050011     -2.800967     -0.188870
  C       3.603947     -4.140541      1.192996
  C       4.220902     -4.763382     -1.796497
  H       6.118049     -2.178039      0.730178
  H       6.388836     -2.183286     -1.047252
  H       6.764254     -3.644373     -0.075264
  H       2.578302     -4.543243      1.050317
  H       3.552343     -3.371005      1.990796
  H       4.246634     -4.970881      1.558270
  H       3.178232     -5.105825     -1.969330
  H       4.828009     -5.654712     -1.523766
  H       4.610434     -4.364678     -2.758964
  H       3.387585     -2.293933     -0.879637
51
Coordinates from ORCA-job my_molecule E -1977.797067536337
  Pt      0.068018     -0.420541      0.498650
  O       1.969218     -0.420712      1.056929
  O      -1.818816     -0.410911     -0.233427
  P       2.791783      0.974218      1.164526
  P      -2.134408     -1.922259     -0.726169
  O      -3.761757     -1.981573     -0.835733
  O      -1.571687     -3.005753      0.180630
  O       2.485692      1.688073     -0.314765
  O       4.245917      0.795439      1.524813
  C       1.797057      2.099205      2.262389
  C      -1.489375     -2.036491     -2.471537
  C      -1.949550     -3.402775     -3.022264
  C       0.040201     -1.992322     -2.349104
  C      -2.031798     -0.874155     -3.315746
  C       0.380180      2.228573      1.705755
  C       1.791932      1.449209      3.660122
  C       2.497043      3.474328      2.275935
  H      -4.133178     -1.077177     -0.832102
  H       2.868642      1.118390     -1.014104
  H      -1.609870     -4.237719     -2.379138
  H      -1.538774     -3.553445     -4.042064
  H      -3.054774     -3.462204     -3.074146
  H       0.407273     -2.833292     -1.730563
  H       0.382344     -1.037801     -1.860390
  H       0.542119     -2.029811     -3.339612
  H      -3.139485     -0.902183     -3.368333
  H      -1.660972     -0.934162     -4.359932
  H      -1.725351      0.104106     -2.896975
  H      -0.095788      1.185471      1.476686
  H       0.337860      2.794476      0.758478
  H      -0.321276      2.663275      2.447770
  H       1.266249      0.474378      3.641021
  H       1.268330      2.106140      4.384996
  H       2.824001      1.276807      4.019832
  H       2.492080      3.922336      1.263702
  H       3.549138      3.359488      2.601388
  H       1.979135      4.164296      2.973407
  Si      4.264806     -3.427665     -0.449347
  C       6.032287     -2.799068     -0.158746
  C       3.549480     -4.135582      1.156194
  C       4.234091     -4.749464     -1.826998
  H       6.080229     -2.185790      0.762999
  H       6.392017     -2.181620     -1.005952
  H       6.736724     -3.647634     -0.034037
  H       2.525238     -4.530998      0.998259
  H       3.492982     -3.366968      1.952659
  H       4.179738     -4.969206      1.530011
  H       3.196930     -5.097821     -2.011949
  H       4.839374     -5.639519     -1.559587
  H       4.627180     -4.346319     -2.782326
  H       3.387506     -2.277800     -0.900296
51
Coordinates from ORCA-job my_molecule E -1977.801327763542
  Pt      0.040302     -0.344774      0.450779
  O       1.945226     -0.396871      1.042262
  O      -1.844945     -0.314014     -0.317327
  P       2.819491      0.942455      1.187735
  P      -2.065982     -1.862130     -0.703439
  O      -3.691010     -2.073862     -0.720830
  O      -1.347428     -2.824593      0.234161
  O       2.611737      1.723999     -0.275372
  O       4.236874      0.686058      1.618014
  C       1.802780      2.091878      2.259753
  C      -1.479224     -2.038216     -2.464961
  C      -1.928010     -3.418256     -2.968519
  C       0.055766     -1.974416     -2.380766
  C      -2.068022     -0.912455     -3.316545
  C       0.419902      2.222715      1.658427
  C       1.741992      1.465652      3.664870
  C       2.502421      3.471422      2.279986
  H      -4.127494     -1.203447     -0.618859
  H       3.006214      1.183752     -0.991825
  H      -1.544231     -4.230900     -2.324443
  H      -1.559711     -3.582794     -4.001309
  H      -3.032481     -3.501592     -2.972779
  H       0.440940     -2.817647     -1.779992
  H       0.389493     -1.026600     -1.885054
  H       0.542932     -1.993490     -3.378656
  H      -3.175329     -0.958472     -3.329409
  H      -1.736888     -1.000600     -4.369482
  H      -1.759911      0.078609     -2.937389
  H      -0.047340      1.157339      1.366175
  H       0.391026      2.801451      0.723641
  H      -0.340669      2.568691      2.381962
  H       1.190958      0.506676      3.642634
  H       1.221266      2.141795      4.368502
  H       2.756026      1.271815      4.052702
  H       2.549866      3.897913      1.263529
  H       3.535492      3.351058      2.654295
  H       1.965820      4.176590      2.943662
  Si      4.242495     -3.421539     -0.481444
  C       5.999429     -2.808027     -0.103267
  C       3.453216     -4.139323      1.083768
  C       4.257275     -4.722333     -1.877207
  H       6.008565     -2.207655      0.823776
  H       6.399411     -2.188302     -0.927916
  H       6.686248     -3.666426      0.042018
  H       2.430582     -4.518365      0.891466
  H       3.385220     -3.373279      1.879785
  H       4.058136     -4.982768      1.472258
  H       3.227259     -5.076229     -2.083766
  H       4.861075     -5.611295     -1.615802
  H       4.661373     -4.307005     -2.818937
  H       3.397797     -2.254724     -0.939051
51
Coordinates from ORCA-job my_molecule E -1977.806339441826
  Pt      0.002173     -0.244177      0.358939
  O       1.912301     -0.383594      0.999404
  O      -1.876788     -0.167895     -0.429759
  P       2.828425      0.886415      1.189367
  P      -1.960462     -1.740930     -0.667768
  O      -3.552318     -2.163845     -0.506460
  O      -1.016292     -2.489267      0.271126
  O       2.762883      1.748383     -0.239935
  O       4.185497      0.551203      1.706702
  C       1.789541      2.064912      2.241281
  C      -1.461380     -2.028122     -2.442313
  C      -1.880685     -3.429490     -2.873886
  C       0.080823     -1.941166     -2.417797
  C      -2.114924     -0.966810     -3.313040
  C       0.456459      2.221044      1.590991
  C       1.650827      1.462367      3.648766
  C       2.500114      3.445746      2.296565
  H      -4.059169     -1.345425     -0.319898
  H       3.180866      1.249049     -0.973478
  H      -1.434394     -4.196284     -2.217352
  H      -1.557634     -3.627170     -3.914657
  H      -2.981077     -3.542797     -2.830229
  H       0.487635     -2.781279     -1.833287
  H       0.409415     -1.000946     -1.926123
  H       0.543210     -1.950567     -3.426720
  H      -3.218696     -1.032901     -3.270964
  H      -1.825096     -1.119891     -4.367275
  H      -1.806905      0.046457     -3.009295
  H      -0.013607      1.127543      1.230208
  H       0.448291      2.812441      0.671122
  H      -0.370351      2.451134      2.276885
  H       1.073634      0.520813      3.623571
  H       1.133297      2.161348      4.323430
  H       2.638794      1.247423      4.076681
  H       2.620370      3.879284      1.294541
  H       3.505018      3.302665      2.727947
  H       1.951065      4.157222      2.937626
  Si      4.213217     -3.414537     -0.522184
  C       5.951775     -2.824947     -0.046308
  C       3.339763     -4.144902      0.988165
  C       4.279447     -4.687254     -1.928757
  H       5.911770     -2.238939      0.882366
  H       6.398478     -2.201546     -0.840100
  H       6.615370     -3.695741      0.121023
  H       2.321145     -4.504582      0.755731
  H       3.257939     -3.378737      1.779802
  H       3.913968     -4.998199      1.394491
  H       3.257045     -5.042389     -2.159623
  H       4.878613     -5.573801     -1.667063
  H       4.701780     -4.262058     -2.852505
  H       3.414765     -2.227793     -0.988143
51
Coordinates from ORCA-job my_molecule E -1977.795344557824
  Pt     -0.053938     -0.228314      0.248758
  O       1.835190     -0.403297      0.917269
  O      -1.901594     -0.119876     -0.455585
  P       2.729679      0.849415      1.109032
  P      -1.906724     -1.679241     -0.669830
  O      -3.467732     -2.235908     -0.357160
  O      -0.810446     -2.277151      0.208857
  O       2.761190      1.739514     -0.289016
  O       4.050164      0.515701      1.652698
  C       1.767018      2.066531      2.229703
  C      -1.453526     -2.044429     -2.441843
  C      -1.808966     -3.462339     -2.839258
  C       0.094743     -1.940211     -2.458423
  C      -2.152438     -1.047305     -3.339883
  C       0.462893      2.385674      1.635794
  C       1.592389      1.452870      3.628722
  C       2.588150      3.389318      2.374297
  H      -4.028732     -1.450554     -0.184264
  H       3.199344      1.259575     -1.023073
  H      -1.303740     -4.168462     -2.158823
  H      -1.480938     -3.683219     -3.872962
  H      -2.906180     -3.606078     -2.811509
  H       0.510277     -2.763719     -1.865735
  H       0.420732     -1.003509     -1.994132
  H       0.539692     -1.970011     -3.473402
  H      -3.251803     -1.127179     -3.278510
  H      -1.837355     -1.283799     -4.368835
  H      -1.857686     -0.010774     -3.117491
  H      -0.128885      1.326603      1.273991
  H       0.472053      3.009001      0.742441
  H      -0.345385      2.596728      2.340779
  H       0.954064      0.550947      3.633702
  H       1.151124      2.188677      4.309573
  H       2.566724      1.174926      4.044262
  H       2.768766      3.921606      1.434061
  H       3.574026      3.135944      2.795620
  H       2.105976      4.083862      3.080220
  Si      4.184293     -3.413569     -0.539599
  C       5.905806     -2.825654     -0.050881
  C       3.292218     -4.158808      0.944264
  C       4.277952     -4.669884     -1.920142
  H       5.835430     -2.236193      0.865464
  H       6.364139     -2.197579     -0.832008
  H       6.566600     -3.694813      0.128987
  H       2.280903     -4.524418      0.697601
  H       3.194746     -3.381584      1.722820
  H       3.863855     -5.004012      1.365300
  H       3.261523     -5.026223     -2.160606
  H       4.878566     -5.542697     -1.630647
  H       4.722018     -4.249163     -2.831201
  H       3.409757     -2.229450     -1.017588
51
Coordinates from ORCA-job my_molecule E -1977.811670528863
  Pt     -0.059582     -0.244725      0.387573
  O       1.848412     -0.387076      1.000116
  O      -1.947424     -0.217267     -0.396007
  P       2.780832      0.868275      1.188215
  P      -1.958408     -1.781076     -0.677640
  O      -3.521445     -2.316817     -0.463651
  O      -0.929621     -2.459294      0.233039
  O       2.774005      1.747159     -0.224695
  O       4.119851      0.512635      1.719173
  C       1.802319      2.100561      2.250687
  C      -1.467180     -2.065279     -2.456781
  C      -1.855799     -3.475316     -2.891824
  C       0.078348     -1.952195     -2.451842
  C      -2.148361     -1.021057     -3.330276
  C       0.497698      2.388818      1.593813
  C       1.604423      1.498872      3.651669
  C       2.619549      3.420452      2.361694
  H      -4.067944     -1.535652     -0.235195
  H       3.198174      1.261789     -0.960915
  H      -1.379584     -4.227073     -2.237718
  H      -1.529693     -3.665071     -3.933322
  H      -2.954702     -3.610440     -2.856609
  H       0.500258     -2.786622     -1.870187
  H       0.398271     -1.013227     -1.963086
  H       0.528352     -1.958161     -3.465303
  H      -3.250787     -1.101923     -3.282272
  H      -1.846170     -1.193139     -4.378996
  H      -1.854526      0.003558     -3.047768
  H      -0.058938      1.340911      1.213342
  H       0.543098      3.000611      0.686785
  H      -0.328010      2.648460      2.273067
  H       0.960304      0.600373      3.629828
  H       1.141266      2.237253      4.325078
  H       2.572223      1.211973      4.088231
  H       2.803609      3.890846      1.384848
  H       3.601192      3.186441      2.810061
  H       2.114779      4.149416      3.020460
  Si      4.190508     -3.407079     -0.539393
  C       5.917119     -2.818545     -0.038396
  C       3.300192     -4.153140      0.949570
  C       4.286065     -4.661940     -1.945398
  H       5.856516     -2.231927      0.890271
  H       6.376077     -2.188965     -0.821141
  H       6.578311     -3.689886      0.137174
  H       2.285120     -4.516113      0.705056
  H       3.207793     -3.383518      1.738582
  H       3.874020     -5.004105      1.362591
  H       3.270062     -5.024080     -2.190824
  H       4.892087     -5.542160     -1.673594
  H       4.721587     -4.228399     -2.860237
  H       3.401687     -2.219666     -1.006040
51
Coordinates from ORCA-job my_molecule E -1977.813872454824
  Pt     -0.084810     -0.196475      0.458415
  O       1.837952     -0.373585      1.051630
  O      -1.994123     -0.164348     -0.403637
  P       2.833157      0.837480      1.269074
  P      -1.892923     -1.731438     -0.644453
  O      -3.377883     -2.398375     -0.354113
  O      -0.769138     -2.252956      0.276566
  O       2.872580      1.746797     -0.129925
  O       4.149786      0.421607      1.838435
  C       1.799763      2.087362      2.243580
  C      -1.448706     -2.043046     -2.436904
  C      -1.850284     -3.466124     -2.827846
  C       0.092660     -1.909489     -2.473424
  C      -2.168633     -1.009155     -3.297786
  C       0.539607      2.310433      1.471255
  C       1.518432      1.516675      3.641265
  C       2.591135      3.419500      2.340249
  H      -3.960934     -1.658243     -0.077648
  H       3.300057      1.286364     -0.880478
  H      -1.356202     -4.216729     -2.186424
  H      -1.564527     -3.666095     -3.879270
  H      -2.944092     -3.615711     -2.737454
  H       0.530610     -2.748051     -1.905500
  H       0.412040     -0.972498     -1.979319
  H       0.522143     -1.905839     -3.495822
  H      -3.268719     -1.104534     -3.210328
  H      -1.921488     -1.170452     -4.362789
  H      -1.877304      0.018286     -3.022834
  H       0.046884      1.230917      1.051936
  H       0.640524      2.887177      0.545261
  H      -0.355626      2.554722      2.066074
  H       0.880037      0.616715      3.579138
  H       1.003926      2.259345      4.275055
  H       2.457335      1.237090      4.142568
  H       2.818771      3.822462      1.342218
  H       3.547557      3.215272      2.853548
  H       2.040566      4.176896      2.927785
  Si      4.180327     -3.399036     -0.568311
  C       5.904673     -2.842918      0.001255
  C       3.241109     -4.153604      0.889303
  C       4.296859     -4.635502     -2.005008
  H       5.830163     -2.275893      0.943936
  H       6.392828     -2.208338     -0.759864
  H       6.545830     -3.729438      0.176109
  H       2.225180     -4.498779      0.623012
  H       3.145784     -3.394759      1.687300
  H       3.796116     -5.017746      1.302460
  H       3.282002     -4.991170     -2.268803
  H       4.892716     -5.528761     -1.749875
  H       4.739694     -4.190636     -2.912251
  H       3.412521     -2.187911     -1.025551
51
Coordinates from ORCA-job my_molecule E -1977.823442381436
  Pt     -0.121000     -0.227078      0.502713
  O       1.802267     -0.370340      1.058714
  O      -2.036872     -0.238833     -0.343220
  P       2.809726      0.836203      1.278001
  P      -1.896101     -1.793123     -0.638843
  O      -3.358583     -2.508037     -0.354402
  O      -0.755211     -2.303912      0.276853
  O       2.882771      1.741827     -0.120050
  O       4.115249      0.401339      1.859632
  C       1.809499      2.123270      2.241545
  C      -1.456556     -2.079840     -2.436959
  C      -1.852041     -3.504997     -2.835592
  C       0.081643     -1.926527     -2.488098
  C      -2.195960     -1.042440     -3.280631
  C       0.601832      2.471613      1.426040
  C       1.437276      1.529561      3.608527
  C       2.690724      3.388266      2.419593
  H      -3.942723     -1.802783     -0.001111
  H       3.309930      1.279662     -0.868952
  H      -1.341755     -4.258739     -2.208698
  H      -1.577008     -3.690755     -3.892949
  H      -2.943336     -3.666069     -2.734131
  H       0.535185     -2.761929     -1.926577
  H       0.394114     -0.989237     -1.991507
  H       0.498659     -1.915368     -3.515591
  H      -3.294724     -1.149060     -3.184814
  H      -1.954605     -1.191482     -4.349851
  H      -1.912966     -0.013581     -2.998221
  H       0.067766      1.474401      0.912191
  H       0.790795      3.092698      0.541699
  H      -0.300465      2.755031      1.994412
  H       0.735485      0.681890      3.496571
  H       0.956861      2.290102      4.249922
  H       2.335969      1.164150      4.131293
  H       2.994932      3.806286      1.446957
  H       3.605525      3.099176      2.968587
  H       2.166625      4.165383      3.007163
  Si      4.174450     -3.388721     -0.583973
  C       5.887694     -2.827280      0.010609
  C       3.223446     -4.151659      0.861203
  C       4.313209     -4.615606     -2.025884
  H       5.796818     -2.262169      0.954775
  H       6.385522     -2.188163     -0.741705
  H       6.529961     -3.711984      0.193447
  H       2.209886     -4.497975      0.584848
  H       3.119367     -3.393853      1.660503
  H       3.777240     -5.015937      1.277772
  H       3.303342     -4.981608     -2.298821
  H       4.918281     -5.503817     -1.769045
  H       4.758395     -4.160837     -2.928608
  H       3.405394     -2.179651     -1.043526
51
Coordinates from ORCA-job my_molecule E -1977.828657682544
  Pt     -0.103191     -0.240723      0.561616
  O       1.817155     -0.406161      1.070555
  O      -2.039019     -0.225412     -0.239825
  P       2.797496      0.837042      1.260716
  P      -1.923773     -1.755002     -0.649471
  O      -3.400749     -2.453783     -0.426723
  O      -0.824433     -2.313844      0.308322
  O       2.852148      1.691378     -0.161824
  O       4.126967      0.459990      1.830073
  C       1.791841      2.105856      2.228207
  C      -1.451098     -2.054506     -2.435865
  C      -1.872657     -3.481937     -2.824886
  C       0.088738     -1.923966     -2.495378
  C      -2.165032     -1.010268     -3.303265
  C       0.541940      2.435992      1.442335
  C       1.461784      1.501371      3.603275
  C       2.662001      3.377017      2.396327
  H      -3.988233     -1.767930     -0.044387
  H       3.273224      1.202570     -0.895168
  H      -1.382268     -4.236248     -2.178902
  H      -1.573198     -3.684234     -3.873636
  H      -2.969796     -3.616945     -2.753566
  H       0.543583     -2.748643     -1.916548
  H       0.418829     -0.980409     -2.025168
  H       0.487256     -1.948020     -3.529382
  H      -3.267817     -1.090429     -3.222034
  H      -1.894915     -1.186004     -4.363964
  H      -1.868020      0.021333     -3.036070
  H      -0.007657      1.463127      0.979004
  H       0.719811      3.037981      0.537084
  H      -0.306639      2.811941      2.044886
  H       0.782272      0.629349      3.520082
  H       0.974421      2.259153      4.247691
  H       2.384946      1.165490      4.110901
  H       2.936546      3.826694      1.424876
  H       3.598963      3.106365      2.920069
  H       2.131721      4.136706      3.005404
  Si      4.191558     -3.396751     -0.570244
  C       5.911032     -2.822918     -0.017869
  C       3.269076     -4.162856      0.893264
  C       4.313698     -4.629133     -2.000964
  H       5.833035     -2.238492      0.917485
  H       6.395349     -2.187973     -0.785551
  H       6.566459     -3.698000      0.170947
  H       2.252400     -4.512060      0.625209
  H       3.166157     -3.401886      1.693562
  H       3.830600     -5.025656      1.306722
  H       3.301526     -4.993588     -2.272364
  H       4.921700     -5.513986     -1.726587
  H       4.766479     -4.178630     -2.905607
  H       3.413715     -2.195495     -1.041552
51
Coordinates from ORCA-job my_molecule E -1977.833278427987
  Pt     -0.143167     -0.200548      0.624870
  O       1.770093     -0.414190      1.099919
  O      -2.095336     -0.182691     -0.221911
  P       2.784133      0.810761      1.293502
  P      -1.867082     -1.687887     -0.656600
  O      -3.234725     -2.540500     -0.369426
  O      -0.675366     -2.086486      0.320743
  O       2.907464      1.642111     -0.135554
  O       4.099135      0.408834      1.892338
  C       1.783388      2.103638      2.221427
  C      -1.434507     -2.059908     -2.436854
  C      -1.877714     -3.504122     -2.751611
  C       0.097987     -1.913066     -2.558731
  C      -2.187681     -1.040833     -3.309864
  C       0.566331      2.493594      1.388294
  C       1.369551      1.487873      3.568875
  C       2.693797      3.333046      2.441071
  H      -3.805653     -1.985663      0.203615
  H       3.335866      1.150167     -0.861614
  H      -1.359299     -4.240711     -2.104951
  H      -1.614316     -3.736555     -3.804365
  H      -2.970072     -3.638193     -2.634269
  H       0.586597     -2.723608     -1.984475
  H       0.434456     -0.963869     -2.107443
  H       0.444791     -1.953253     -3.610558
  H      -3.287206     -1.116269     -3.184853
  H      -1.953158     -1.251150     -4.373881
  H      -1.883865      0.000580     -3.087004
  H      -0.000119      1.620760      0.849058
  H       0.827545      3.107575      0.506896
  H      -0.252387      2.958583      1.972130
  H       0.648871      0.654143      3.439108
  H       0.895373      2.259307      4.210894
  H       2.255795      1.091565      4.102744
  H       3.030274      3.777985      1.484757
  H       3.596432      3.027734      3.005789
  H       2.160151      4.111481      3.026472
  Si      4.177052     -3.388821     -0.599616
  C       5.875914     -2.816619      0.015348
  C       3.206654     -4.165115      0.828296
  C       4.342797     -4.606456     -2.040267
  H       5.763436     -2.219188      0.942512
  H       6.394402     -2.188617     -0.737360
  H       6.524235     -3.688858      0.241710
  H       2.193373     -4.497505      0.524529
  H       3.085605     -3.411015      1.633135
  H       3.745559     -5.039233      1.250179
  H       3.340697     -4.977708     -2.341574
  H       4.953765     -5.486945     -1.751257
  H       4.817583     -4.144078     -2.929533
  H       3.418484     -2.182611     -1.092828
51
Coordinates from ORCA-job my_molecule E -1977.837359399237
  Pt     -0.128980     -0.201991      0.639018
  O       1.784440     -0.428018      1.135922
  O      -2.061253     -0.212120     -0.227627
  P       2.783363      0.814888      1.305356
  P      -1.846914     -1.716347     -0.685360
  O      -3.219343     -2.554858     -0.424989
  O      -0.652384     -2.211360      0.252226
  O       2.872631      1.612941     -0.146487
  O       4.117717      0.438753      1.888459
  C       1.787318      2.102069      2.229600
  C      -1.436742     -2.041855     -2.469596
  C      -1.902858     -3.470468     -2.824586
  C       0.096385     -1.909556     -2.574687
  C      -2.172464     -0.984900     -3.315866
  C       0.512407      2.422039      1.448120
  C       1.460274      1.517077      3.615322
  C       2.657527      3.368822      2.355492
  H      -3.738646     -2.071972      0.252174
  H       3.299014      1.098950     -0.858974
  H      -1.402954     -4.234597     -2.195691
  H      -1.633516     -3.676995     -3.881574
  H      -2.997241     -3.589788     -2.716711
  H       0.579361     -2.720180     -1.994251
  H       0.442797     -0.956162     -2.123962
  H       0.443104     -1.957781     -3.626002
  H      -3.272951     -1.046504     -3.192051
  H      -1.943055     -1.162362     -4.387389
  H      -1.852880      0.043991     -3.058441
  H      -0.086378      1.531232      1.010366
  H       0.716732      2.988846      0.519198
  H      -0.253288      2.942056      2.057907
  H       0.768206      0.653339      3.542479
  H       0.983986      2.291700      4.253521
  H       2.384814      1.171238      4.119255
  H       2.922112      3.783457      1.363012
  H       3.601052      3.121237      2.880914
  H       2.124284      4.151599      2.936573
  Si      4.169363     -3.399120     -0.573601
  C       5.868875     -2.817460      0.032087
  C       3.203080     -4.166594      0.862397
  C       4.333265     -4.627216     -2.011062
  H       5.758225     -2.200020      0.948439
  H       6.388576     -2.203926     -0.732032
  H       6.519704     -3.682876      0.277268
  H       2.188075     -4.494196      0.558005
  H       3.084614     -3.413590      1.668087
  H       3.738030     -5.043771      1.283192
  H       3.332658     -4.995914     -2.320175
  H       4.939835     -5.508590     -1.713995
  H       4.816574     -4.168686     -2.898300
  H       3.409383     -2.196995     -1.079172
51
Coordinates from ORCA-job my_molecule E -1977.840018252522
  Pt     -0.110308     -0.201026      0.636250
  O       1.802327     -0.451107      1.154599
  O      -2.061889     -0.206254     -0.216657
  P       2.789584      0.796589      1.305716
  P      -1.843020     -1.703504     -0.678727
  O      -3.208148     -2.554607     -0.409270
  O      -0.632215     -2.197967      0.244838
  O       2.878126      1.575637     -0.156110
  O       4.122317      0.434255      1.896645
  C       1.788216      2.088439      2.213892
  C      -1.441998     -2.025827     -2.463329
  C      -1.900784     -3.449638     -2.833426
  C       0.092870     -1.896692     -2.582379
  C      -2.182226     -0.969676     -3.305134
  C       0.522473      2.409745      1.421643
  C       1.449344      1.512217      3.601600
  C       2.649871      3.360832      2.347890
  H      -3.655444     -2.169173      0.373863
  H       3.305546      1.049232     -0.857555
  H      -1.403400     -4.216026     -2.206551
  H      -1.620781     -3.647329     -3.889261
  H      -2.995906     -3.570001     -2.738483
  H       0.584189     -2.701555     -2.002163
  H       0.447597     -0.940351     -2.147249
  H       0.421939     -1.954884     -3.639093
  H      -3.281540     -1.033094     -3.177124
  H      -1.954358     -1.145705     -4.376655
  H      -1.863143      0.058322     -3.046824
  H      -0.101708      1.523414      0.989240
  H       0.733272      2.976207      0.494733
  H      -0.242831      2.930291      2.030226
  H       0.762348      0.645261      3.529037
  H       0.964793      2.289284      4.228468
  H       2.369488      1.175518      4.117406
  H       2.924814      3.776069      1.359592
  H       3.587934      3.118003      2.884552
  H       2.109678      4.142294      2.923014
  Si      4.165301     -3.395540     -0.569677
  C       5.858503     -2.807688      0.044507
  C       3.190783     -4.161786      0.860601
  C       4.339015     -4.626036     -2.003051
  H       5.736915     -2.175796      0.948362
  H       6.386412     -2.206228     -0.722921
  H       6.507551     -3.667985      0.310389
  H       2.175448     -4.481344      0.550196
  H       3.073846     -3.410000      1.666956
  H       3.717753     -5.043526      1.280433
  H       3.342044     -4.995333     -2.320671
  H       4.943275     -5.505544     -1.699187
  H       4.830310     -4.168174     -2.885060
  H       3.411752     -2.194752     -1.086284
51
Coordinates from ORCA-job my_molecule E -1977.843525566597
  Pt     -0.056790     -0.200355      0.622433
  O       1.839626     -0.505615      1.202681
  O      -2.027638     -0.189176     -0.202134
  P       2.799799      0.763891      1.312402
  P      -1.804889     -1.678680     -0.657990
  O      -3.149639     -2.555226     -0.373366
  O      -0.559401     -2.163268      0.238593
  O       2.859451      1.493480     -0.177405
  O       4.142175      0.449075      1.908494
  C       1.782901      2.053684      2.185740
  C      -1.444587     -1.988655     -2.445851
  C      -1.892387     -3.408185     -2.837624
  C       0.086543     -1.858406     -2.596100
  C      -2.196885     -0.928488     -3.274415
  C       0.528178      2.363239      1.370800
  C       1.432331      1.494021      3.579731
  C       2.618892      3.341969      2.319794
  H      -3.520110     -2.299411      0.497698
  H       3.287104      0.932897     -0.852954
  H      -1.396157     -4.180195     -2.217754
  H      -1.600670     -3.588765     -3.893184
  H      -2.988150     -3.533974     -2.754944
  H       0.593346     -2.652508     -2.017013
  H       0.460422     -0.892847     -2.197023
  H       0.375400     -1.939153     -3.663572
  H      -3.293804     -0.997900     -3.133686
  H      -1.978970     -1.091272     -4.349862
  H      -1.879680      0.098000     -3.007677
  H      -0.161989      1.496262      0.974637
  H       0.753681      2.908195      0.435488
  H      -0.222863      2.914742      1.972033
  H       0.767334      0.610663      3.509265
  H       0.919931      2.270971      4.183629
  H       2.350536      1.188225      4.116811
  H       2.897338      3.753579      1.330867
  H       3.555144      3.119555      2.868802
  H       2.062686      4.120004      2.883469
  Si      4.157131     -3.389403     -0.557312
  C       5.844324     -2.793428      0.060364
  C       3.172675     -4.153216      0.866422
  C       4.341773     -4.628427     -1.983254
  H       5.708386     -2.130311      0.937765
  H       6.385480     -2.218768     -0.718406
  H       6.490398     -3.642338      0.366537
  H       2.155604     -4.455471      0.544426
  H       3.058678     -3.407914      1.678279
  H       3.684809     -5.046293      1.279721
  H       3.349592     -4.992974     -2.317575
  H       4.935869     -5.509667     -1.665463
  H       4.851887     -4.174053     -2.856146
  H       3.411115     -2.190645     -1.094359
51
Coordinates from ORCA-job my_molecule E -1977.845656619666
  Pt     -0.040899     -0.207314      0.650480
  O       1.836820     -0.543053      1.265492
  O      -2.016926     -0.216185     -0.186273
  P       2.802835      0.727396      1.343444
  P      -1.776619     -1.697686     -0.650677
  O      -3.095285     -2.608261     -0.358829
  O      -0.509306     -2.164856      0.226612
  O       2.857788      1.427033     -0.164676
  O       4.143511      0.420878      1.949326
  C       1.791852      2.041534      2.179532
  C      -1.444694     -1.972126     -2.448955
  C      -1.887151     -3.386507     -2.865830
  C       0.084122     -1.828828     -2.622011
  C      -2.213819     -0.902344     -3.249297
  C       0.536175      2.330275      1.357767
  C       1.446149      1.532316      3.593927
  C       2.626229      3.336141      2.262019
  H      -3.391755     -2.473402      0.566017
  H       3.286870      0.846531     -0.821585
  H      -1.381384     -4.170617     -2.268996
  H      -1.607882     -3.541888     -3.928455
  H      -2.980914     -3.523162     -2.769876
  H       0.606208     -2.620954     -2.053279
  H       0.460047     -0.861234     -2.233479
  H       0.349874     -1.905992     -3.696486
  H      -3.308444     -0.983966     -3.094862
  H      -2.013058     -1.039892     -4.331403
  H      -1.900777      0.120469     -2.964678
  H      -0.222960      1.476872      1.027771
  H       0.761374      2.822350      0.394977
  H      -0.196743      2.924803      1.942256
  H       0.778551      0.649078      3.553060
  H       0.938062      2.330098      4.173937
  H       2.366446      1.241923      4.135736
  H       2.902283      3.704471      1.255370
  H       3.563102      3.135492      2.818325
  H       2.070902      4.136182      2.794496
  Si      4.140614     -3.379739     -0.553157
  C       5.812605     -2.778839      0.101067
  C       3.126612     -4.147543      0.846581
  C       4.357415     -4.613753     -1.982436
  H       5.652893     -2.097154      0.960781
  H       6.376831     -2.222466     -0.674795
  H       6.448267     -3.621844      0.442994
  H       2.112010     -4.434187      0.502922
  H       3.006786     -3.412170      1.667330
  H       3.622471     -5.052021      1.255107
  H       3.373746     -4.978516     -2.342126
  H       4.946184     -5.496761     -1.659339
  H       4.885115     -4.152236     -2.841264
  H       3.403799     -2.180880     -1.102751
51
Coordinates from ORCA-job my_molecule E -1977.848650119832
  Pt     -0.023831     -0.217481      0.678362
  O       1.823532     -0.607576      1.375602
  O      -1.990576     -0.260772     -0.190507
  P       2.796857      0.670442      1.394278
  P      -1.728903     -1.735267     -0.660602
  O      -3.010707     -2.693525     -0.359714
  O      -0.439572     -2.172039      0.192006
  O       2.823162      1.311273     -0.147112
  O       4.146388      0.394478      1.996355
  C       1.809398      2.020977      2.187823
  C      -1.439543     -1.944869     -2.474773
  C      -1.865643     -3.353497     -2.933884
  C       0.084222     -1.773709     -2.675513
  C      -2.236643     -0.862842     -3.230199
  C       0.513567      2.234725      1.406593
  C       1.538388      1.618545      3.651318
  C       2.624501      3.331353      2.126594
  H      -3.262262     -2.658678      0.586596
  H       3.252045      0.693245     -0.770296
  H      -1.343603     -4.151439     -2.368837
  H      -1.600645     -3.470605     -4.004738
  H      -2.955749     -3.511671     -2.823937
  H       0.624831     -2.563686     -2.120475
  H       0.459660     -0.801108     -2.302094
  H       0.322316     -1.844186     -3.757551
  H      -3.327701     -0.969091     -3.061295
  H      -2.053474     -0.959984     -4.319979
  H      -1.936700      0.155356     -2.915490
  H      -0.354907      1.407953      1.287879
  H       0.686024      2.597715      0.379297
  H      -0.167881      2.918652      1.960225
  H       0.891916      0.720213      3.708452
  H       1.037191      2.449302      4.190705
  H       2.490523      1.391167      4.168863
  H       2.842641      3.622002      1.080465
  H       3.591575      3.188271      2.648767
  H       2.080670      4.162029      2.623224
  Si      4.110759     -3.365721     -0.535173
  C       5.762733     -2.760594      0.161285
  C       3.056362     -4.139261      0.829328
  C       4.373192     -4.593410     -1.963995
  H       5.572985     -2.048501      0.990141
  H       6.359336     -2.234069     -0.611932
  H       6.380239     -3.594029      0.555878
  H       2.046423     -4.401913      0.453075
  H       2.925600     -3.421793      1.665918
  H       3.528964     -5.061425      1.226930
  H       3.402777     -4.951567     -2.365431
  H       4.947023     -5.482473     -1.628717
  H       4.934426     -4.124565     -2.798325
  H       3.384049     -2.168884     -1.103580
51
Coordinates from ORCA-job my_molecule E -1977.851182690224
  Pt     -0.038271     -0.249067      0.764415
  O       1.806432     -0.660561      1.489549
  O      -1.987862     -0.334020     -0.135864
  P       2.796755      0.618326      1.443783
  P      -1.689866     -1.788188     -0.656478
  O      -2.922340     -2.808421     -0.364002
  O      -0.380296     -2.197626      0.165882
  O       2.801727      1.197558     -0.127468
  O       4.156225      0.367447      2.036692
  C       1.825823      2.010520      2.176657
  C      -1.437654     -1.915018     -2.486542
  C      -1.855972     -3.315150     -2.989859
  C       0.081797     -1.719921     -2.711027
  C      -2.260167     -0.811090     -3.182210
  C       0.523517      2.159535      1.388255
  C       1.568421      1.692700      3.661576
  C       2.639307      3.315685      2.027770
  H      -3.156110     -2.835822      0.586220
  H       3.224236      0.552350     -0.727461
  H      -1.315428     -4.128544     -2.462812
  H      -1.612302     -3.392398     -4.069590
  H      -2.941545     -3.492787     -2.861917
  H       0.639026     -2.511068     -2.170491
  H       0.452264     -0.744120     -2.339812
  H       0.301707     -1.777509     -3.797611
  H      -3.347660     -0.936936     -2.999415
  H      -2.095251     -0.862233     -4.279122
  H      -1.967108      0.198124     -2.831235
  H      -0.375950      1.350198      1.424118
  H       0.679411      2.436054      0.330936
  H      -0.155464      2.892568      1.885735
  H       0.938915      0.787005      3.778654
  H       1.055485      2.547848      4.153032
  H       2.529596      1.513096      4.184833
  H       2.842630      3.546627      0.962883
  H       3.613996      3.206078      2.545860
  H       2.095196      4.170719      2.483472
  Si      4.088624     -3.347823     -0.518475
  C       5.727198     -2.742634      0.207662
  C       3.009044     -4.130610      0.820599
  C       4.384132     -4.565319     -1.948860
  H       5.518972     -2.012632      1.018298
  H       6.346166     -2.233315     -0.560848
  H       6.329306     -3.572301      0.633644
  H       2.001900     -4.376940      0.424337
  H       2.871258     -3.429475      1.671383
  H       3.469019     -5.065487      1.205992
  H       3.423817     -4.916068     -2.382054
  H       4.946794     -5.460600     -1.606560
  H       4.970666     -4.089485     -2.763719
  H       3.365815     -2.151806     -1.096996
51
Coordinates from ORCA-job my_molecule E -1977.854446212390
  Pt     -0.048586     -0.272526      0.814345
  O       1.775652     -0.689125      1.577580
  O      -1.971866     -0.327563     -0.143748
  P       2.800555      0.571672      1.486088
  P      -1.678543     -1.785629     -0.675333
  O      -2.906454     -2.806984     -0.394268
  O      -0.392267     -2.196247      0.165752
  O       2.792162      1.105596     -0.103988
  O       4.169529      0.317756      2.060598
  C       1.845436      2.000891      2.182219
  C      -1.431152     -1.903686     -2.513627
  C      -1.865833     -3.307274     -3.000255
  C       0.085576     -1.701229     -2.755075
  C      -2.263767     -0.799161     -3.193770
  C       0.511119      2.073391      1.431878
  C       1.637478      1.750449      3.685289
  C       2.639568      3.301318      1.939007
  H      -3.125710     -2.859784      0.558253
  H       3.207085      0.448831     -0.696443
  H      -1.317245     -4.121312     -2.482478
  H      -1.652167     -3.392323     -4.085994
  H      -2.946992     -3.484384     -2.839695
  H       0.660428     -2.488585     -2.226944
  H       0.439422     -0.719281     -2.377650
  H       0.301643     -1.744166     -3.842452
  H      -3.349330     -0.926596     -3.000016
  H      -2.113938     -0.848161     -4.293352
  H      -1.968759      0.209429     -2.843364
  H      -0.343552      1.246562      1.629111
  H       0.607359      2.299018      0.354933
  H      -0.177038      2.818643      1.902141
  H       1.027180      0.841569      3.863017
  H       1.124365      2.619703      4.153021
  H       2.616763      1.607864      4.186906
  H       2.805158      3.475025      0.857323
  H       3.630927      3.229334      2.431054
  H       2.094737      4.170972      2.366747
  Si      4.078830     -3.321491     -0.512577
  C       5.698264     -2.715559      0.258375
  C       2.965797     -4.111421      0.794959
  C       4.416286     -4.529216     -1.944297
  H       5.470996     -1.979300      1.060454
  H       6.342730     -2.215176     -0.494969
  H       6.279562     -3.548328      0.706432
  H       1.965216     -4.347186      0.376464
  H       2.813748     -3.424950      1.653783
  H       3.414687     -5.054129      1.175509
  H       3.468324     -4.882306     -2.404439
  H       4.975874     -5.424969     -1.597535
  H       5.018327     -4.044267     -2.742781
  H       3.358352     -2.128240     -1.104377
51
Coordinates from ORCA-job my_molecule E -1977.857493135563
  Pt     -0.022782     -0.326993      0.883863
  O       1.791442     -0.727861      1.660769
  O      -1.919997     -0.309043     -0.091637
  P       2.822093      0.520236      1.498936
  P      -1.655809     -1.764018     -0.663928
  O      -2.902214     -2.764274     -0.398277
  O      -0.386426     -2.229050      0.161034
  O       2.798641      0.976607     -0.113475
  O       4.202005      0.294824      2.057786
  C       1.840041      1.966573      2.143715
  C      -1.426754     -1.867164     -2.507492
  C      -1.882758     -3.261738     -2.995488
  C       0.084796     -1.674304     -2.770082
  C      -2.262125     -0.748034     -3.156379
  C       0.503735      1.960797      1.381561
  C       1.624825      1.749843      3.651215
  C       2.604448      3.274502      1.877805
  H      -3.149655     -2.781295      0.548773
  H       3.199956      0.303366     -0.694322
  H      -1.333684     -4.080549     -2.488029
  H      -1.682679     -3.345111     -4.084309
  H      -2.963396     -3.425900     -2.825699
  H       0.675138     -2.455221     -2.249852
  H       0.433199     -0.685861     -2.397578
  H       0.291905     -1.719962     -3.857717
  H      -3.345406     -0.866233     -2.950714
  H      -2.121616     -0.789452     -4.257345
  H      -1.954451      0.253903     -2.799412
  H      -0.267939      1.112555      1.727097
  H       0.583323      2.148249      0.294721
  H      -0.209971      2.720196      1.787257
  H       1.055539      0.820950      3.855316
  H       1.068973      2.608496      4.087093
  H       2.601529      1.665707      4.169056
  H       2.769796      3.436485      0.795490
  H       3.595045      3.237131      2.373725
  H       2.035259      4.135996      2.289719
  Si      4.086987     -3.296181     -0.498096
  C       5.699989     -2.680546      0.277373
  C       2.972412     -4.092108      0.805527
  C       4.435601     -4.504814     -1.922371
  H       5.467646     -1.943175      1.076513
  H       6.350215     -2.181706     -0.470957
  H       6.273767     -3.515625      0.730218
  H       1.971297     -4.326129      0.388856
  H       2.820119     -3.412973      1.666903
  H       3.423508     -5.035548      1.180357
  H       3.492459     -4.856264     -2.391869
  H       4.989750     -5.398965     -1.566172
  H       5.047133     -4.023085     -2.714138
  H       3.361024     -2.109766     -1.103528
51
Coordinates from ORCA-job my_molecule E -1977.854747674369
  Pt     -0.009313     -0.386567      0.916551
  O       1.777617     -0.769631      1.745541
  O      -1.869083     -0.303383     -0.103312
  P       2.817837      0.450930      1.522459
  P      -1.625662     -1.758807     -0.693666
  O      -2.891333     -2.742392     -0.434157
  O      -0.363416     -2.265993      0.102029
  O       2.795651      0.843602     -0.103503
  O       4.198357      0.235143      2.074909
  C       1.841424      1.930985      2.134638
  C      -1.413879     -1.837378     -2.540702
  C      -1.870545     -3.217162     -3.053269
  C       0.091416     -1.636535     -2.810557
  C      -2.259702     -0.710217     -3.155288
  C       0.444288      1.805570      1.504432
  C       1.758847      1.829985      3.668338
  C       2.525228      3.236750      1.706817
  H      -3.128554     -2.755090      0.516351
  H       3.189601      0.155955     -0.671482
  H      -1.311990     -4.040234     -2.567030
  H      -1.679528     -3.278954     -4.144989
  H      -2.949939     -3.382816     -2.882230
  H       0.695510     -2.413550     -2.301773
  H       0.426912     -0.646611     -2.434057
  H       0.297350     -1.672986     -3.898595
  H      -3.339729     -0.833761     -2.942745
  H      -2.124436     -0.734579     -4.256320
  H      -1.950994      0.284807     -2.783717
  H      -0.202365      1.027033      2.164949
  H       0.400636      1.859396      0.401520
  H      -0.252506      2.607796      1.849773
  H       1.260442      0.897602      3.997830
  H       1.197376      2.694012      4.080566
  H       2.773769      1.835110      4.109158
  H       2.592197      3.325667      0.607265
  H       3.554337      3.271892      2.114077
  H       1.961994      4.106835      2.105433
  Si      4.072286     -3.271880     -0.474332
  C       5.663391     -2.649179      0.336523
  C       2.932366     -4.074560      0.801966
  C       4.453914     -4.474311     -1.889447
  H       5.412335     -1.910620      1.125800
  H       6.335708     -2.156806     -0.394270
  H       6.216638     -3.488862      0.805060
  H       1.936402     -4.300378      0.371281
  H       2.772002     -3.402832      1.665970
  H       3.374760     -5.022090      1.173620
  H       3.523641     -4.821772     -2.382313
  H       4.997163     -5.367653     -1.520952
  H       5.085466     -3.993003     -2.662665
  H       3.352041     -2.091010     -1.099673
51
Coordinates from ORCA-job my_molecule E -1977.860188836643
  Pt     -0.030521     -0.366552      0.906139
  O       1.782819     -0.757326      1.705267
  O      -1.912370     -0.310401     -0.096908
  P       2.824477      0.463286      1.508710
  P      -1.651814     -1.762501     -0.675160
  O      -2.912142     -2.752347     -0.414931
  O      -0.378993     -2.251041      0.135761
  O       2.821959      0.875020     -0.110386
  O       4.193474      0.228346      2.085017
  C       1.855638      1.934585      2.129658
  C      -1.427697     -1.854383     -2.517497
  C      -1.866096     -3.243165     -3.026243
  C       0.077758     -1.637014     -2.785459
  C      -2.282798     -0.740698     -3.151460
  C       0.487767      1.871462      1.431844
  C       1.711001      1.779600      3.654488
  C       2.582817      3.241878      1.777037
  H      -3.140674     -2.777783      0.537387
  H       3.213627      0.183368     -0.679730
  H      -1.302132     -4.060984     -2.534766
  H      -1.665385     -3.304162     -4.116377
  H      -2.945094     -3.422245     -2.861435
  H       0.683723     -2.412987     -2.276398
  H       0.417703     -0.647515     -2.413506
  H       0.275693     -1.676086     -3.876505
  H      -3.362910     -0.876968     -2.942048
  H      -2.145453     -0.767735     -4.252939
  H      -1.987557      0.261183     -2.784555
  H      -0.230159      1.038274      1.922227
  H       0.521147      1.992623      0.331928
  H      -0.207503      2.665576      1.799894
  H       1.177816      0.846069      3.924859
  H       1.151773      2.641334      4.077836
  H       2.709189      1.743910      4.133993
  H       2.696826      3.361853      0.682418
  H       3.595709      3.241855      2.227199
  H       2.022571      4.113574      2.178422
  Si      4.073545     -3.262394     -0.479828
  C       5.662882     -2.640928      0.337290
  C       2.932701     -4.066733      0.794258
  C       4.453705     -4.460730     -1.902229
  H       5.410017     -1.905481      1.130491
  H       6.334673     -2.144299     -0.392570
  H       6.221247     -3.479321      0.803407
  H       1.937423     -4.292950      0.360293
  H       2.771552     -3.389508      1.656060
  H       3.373481     -5.014272      1.169830
  H       3.521676     -4.812056     -2.390331
  H       5.003412     -5.353910     -1.538415
  H       5.079127     -3.973960     -2.679098
  H       3.356304     -2.077892     -1.101128
51
Coordinates from ORCA-job my_molecule E -1977.861249077017
  Pt     -0.029979     -0.387458      0.916931
  O       1.783404     -0.779653      1.722499
  O      -1.913953     -0.314781     -0.088503
  P       2.834322      0.426758      1.513793
  P      -1.666494     -1.766149     -0.667375
  O      -2.944419     -2.738876     -0.412066
  O      -0.397906     -2.269551      0.143202
  O       2.846013      0.821118     -0.106489
  O       4.192636      0.181375      2.109758
  C       1.874350      1.912048      2.112290
  C      -1.438383     -1.850700     -2.507839
  C      -1.853282     -3.244187     -3.022649
  C       0.063759     -1.608422     -2.775957
  C      -2.311031     -0.750454     -3.144487
  C       0.514327      1.849110      1.402118
  C       1.719263      1.771317      3.637371
  C       2.609163      3.213895      1.752121
  H      -3.172510     -2.760396      0.540466
  H       3.228671      0.117408     -0.668693
  H      -1.274687     -4.055464     -2.536532
  H      -1.652906     -3.295732     -4.113295
  H      -2.929094     -3.442997     -2.857233
  H       0.680034     -2.381989     -2.276537
  H       0.397145     -0.618329     -2.400989
  H       0.256286     -1.638461     -3.868269
  H      -3.388866     -0.906762     -2.935652
  H      -2.174485     -0.772040     -4.246225
  H      -2.033145      0.255917     -2.775711
  H      -0.198502      0.984915      1.875464
  H       0.565773      1.989291      0.305639
  H      -0.196222      2.625257      1.777725
  H       1.185461      0.838776      3.910934
  H       1.155792      2.635776      4.049930
  H       2.714328      1.740901      4.123971
  H       2.731655      3.320415      0.656557
  H       3.619001      3.213648      2.209745
  H       2.052732      4.094372      2.139516
  Si      4.069525     -3.231558     -0.469630
  C       5.644612     -2.608353      0.373540
  C       2.914083     -4.045891      0.783930
  C       4.469376     -4.417563     -1.897821
  H       5.379463     -1.876928      1.166313
  H       6.326428     -2.109218     -0.345563
  H       6.197515     -3.448709      0.843132
  H       1.923052     -4.268318      0.338382
  H       2.746475     -3.370656      1.647000
  H       3.350264     -4.995984      1.158689
  H       3.542608     -4.770677     -2.395756
  H       5.020628     -5.311080     -1.536277
  H       5.098513     -3.922167     -2.666614
  H       3.355139     -2.045328     -1.093044
51
Coordinates from ORCA-job my_molecule E -1977.862503125530
  Pt     -0.026645     -0.418950      0.922688
  O       1.782452     -0.816307      1.732980
  O      -1.911750     -0.320585     -0.079358
  P       2.839335      0.378847      1.517737
  P      -1.684413     -1.767651     -0.667938
  O      -2.986114     -2.716577     -0.425641
  O      -0.419569     -2.297870      0.138526
  O       2.872153      0.744541     -0.104411
  O       4.183961      0.128822      2.142028
  C       1.893309      1.879094      2.094060
  C      -1.449705     -1.841710     -2.502529
  C      -1.830452     -3.241790     -3.024461
  C       0.047326     -1.566927     -2.767991
  C      -2.345257     -0.760019     -3.142587
  C       0.524162      1.812658      1.401099
  C       1.757354      1.770314      3.623875
  C       2.626771      3.171566      1.698533
  H      -3.214460     -2.742937      0.526747
  H       3.242561      0.019457     -0.651236
  H      -1.232689     -4.041335     -2.541796
  H      -1.625552     -3.282023     -4.114644
  H      -2.901881     -3.466287     -2.863091
  H       0.676154     -2.336999     -2.279249
  H       0.373590     -0.576303     -2.389719
  H       0.231779     -1.587940     -3.862089
  H      -3.419424     -0.942981     -2.936333
  H      -2.205326     -0.774629     -4.243699
  H      -2.091655      0.251734     -2.770734
  H      -0.183104      0.942864      1.900293
  H       0.577881      1.941882      0.303098
  H      -0.176256      2.598579      1.772278
  H       1.229653      0.841887      3.922265
  H       1.196312      2.641457      4.025272
  H       2.758239      1.751789      4.098451
  H       2.734531      3.256070      0.599401
  H       3.643165      3.177672      2.141563
  H       2.081663      4.063849      2.074617
  Si      4.064359     -3.195397     -0.451001
  C       5.621821     -2.571321      0.420491
  C       2.891183     -4.024159      0.775534
  C       4.487857     -4.363223     -1.887130
  H       5.341984     -1.844562      1.211186
  H       6.314507     -2.068212     -0.285451
  H       6.170042     -3.412700      0.893971
  H       1.906632     -4.241176      0.313580
  H       2.713064     -3.351536      1.639086
  H       3.321065     -4.977123      1.149602
  H       3.568991     -4.715944     -2.399753
  H       5.038704     -5.257430     -1.526778
  H       5.124554     -3.856931     -2.642327
  H       3.353069     -2.006077     -1.077206
51
Coordinates from ORCA-job my_molecule E -1977.863570260766
  Pt     -0.022818     -0.455925      0.934197
  O       1.776759     -0.874782      1.757690
  O      -1.898087     -0.323071     -0.070107
  P       2.850089      0.310898      1.535066
  P      -1.702623     -1.768767     -0.668327
  O      -3.034891     -2.681598     -0.441646
  O      -0.447011     -2.333818      0.134141
  O       2.913221      0.647030     -0.088825
  O       4.173594      0.049977      2.202939
  C       1.924588      1.832988      2.071937
  C      -1.465448     -1.831090     -2.496504
  C      -1.789894     -3.247248     -3.016038
  C       0.020261     -1.504084     -2.764653
  C      -2.401479     -0.785322     -3.140018
  C       0.547812      1.758931      1.389981
  C       1.800670      1.770586      3.605407
  C       2.664497      3.107220      1.630906
  H      -3.288763     -2.683596      0.504456
  H       3.256482     -0.102877     -0.609591
  H      -1.160405     -4.021156     -2.531321
  H      -1.582461     -3.281482     -4.105919
  H      -2.851412     -3.514146     -2.853654
  H       0.671298     -2.267947     -2.295796
  H       0.330320     -0.511561     -2.379062
  H       0.191196     -1.507397     -3.861090
  H      -3.467131     -1.012564     -2.933539
  H      -2.260644     -0.792786     -4.240889
  H      -2.188017      0.235560     -2.767354
  H      -0.164964      0.905363      1.941504
  H       0.612038      1.855294      0.288933
  H      -0.141485      2.563393      1.738339
  H       1.275253      0.850636      3.933246
  H       1.241271      2.652571      3.984802
  H       2.805327      1.763651      4.072026
  H       2.759564      3.159910      0.528568
  H       3.686493      3.118754      2.061233
  H       2.132945      4.015985      1.986521
  Si      4.056528     -3.145336     -0.428609
  C       5.587673     -2.518875      0.482642
  C       2.854069     -3.992634      0.752256
  C       4.516159     -4.283541     -1.877163
  H       5.283348     -1.795696      1.270705
  H       6.295970     -2.010348     -0.204022
  H       6.128520     -3.360991      0.963351
  H       1.881529     -4.199926      0.261520
  H       2.655745     -3.325499      1.615558
  H       3.272530     -4.950527      1.126020
  H       3.609403     -4.630751     -2.414862
  H       5.062403     -5.181942     -1.520064
  H       5.167189     -3.761230     -2.608813
  H       3.348722     -1.952769     -1.054265
51
Coordinates from ORCA-job my_molecule E -1977.864128868905
  Pt     -0.021825     -0.464885      0.933769
  O       1.767280     -0.904503      1.770391
  O      -1.886717     -0.304078     -0.078274
  P       2.855929      0.268792      1.546814
  P      -1.715854     -1.756488     -0.667214
  O      -3.066355     -2.642655     -0.441547
  O      -0.468625     -2.337832      0.137774
  O       2.937722      0.566178     -0.083291
  O       4.169080      0.005705      2.235491
  C       1.942907      1.804484      2.059977
  C      -1.478225     -1.828115     -2.491887
  C      -1.766388     -3.258367     -2.995876
  C      -0.001152     -1.467334     -2.763641
  C      -2.440337     -0.812537     -3.144456
  C       0.566930      1.733290      1.373423
  C       1.813747      1.763668      3.594055
  C       2.694942      3.066594      1.605445
  H      -3.340167     -2.613269      0.498491
  H       3.259673     -0.217146     -0.591500
  H      -1.117501     -4.009461     -2.500939
  H      -1.556780     -3.300509     -4.085033
  H      -2.821042     -3.549971     -2.830920
  H       0.666817     -2.225015     -2.308840
  H       0.292484     -0.472929     -2.370276
  H       0.162667     -1.456590     -3.861207
  H      -3.499477     -1.065573     -2.935160
  H      -2.298683     -0.825957     -4.245132
  H      -2.252240      0.216674     -2.780812
  H      -0.150887      0.883926      1.939102
  H       0.642043      1.822342      0.272531
  H      -0.120225      2.542497      1.713980
  H       1.282189      0.850932      3.932371
  H       1.257470      2.653442      3.959385
  H       2.816894      1.756129      4.063642
  H       2.792537      3.107033      0.502860
  H       3.716197      3.075387      2.037584
  H       2.170127      3.983631      1.949692
  Si      4.058202     -3.111388     -0.417178
  C       5.574006     -2.491638      0.519608
  C       2.834331     -3.971077      0.732467
  C       4.541762     -4.225228     -1.876574
  H       5.258114     -1.775557      1.307271
  H       6.291622     -1.977198     -0.152852
  H       6.108727     -3.337659      1.000390
  H       1.871330     -4.172364      0.220935
  H       2.618556     -3.307903      1.596342
  H       3.245064     -4.931930      1.106822
  H       3.643677     -4.567605     -2.430891
  H       5.085600     -5.127106     -1.524627
  H       5.201060     -3.689910     -2.591070
  H       3.348726     -1.913458     -1.039604
51
Coordinates from ORCA-job my_molecule E -1977.864405233350
  Pt     -0.042119     -0.453945      0.915887
  O       1.743162     -0.895623      1.744470
  O      -1.893012     -0.274123     -0.111168
  P       2.854009      0.260729      1.560525
  P      -1.744951     -1.741064     -0.678341
  O      -3.115721     -2.595629     -0.450122
  O      -0.511987     -2.332479      0.137965
  O       2.977020      0.557600     -0.063100
  O       4.147102     -0.025872      2.276527
  C       1.954943      1.808137      2.074218
  C      -1.493201     -1.848119     -2.499833
  C      -1.756238     -3.293589     -2.970855
  C      -0.019482     -1.469894     -2.768216
  C      -2.466549     -0.860583     -3.173194
  C       0.578868      1.759974      1.389422
  C       1.822700      1.771056      3.608400
  C       2.727621      3.058253      1.620416
  H      -3.411397     -2.513579      0.480513
  H       3.277833     -0.244948     -0.564223
  H      -1.096976     -4.019175     -2.453384
  H      -1.541713     -3.360698     -4.057690
  H      -2.807177     -3.596883     -2.803567
  H       0.659462     -2.223571     -2.325143
  H       0.252664     -0.477926     -2.356100
  H       0.152303     -1.442790     -3.863502
  H      -3.522470     -1.123313     -2.962333
  H      -2.319185     -0.895838     -4.272307
  H      -2.291935      0.177924     -2.830756
  H      -0.133873      0.894062      1.945675
  H       0.650941      1.854273      0.289459
  H      -0.106953      2.563139      1.742789
  H       1.266116      0.873659      3.947058
  H       1.289678      2.674531      3.972181
  H       2.823708      1.736317      4.079517
  H       2.832962      3.096595      0.519080
  H       3.745750      3.053036      2.058627
  H       2.213297      3.982108      1.960845
  Si      4.071091     -3.103740     -0.424802
  C       5.577694     -2.489182      0.527712
  C       2.833569     -3.969906      0.704624
  C       4.564139     -4.196868     -1.896274
  H       5.254874     -1.787756      1.328058
  H       6.293882     -1.959363     -0.133403
  H       6.114528     -3.341829      0.993738
  H       1.879822     -4.177764      0.179211
  H       2.597997     -3.304605      1.560178
  H       3.244105     -4.925953      1.089976
  H       3.668944     -4.535214     -2.457704
  H       5.107512     -5.101589     -1.553176
  H       5.224782     -3.652306     -2.601188
  H       3.357794     -1.898213     -1.034877
51
Coordinates from ORCA-job my_molecule E -1977.864895590595
  Pt     -0.040902     -0.434965      0.927626
  O       1.725379     -0.908361      1.769250
  O      -1.884332     -0.244974     -0.115890
  P       2.850749      0.240719      1.593103
  P      -1.748029     -1.717078     -0.676756
  O      -3.115374     -2.569502     -0.441410
  O      -0.515372     -2.304365      0.142018
  O       3.001361      0.515289     -0.034427
  O       4.133246     -0.043263      2.328856
  C       1.952257      1.797863      2.076425
  C      -1.504110     -1.845731     -2.498530
  C      -1.759850     -3.301051     -2.943475
  C      -0.034382     -1.457598     -2.778219
  C      -2.486128     -0.871646     -3.175166
  C       0.589485      1.757063      1.364918
  C       1.789809      1.783256      3.607761
  C       2.747592      3.033666      1.621732
  H      -3.410075     -2.490359      0.489781
  H       3.279020     -0.304063     -0.526865
  H      -1.095752     -4.011691     -2.412263
  H      -1.547559     -3.388265     -4.029340
  H      -2.808785     -3.606981     -2.768366
  H       0.657411     -2.206665     -2.346190
  H       0.222053     -0.466223     -2.354675
  H       0.132233     -1.417054     -3.874218
  H      -3.539694     -1.134742     -2.954906
  H      -2.343474     -0.920875     -4.274456
  H      -2.312288      0.171518     -2.846908
  H      -0.165518      0.929963      1.912887
  H       0.677930      1.818437      0.264446
  H      -0.088611      2.579200      1.689305
  H       1.209559      0.901953      3.948597
  H       1.267027      2.701559      3.948009
  H       2.780962      1.736362      4.098005
  H       2.878923      3.055486      0.523029
  H       3.754743      3.024866      2.083833
  H       2.231315      3.965020      1.938029
  Si      4.087960     -3.102648     -0.430316
  C       5.591583     -2.492724      0.527072
  C       2.845389     -3.977979      0.688130
  C       4.586946     -4.173362     -1.915510
  H       5.262599     -1.799533      1.331712
  H       6.304074     -1.953866     -0.130476
  H       6.132738     -3.345908      0.986662
  H       1.898417     -4.189721      0.152027
  H       2.593282     -3.318176      1.543349
  H       3.257537     -4.932406      1.075513
  H       3.696212     -4.501726     -2.488820
  H       5.125733     -5.084073     -1.581578
  H       5.254473     -3.619952     -2.606524
  H       3.368171     -1.887227     -1.024982
51
Coordinates from ORCA-job my_molecule E -1977.865183081763
  Pt     -0.043317     -0.413224      0.912445
  O       1.715623     -0.903420      1.773663
  O      -1.883998     -0.228181     -0.136745
  P       2.848345      0.240775      1.609264
  P      -1.753008     -1.707588     -0.679854
  O      -3.121269     -2.554354     -0.432766
  O      -0.521219     -2.289567      0.142102
  O       3.018716      0.515799     -0.015099
  O       4.121450     -0.044222      2.360279
  C       1.954234      1.802012      2.084747
  C      -1.513750     -1.853679     -2.501408
  C      -1.758479     -3.314688     -2.933275
  C      -0.048635     -1.454377     -2.785632
  C      -2.503148     -0.891561     -3.185798
  C       0.602530      1.770572      1.356776
  C       1.772595      1.785516      3.613433
  C       2.763845      3.034568      1.643233
  H      -3.424258     -2.455923      0.493692
  H       3.280431     -0.308344     -0.498281
  H      -1.092760     -4.015250     -2.390310
  H      -1.539726     -3.411848     -4.017121
  H      -2.806878     -3.625089     -2.761842
  H       0.648227     -2.200272     -2.355917
  H       0.201792     -0.461089     -2.361940
  H       0.114940     -1.411808     -3.882084
  H      -3.555163     -1.157833     -2.961116
  H      -2.361731     -0.949956     -4.285168
  H      -2.334278      0.155898     -2.867809
  H      -0.172951      0.955216      1.887617
  H       0.698442      1.830753      0.256332
  H      -0.074337      2.596165      1.677145
  H       1.180970      0.908704      3.946668
  H       1.253210      2.708269      3.948273
  H       2.757869      1.730907      4.115557
  H       2.910783      3.057609      0.546232
  H       3.764558      3.017921      2.119694
  H       2.248478      3.968337      1.954775
  Si      4.097616     -3.108932     -0.436127
  C       5.604288     -2.499209      0.515623
  C       2.859129     -3.986188      0.684504
  C       4.590270     -4.172232     -1.927247
  H       5.274310     -1.811364      1.323583
  H       6.310623     -1.954275     -0.143821
  H       6.151351     -3.351228      0.970367
  H       1.915460     -4.207423      0.145745
  H       2.598124     -3.325479      1.536208
  H       3.276093     -4.936281      1.078021
  H       3.698819     -4.492391     -2.503453
  H       5.124258     -5.087992     -1.597836
  H       5.262053     -3.617710     -2.613856
  H       3.375404     -1.888580     -1.019661
51
Coordinates from ORCA-job my_molecule E -1977.865458428872
  Pt     -0.056738     -0.394037      0.908630
  O       1.686969     -0.903556      1.787402
  O      -1.891297     -0.212845     -0.159617
  P       2.839992      0.223431      1.646477
  P      -1.760440     -1.698722     -0.684992
  O      -3.125333     -2.544034     -0.421642
  O      -0.526566     -2.271350      0.139657
  O       3.062139      0.494823      0.029244
  O       4.084935     -0.077112      2.437100
  C       1.962998      1.804433      2.090876
  C      -1.530995     -1.864106     -2.507048
  C      -1.759796     -3.331532     -2.922492
  C      -0.074373     -1.441691     -2.802872
  C      -2.538057     -0.920352     -3.194852
  C       0.623758      1.790399      1.344803
  C       1.758143      1.803747      3.616068
  C       2.800586      3.020062      1.652395
  H      -3.406743     -2.466007      0.513426
  H       3.292601     -0.337150     -0.444245
  H      -1.084893     -4.018724     -2.373320
  H      -1.542270     -3.436949     -4.005940
  H      -2.804248     -3.652625     -2.746332
  H       0.637117     -2.179322     -2.379758
  H       0.163224     -0.445631     -2.377358
  H       0.079283     -1.392314     -3.900879
  H      -3.585524     -1.195214     -2.958421
  H      -2.406516     -0.987540     -4.295187
  H      -2.378057      0.132341     -2.889122
  H      -0.179746      0.999603      1.862094
  H       0.726696      1.841548      0.243457
  H      -0.041369      2.632311      1.649853
  H       1.140707      0.944143      3.947561
  H       1.256198      2.741859      3.936367
  H       2.734912      1.731057      4.132870
  H       2.969891      3.025398      0.558199
  H       3.790909      2.992329      2.150097
  H       2.293692      3.965600      1.942262
  Si      4.109792     -3.109645     -0.444230
  C       5.607141     -2.501204      0.525373
  C       2.865391     -3.994872      0.662008
  C       4.609970     -4.151200     -1.946824
  H       5.265124     -1.825316      1.338303
  H       6.312883     -1.944179     -0.124549
  H       6.157250     -3.352858      0.976969
  H       1.933174     -4.230197      0.108792
  H       2.584475     -3.333943      1.507037
  H       3.284673     -4.939292      1.067213
  H       3.723608     -4.459639     -2.537140
  H       5.138947     -5.073344     -1.625745
  H       5.290699     -3.588221     -2.618089
  H       3.391017     -1.880892     -1.012068
51
Coordinates from ORCA-job my_molecule E -1977.865661081623
  Pt     -0.050765     -0.376798      0.887197
  O       1.676097     -0.895718      1.790938
  O      -1.880850     -0.189380     -0.188473
  P       2.838310      0.220975      1.667959
  P      -1.764410     -1.682902     -0.692094
  O      -3.137293     -2.510252     -0.411783
  O      -0.535389     -2.258124      0.136495
  O       3.088197      0.488141      0.055738
  O       4.068776     -0.084710      2.479423
  C       1.964952      1.807953      2.099955
  C      -1.545408     -1.871843     -2.512213
  C      -1.768647     -3.344471     -2.909227
  C      -0.093939     -1.442524     -2.820802
  C      -2.562451     -0.942023     -3.206887
  C       0.635479      1.804372      1.337097
  C       1.740895      1.805330      3.623004
  C       2.815426      3.019124      1.675472
  H      -3.409747     -2.426543      0.525250
  H       3.297009     -0.354722     -0.411597
  H      -1.088500     -4.022626     -2.354988
  H      -1.554437     -3.460874     -3.992252
  H      -2.811033     -3.668054     -2.725618
  H       0.625668     -2.170516     -2.395643
  H       0.139605     -0.440893     -2.405951
  H       0.051414     -1.401031     -3.919958
  H      -3.606945     -1.218940     -2.959633
  H      -2.438711     -1.021725     -4.307278
  H      -2.406121      0.115373     -2.915506
  H      -0.176706      1.017725      1.838658
  H       0.747660      1.863943      0.236763
  H      -0.025903      2.652046      1.635904
  H       1.114407      0.948960      3.945807
  H       1.241133      2.746097      3.939685
  H       2.710998      1.726284      4.151309
  H       2.999155      3.024005      0.583482
  H       3.798714      2.984386      2.186641
  H       2.311011      3.967666      1.959648
  Si      4.124818     -3.113602     -0.451783
  C       5.620263     -2.504967      0.522391
  C       2.881566     -4.001717      0.652894
  C       4.624061     -4.148639     -1.958793
  H       5.274954     -1.836716      1.339743
  H       6.323388     -1.939733     -0.123232
  H       6.173767     -3.356079      0.970805
  H       1.956616     -4.252389      0.094082
  H       2.588116     -3.337111      1.491199
  H       3.305688     -4.938998      1.069628
  H       3.738963     -4.450241     -2.555362
  H       5.148578     -5.074428     -1.640623
  H       5.309976     -3.583907     -2.623452
  H       3.407526     -1.881714     -1.012205
51
Coordinates from ORCA-job my_molecule E -1977.865865396801
  Pt     -0.048106     -0.370558      0.878210
  O       1.661808     -0.894722      1.808960
  O      -1.872215     -0.174937     -0.207897
  P       2.836630      0.207543      1.698522
  P      -1.766832     -1.671673     -0.699785
  O      -3.143737     -2.489347     -0.404519
  O      -0.538675     -2.249817      0.126638
  O       3.118998      0.460331      0.089923
  O       4.049110     -0.105295      2.534610
  C       1.971251      1.806630      2.105460
  C      -1.564362     -1.873075     -2.518604
  C      -1.779951     -3.349763     -2.903824
  C      -0.119795     -1.434899     -2.847424
  C      -2.596700     -0.956786     -3.210030
  C       0.650131      1.806553      1.326184
  C       1.728847      1.816968      3.626585
  C       2.835136      3.007606      1.682010
  H      -3.398425     -2.415855      0.538176
  H       3.300416     -0.395152     -0.374064
  H      -1.087435     -4.020381     -2.355516
  H      -1.578602     -3.470360     -3.988828
  H      -2.817198     -3.680435     -2.704203
  H       0.612353     -2.147916     -2.418480
  H       0.109915     -0.424825     -2.451830
  H       0.011193     -1.407570     -3.948604
  H      -3.635732     -1.241056     -2.948754
  H      -2.485088     -1.043068     -4.311121
  H      -2.446817      0.104026     -2.927651
  H      -0.166487      1.028150      1.827414
  H       0.774361      1.866116      0.227093
  H      -0.007390      2.663316      1.608098
  H       1.094638      0.965989      3.948762
  H       1.230753      2.762467      3.931774
  H       2.692512      1.736442      4.166280
  H       3.030672      3.001942      0.591948
  H       3.812476      2.970493      2.204371
  H       2.335571      3.962631      1.952534
  Si      4.139943     -3.110078     -0.455528
  C       5.627289     -2.503163      0.534497
  C       2.892821     -4.003692      0.639866
  C       4.647573     -4.136710     -1.965252
  H       5.274370     -1.843032      1.355450
  H       6.333236     -1.929379     -0.100366
  H       6.180265     -3.354928      0.982425
  H       1.977997     -4.270723      0.072077
  H       2.584334     -3.335587      1.470292
  H       3.320751     -4.933406      1.069507
  H       3.767664     -4.430461     -2.573506
  H       5.166222     -5.066274     -1.648723
  H       5.341982     -3.568954     -2.618524
  H       3.428260     -1.875859     -1.012824
51
Coordinates from ORCA-job my_molecule E -1977.866009854861
  Pt     -0.039539     -0.365527      0.871371
  O       1.655959     -0.888097      1.823322
  O      -1.856784     -0.161315     -0.226302
  P       2.837389      0.205497      1.720474
  P      -1.762164     -1.660342     -0.709329
  O      -3.140251     -2.472854     -0.398969
  O      -0.532146     -2.240131      0.112447
  O       3.133936      0.455009      0.115008
  O       4.041963     -0.114973      2.565814
  C       1.973407      1.809346      2.116545
  C      -1.578826     -1.872794     -2.527543
  C      -1.799461     -3.352132     -2.900671
  C      -0.137838     -1.439712     -2.878882
  C      -2.619163     -0.962595     -3.213734
  C       0.656307      1.808605      1.327007
  C       1.719909      1.826296      3.636157
  C       2.841692      3.006154      1.692997
  H      -3.374201     -2.411452      0.550024
  H       3.301552     -0.404260     -0.349833
  H      -1.097439     -4.020641     -2.362295
  H      -1.617799     -3.478475     -3.988377
  H      -2.832350     -3.682347     -2.679090
  H       0.602436     -2.138009     -2.441021
  H       0.093858     -0.420230     -2.509641
  H      -0.019427     -1.435876     -3.981750
  H      -3.654350     -1.248205     -2.939470
  H      -2.519777     -1.055602     -4.315225
  H      -2.469085      0.099991     -2.938905
  H      -0.158208      1.029241      1.828204
  H       0.791848      1.868723      0.229663
  H      -0.001959      2.667832      1.598315
  H       1.082653      0.976773      3.955921
  H       1.221048      2.772773      3.935886
  H       2.679452      1.744878      4.182581
  H       3.042838      2.994957      0.604189
  H       3.816159      2.970590      2.220503
  H       2.343439      3.963871      1.955942
  Si      4.152704     -3.110516     -0.462106
  C       5.632966     -2.503960      0.541088
  C       2.901682     -4.003276      0.629420
  C       4.668279     -4.141474     -1.967358
  H       5.275216     -1.846199      1.363153
  H       6.344380     -1.927645     -0.085072
  H       6.182459     -3.356521      0.991745
  H       1.993151     -4.283581      0.058269
  H       2.584834     -3.330236      1.452440
  H       3.332918     -4.925950      1.070489
  H       3.792463     -4.433096     -2.582724
  H       5.182205     -5.071978     -1.647047
  H       5.368588     -3.575763     -2.615833
  H       3.449008     -1.877304     -1.025983
51
Coordinates from ORCA-job my_molecule E -1977.866134321000
  Pt     -0.034531     -0.363076      0.867272
  O       1.647813     -0.890201      1.840125
  O      -1.840201     -0.147451     -0.244871
  P       2.838049      0.195326      1.742048
  P      -1.761584     -1.649782     -0.718951
  O      -3.142425     -2.454444     -0.394109
  O      -0.529170     -2.232853      0.096444
  O       3.148427      0.434308      0.137363
  O       4.034125     -0.132476      2.597023
  C       1.980918      1.805859      2.126054
  C      -1.597234     -1.872768     -2.536144
  C      -1.811809     -3.357452     -2.894622
  C      -0.163397     -1.436520     -2.910428
  C      -2.650903     -0.976563     -3.218006
  C       0.669660      1.807813      1.324449
  C       1.714529      1.833453      3.643016
  C       2.858695      2.995409      1.701947
  H      -3.369039     -2.384809      0.556200
  H       3.299023     -0.429171     -0.328420
  H      -1.096500     -4.016244     -2.362115
  H      -1.646385     -3.491587     -3.983872
  H      -2.838318     -3.693744     -2.653363
  H       0.588113     -2.118077     -2.465769
  H       0.065613     -0.407367     -2.567723
  H      -0.057800     -1.455917     -4.014428
  H      -3.680507     -1.270855     -2.932558
  H      -2.559835     -1.076484     -4.319489
  H      -2.508403      0.089041     -2.951239
  H      -0.149029      1.028592      1.826347
  H       0.822134      1.863103      0.229370
  H       0.010600      2.668611      1.586501
  H       1.070740      0.988353      3.961432
  H       1.217470      2.783360      3.933481
  H       2.668850      1.748936      4.197864
  H       3.067350      2.978814      0.614781
  H       3.829576      2.958641      2.235773
  H       2.364121      3.957283      1.956550
  Si      4.165379     -3.102130     -0.464730
  C       5.635965     -2.499250      0.554143
  C       2.905357     -3.995754      0.615980
  C       4.694827     -4.133373     -1.965492
  H       5.271812     -1.845407      1.376336
  H       6.354380     -1.919929     -0.061048
  H       6.181140     -3.353998      1.005925
  H       2.004182     -4.285611      0.038277
  H       2.577423     -3.319008      1.431658
  H       3.338136     -4.912586      1.067361
  H       3.824659     -4.421936     -2.589957
  H       5.203177     -5.065515     -1.641807
  H       5.402438     -3.568167     -2.606224
  H       3.468319     -1.868929     -1.036543
51
Coordinates from ORCA-job my_molecule E -1977.866247732716
  Pt     -0.028009     -0.355715      0.862919
  O       1.645045     -0.886493      1.850218
  O      -1.820750     -0.130747     -0.266483
  P       2.839324      0.195821      1.756328
  P      -1.756113     -1.637174     -0.730475
  O      -3.135858     -2.436740     -0.387001
  O      -0.518512     -2.219853      0.078315
  O       3.151187      0.436165      0.152650
  O       4.034351     -0.139721      2.609585
  C       1.984576      1.807235      2.140904
  C      -1.612647     -1.875400     -2.547390
  C      -1.830874     -3.364661     -2.887084
  C      -0.184244     -1.444548     -2.945939
  C      -2.674584     -0.987736     -3.225695
  C       0.677798      1.813220      1.330738
  C       1.709117      1.835496      3.655492
  C       2.867628      2.994925      1.721446
  H      -3.350705     -2.360368      0.565713
  H       3.297051     -0.424351     -0.315883
  H      -1.106411     -4.016277     -2.358436
  H      -1.682546     -3.510332     -3.977238
  H      -2.852849     -3.699879     -2.626071
  H       0.575766     -2.110202     -2.491801
  H       0.044274     -0.405670     -2.633465
  H      -0.089111     -1.493512     -4.050123
  H      -3.700596     -1.283939     -2.929769
  H      -2.591643     -1.096359     -4.326956
  H      -2.533436      0.080349     -2.968421
  H      -0.144839      1.030854      1.827517
  H       0.844669      1.863342      0.237699
  H       0.017242      2.672882      1.589997
  H       1.059088      0.993108      3.968352
  H       1.214441      2.787219      3.943113
  H       2.659091      1.744995      4.216809
  H       3.083278      2.978954      0.635760
  H       3.835334      2.956715      2.260815
  H       2.373424      3.957770      1.973100
  Si      4.177766     -3.098819     -0.471712
  C       5.639827     -2.498793      0.559967
  C       2.907496     -3.986852      0.602384
  C       4.720081     -4.139891     -1.961862
  H       5.271892     -1.844866      1.380569
  H       6.366530     -1.921165     -0.046933
  H       6.178667     -3.356055      1.014627
  H       2.010675     -4.283014      0.021358
  H       2.572622     -3.305516      1.411124
  H       3.340738     -4.898710      1.063215
  H       3.854214     -4.430017     -2.591488
  H       5.223848     -5.071428     -1.629815
  H       5.433308     -3.579405     -2.600338
  H       3.489307     -1.867374     -1.058523
51
Coordinates from ORCA-job my_molecule E -1977.866322115615
  Pt     -0.024967     -0.349080      0.857933
  O       1.641478     -0.888769      1.854509
  O      -1.806795     -0.115465     -0.284806
  P       2.839600      0.191439      1.764869
  P      -1.755634     -1.626381     -0.738496
  O      -3.136705     -2.416144     -0.379390
  O      -0.515583     -2.210226      0.066850
  O       3.154976      0.432037      0.161377
  O       4.032040     -0.149283      2.618864
  C       1.989638      1.804541      2.149333
  C      -1.626400     -1.879921     -2.554827
  C      -1.840557     -3.373804     -2.876793
  C      -0.204445     -1.446055     -2.970415
  C      -2.698184     -1.003561     -3.232575
  C       0.688625      1.818711      1.331049
  C       1.705239      1.831244      3.661773
  C       2.880922      2.989685      1.738065
  H      -3.348043     -2.324820      0.572851
  H       3.297491     -0.425922     -0.309561
  H      -1.108146     -4.014691     -2.345982
  H      -1.700114     -3.530524     -3.966482
  H      -2.858935     -3.711290     -2.604949
  H       0.563669     -2.099668     -2.511735
  H       0.018696     -0.400346     -2.677753
  H      -0.115677     -1.514992     -4.074124
  H      -3.720853     -1.303672     -2.929209
  H      -2.619776     -1.119641     -4.333492
  H      -2.561592      0.067371     -2.984431
  H      -0.142458      1.037312      1.820420
  H       0.865657      1.863478      0.239346
  H       0.029333      2.679002      1.590059
  H       1.046605      0.993348      3.968712
  H       1.215564      2.786253      3.947257
  H       2.650553      1.732989      4.229770
  H       3.105466      2.975344      0.654126
  H       3.844273      2.946290      2.284890
  H       2.388212      3.953825      1.987767
  Si      4.188425     -3.092025     -0.475230
  C       5.642585     -2.496340      0.568151
  C       2.906359     -3.976343      0.588751
  C       4.743583     -4.137047     -1.957446
  H       5.271225     -1.844114      1.387951
  H       6.375674     -1.919413     -0.031748
  H       6.176157     -3.356787      1.023140
  H       2.014025     -4.273921      0.001600
  H       2.564022     -3.292931      1.392664
  H       3.337421     -4.886156      1.055741
  H       3.881587     -4.428208     -2.591843
  H       5.244075     -5.068150     -1.619079
  H       5.461654     -3.578951     -2.592575
  H       3.505970     -1.860757     -1.073062
51
Coordinates from ORCA-job my_molecule E -1977.866380257120
  Pt     -0.021764     -0.342197      0.850614
  O       1.640538     -0.889846      1.852123
  O      -1.796896     -0.101896     -0.300445
  P       2.840205      0.189472      1.767802
  P      -1.756242     -1.616586     -0.745028
  O      -3.139003     -2.395694     -0.372104
  O      -0.514939     -2.202201      0.058353
  O       3.157842      0.434957      0.165046
  O       4.031202     -0.154676      2.621444
  C       1.993156      1.802724      2.154999
  C      -1.638020     -1.885025     -2.560569
  C      -1.848813     -3.382313     -2.866666
  C      -0.221583     -1.447787     -2.989617
  C      -2.718175     -1.017582     -3.237983
  C       0.697230      1.825483      1.330610
  C       1.701403      1.822740      3.666096
  C       2.890882      2.987373      1.755069
  H      -3.345957     -2.293517      0.579964
  H       3.302466     -0.419702     -0.308602
  H      -1.110142     -4.013962     -2.333333
  H      -1.714010     -3.548779     -3.955695
  H      -2.864521     -3.721156     -2.586671
  H       0.552904     -2.091881     -2.527615
  H      -0.004524     -0.396612     -2.712806
  H      -0.136799     -1.533860     -4.092467
  H      -3.738225     -1.319531     -2.927837
  H      -2.644274     -1.139747     -4.338655
  H      -2.584335      0.055681     -2.997974
  H      -0.140442      1.045964      1.811288
  H       0.878455      1.868242      0.239447
  H       0.040267      2.687054      1.591110
  H       1.035469      0.988004      3.965780
  H       1.216313      2.779877      3.953069
  H       2.642773      1.716986      4.239439
  H       3.123279      2.977110      0.672650
  H       3.850138      2.937723      2.308652
  H       2.398936      3.951608      2.005840
  Si      4.198777     -3.087178     -0.478286
  C       5.646347     -2.495891      0.575673
  C       2.904861     -3.966662      0.576073
  C       4.764865     -4.137075     -1.952021
  H       5.273231     -1.844769      1.395272
  H       6.385096     -1.920623     -0.018937
  H       6.174212     -3.359963      1.030668
  H       2.016614     -4.263432     -0.017700
  H       2.556394     -3.281874      1.376194
  H       3.331855     -4.876039      1.047802
  H       3.906001     -4.430377     -2.589715
  H       5.262939     -5.066961     -1.606472
  H       5.486956     -3.581958     -2.585252
  H       3.522988     -1.856177     -1.086814
51
Coordinates from ORCA-job my_molecule E -1977.860543545596
  Pt     -0.001259     -0.377278      0.843374
  O       1.672609     -0.918359      1.829872
  O      -1.781543     -0.128143     -0.302990
  P       2.844982      0.176235      1.753561
  P      -1.771155     -1.615773     -0.759749
  O      -3.129972     -2.338327     -0.378143
  O      -0.561146     -2.209951     -0.008809
  O       3.150536      0.412942      0.155289
  O       4.030715     -0.164786      2.605528
  C       2.001086      1.774162      2.151781
  C      -1.648896     -1.880278     -2.559725
  C      -1.824315     -3.381759     -2.874014
  C      -0.243723     -1.426715     -2.991579
  C      -2.742165     -1.030079     -3.236375
  C       0.704800      1.803313      1.351059
  C       1.735661      1.796866      3.649759
  C       2.874105      2.962330      1.744484
  H      -3.270191     -2.249643      0.587289
  H       3.310726     -0.448009     -0.305553
  H      -1.077772     -4.000923     -2.345993
  H      -1.678456     -3.544520     -3.955214
  H      -2.829003     -3.737126     -2.602858
  H       0.537850     -2.054051     -2.524772
  H      -0.026510     -0.368368     -2.740657
  H      -0.168126     -1.542570     -4.094013
  H      -3.753422     -1.355491     -2.933521
  H      -2.659753     -1.142231     -4.333237
  H      -2.637441      0.044420     -2.986452
  H      -0.115314      1.025118      1.808682
  H       0.907058      1.837937      0.270327
  H       0.063961      2.675398      1.624698
  H       1.089217      0.965030      3.937941
  H       1.247500      2.744113      3.946262
  H       2.673560      1.696301      4.207128
  H       3.076826      2.949821      0.668669
  H       3.833759      2.923129      2.271549
  H       2.393913      3.927142      2.003816
  Si      4.192101     -3.059168     -0.459340
  C       5.625407     -2.476849      0.596145
  C       2.888609     -3.920367      0.581055
  C       4.760748     -4.127057     -1.917329
  H       5.258443     -1.814431      1.409295
  H       6.370833     -1.914508      0.006671
  H       6.143223     -3.346334      1.048687
  H       1.999572     -4.202299     -0.013057
  H       2.546437     -3.227395      1.375601
  H       3.304636     -4.832789      1.052575
  H       3.901581     -4.420609     -2.551253
  H       5.252109     -5.057044     -1.559338
  H       5.485380     -3.583282     -2.555364
  H       3.528155     -1.830281     -1.089954
51
Coordinates from ORCA-job my_molecule E -1977.866163944851
  Pt     -0.006762     -0.348794      0.841855
  O       1.650265     -0.905670      1.847917
  O      -1.776957     -0.090018     -0.320697
  P       2.851484      0.170077      1.781432
  P      -1.756062     -1.606544     -0.756372
  O      -3.146971     -2.363139     -0.361971
  O      -0.513217     -2.200897      0.034831
  O       3.200476      0.415542      0.178652
  O       4.030020     -0.186376      2.659010
  C       2.003439      1.788609      2.159238
  C      -1.651052     -1.888969     -2.569100
  C      -1.835749     -3.394526     -2.859489
  C      -0.244811     -1.429718     -3.018668
  C      -2.757959     -1.044701     -3.244764
  C       0.712658      1.817827      1.336657
  C       1.707145      1.820176      3.669044
  C       2.899442      2.969689      1.755604
  H      -3.328187     -2.269114      0.601960
  H       3.349844     -0.447826     -0.281604
  H      -1.076702     -4.008134     -2.327373
  H      -1.708598     -3.568147     -3.948710
  H      -2.843743     -3.749903     -2.566292
  H       0.548232     -2.053559     -2.559444
  H      -0.043720     -0.369848     -2.760585
  H      -0.170949     -1.533736     -4.122531
  H      -3.771133     -1.365886     -2.923774
  H      -2.690781     -1.169490     -4.346908
  H      -2.644205      0.033942     -3.011508
  H      -0.115678      1.043935      1.805565
  H       0.902027      1.852234      0.250937
  H       0.055014      2.680446      1.597382
  H       1.038761      0.993112      3.968536
  H       1.223094      2.782286      3.950587
  H       2.643154      1.711408      4.245648
  H       3.136134      2.949291      0.673780
  H       3.854179      2.920833      2.313138
  H       2.407490      3.940758      1.997365
  Si      4.200867     -3.066800     -0.475629
  C       5.640993     -2.486959      0.596358
  C       2.879821     -3.935070      0.561281
  C       4.775029     -4.122322     -1.944256
  H       5.271328     -1.832466      1.416677
  H       6.389364     -1.918018      0.008396
  H       6.157307     -3.359191      1.048132
  H       1.992985     -4.222026     -0.046068
  H       2.525100     -3.246323      1.357773
  H       3.293250     -4.848075      1.040632
  H       3.917032     -4.412224     -2.587562
  H       5.264195     -5.054291     -1.590824
  H       5.506608     -3.573927     -2.574864
  H       3.542433     -1.830007     -1.097582
51
Coordinates from ORCA-job my_molecule E -1977.832425878202
  Pt     -0.050822     -0.312531      0.853970
  O       1.605200     -0.876185      1.862739
  O      -1.812277     -0.081067     -0.316795
  P       2.823340      0.193202      1.773316
  P      -1.775448     -1.609695     -0.733267
  O      -3.163166     -2.383197     -0.374284
  O      -0.540588     -2.191698      0.103495
  O       3.126781      0.434291      0.173220
  O       4.012149     -0.144252      2.603714
  C       2.002821      1.814965      2.156438
  C      -1.656259     -1.898038     -2.553427
  C      -1.889688     -3.391627     -2.847909
  C      -0.237924     -1.469021     -2.976491
  C      -2.705151     -1.025419     -3.240778
  C       0.693179      1.845469      1.303858
  C       1.692303      1.811787      3.681398
  C       2.949117      2.991192      1.772100
  H      -3.348193     -2.312205      0.430000
  H       3.263808     -0.419207     -0.305877
  H      -1.187119     -4.024682     -2.299550
  H      -1.743395     -3.577546     -3.926128
  H      -2.903471     -3.707851     -2.586874
  H       0.533845     -2.114427     -2.510251
  H      -0.027395     -0.415974     -2.696257
  H      -0.146832     -1.547625     -4.076464
  H      -3.723390     -1.305712     -2.946149
  H      -2.622571     -1.158154     -4.331031
  H      -2.553387      0.043892     -3.004635
  H      -0.195744      1.044901      1.812380
  H       0.856662      1.891723      0.182419
  H       0.052741      2.713078      1.556197
  H       0.986900      0.971974      3.982328
  H       1.223854      2.772766      3.964692
  H       2.645329      1.688753      4.278196
  H       3.188857      3.003758      0.696927
  H       3.919120      2.922339      2.330844
  H       2.476589      3.932338      2.034702
  Si      4.213029     -3.086890     -0.483872
  C       5.650007     -2.480890      0.561540
  C       2.939564     -3.975333      0.565486
  C       4.790984     -4.129426     -1.948361
  H       5.275350     -1.831056      1.374481
  H       6.374197     -1.902002     -0.035669
  H       6.183643     -3.337836      1.018359
  H       2.064624     -4.281559     -0.027163
  H       2.580271     -3.300884      1.364220
  H       3.373607     -4.881137      1.031030
  H       3.942289     -4.428154     -2.586464
  H       5.299306     -5.052289     -1.603930
  H       5.504820     -3.571052     -2.575028
  H       3.524470     -1.864338     -1.079585
51
Coordinates from ORCA-job my_molecule E -1977.861478424517
  Pt     -0.052577     -0.312955      0.848323
  O       1.605733     -0.877003      1.853046
  O      -1.816452     -0.088214     -0.321233
  P       2.820589      0.196461      1.766530
  P      -1.772466     -1.612613     -0.743554
  O      -3.152423     -2.389466     -0.380865
  O      -0.540440     -2.192629      0.088624
  O       3.116004      0.438182      0.168636
  O       4.009707     -0.135343      2.590028
  C       2.000993      1.812852      2.155440
  C      -1.650817     -1.898098     -2.562379
  C      -1.882372     -3.390497     -2.858443
  C      -0.235531     -1.467866     -2.980991
  C      -2.697358     -1.022980     -3.250134
  C       0.692085      1.844804      1.304980
  C       1.695606      1.799270      3.675441
  C       2.943920      2.992503      1.777465
  H      -3.361215     -2.300990      0.579827
  H       3.255557     -0.415694     -0.310505
  H      -1.180669     -4.025824     -2.309275
  H      -1.732439     -3.574581     -3.937945
  H      -2.897284     -3.706487     -2.598006
  H       0.534537     -2.114417     -2.514595
  H      -0.025036     -0.415717     -2.698510
  H      -0.144133     -1.546002     -4.080225
  H      -3.715197     -1.302173     -2.957361
  H      -2.612744     -1.153344     -4.341587
  H      -2.547437      0.045277     -3.010667
  H      -0.196553      1.044311      1.810467
  H       0.853134      1.897030      0.182693
  H       0.060509      2.724060      1.563521
  H       0.994192      0.956849      3.967050
  H       1.227634      2.756313      3.966972
  H       2.646864      1.674056      4.267213
  H       3.180800      3.008911      0.701096
  H       3.912031      2.922743      2.334637
  H       2.471471      3.934879      2.044031
  Si      4.209868     -3.086748     -0.481664
  C       5.648530     -2.479765      0.560397
  C       2.937337     -3.970172      0.569995
  C       4.786642     -4.134555     -1.943380
  H       5.273874     -1.825412      1.371263
  H       6.373141     -1.903966     -0.041391
  H       6.184441     -3.335546      1.022444
  H       2.062752     -4.275676     -0.022250
  H       2.578262     -3.294026      1.367113
  H       3.369818     -4.876194      1.037210
  H       3.936691     -4.433966     -2.581063
  H       5.294489     -5.057235     -1.594843
  H       5.502129     -3.579391     -2.572406
  H       3.519736     -1.865488     -1.079362
51
Coordinates from ORCA-job my_molecule E -1977.857241608122
  Pt      0.001478     -0.340368      0.856053
  O       1.667331     -0.892923      1.843389
  O      -1.772622     -0.091422     -0.287677
  P       2.851374      0.188553      1.755344
  P      -1.738721     -1.603954     -0.737831
  O      -3.122825     -2.389942     -0.356665
  O      -0.495731     -2.187598      0.057951
  O       3.181249      0.437586      0.142988
  O       4.050008     -0.171146      2.643276
  C       1.982330      1.795103      2.143299
  C      -1.639866     -1.866155     -2.555118
  C      -1.845092     -3.367000     -2.860689
  C      -0.220451     -1.427268     -3.010597
  C      -2.764640     -1.002494     -3.213922
  C       0.721350      1.820605      1.330346
  C       1.672644      1.816607      3.625940
  C       2.857962      2.968572      1.761704
  H      -3.311837     -2.308073      0.604807
  H       3.331465     -0.417015     -0.326310
  H      -1.069949     -3.994893     -2.332246
  H      -1.728347     -3.526957     -3.961274
  H      -2.870799     -3.726269     -2.549541
  H       0.560936     -2.066047     -2.554834
  H      -0.001686     -0.376752     -2.744286
  H      -0.144417     -1.526317     -4.117525
  H      -3.793795     -1.329392     -2.867522
  H      -2.718819     -1.116916     -4.331794
  H      -2.638792      0.076845     -2.981020
  H      -0.100722      1.071259      1.795780
  H       0.909143      1.869293      0.290288
  H       0.046773      2.667929      1.582226
  H       1.030136      1.000394      3.897005
  H       1.180187      2.767920      3.920439
  H       2.586517      1.709867      4.183595
  H       3.100792      2.938370      0.678650
  H       3.792807      2.916430      2.318698
  H       2.346909      3.967959      1.994647
  Si      4.216595     -3.092622     -0.476561
  C       5.664589     -2.507516      0.606245
  C       2.887547     -3.972267      0.568753
  C       4.794959     -4.149863     -1.947618
  H       5.285036     -1.849807      1.426303
  H       6.423785     -1.935643      0.015281
  H       6.183413     -3.376014      1.069448
  H       1.994661     -4.267382     -0.047098
  H       2.527405     -3.284749      1.370339
  H       3.305055     -4.885381      1.052086
  H       3.934547     -4.439553     -2.600476
  H       5.279185     -5.084630     -1.589988
  H       5.538562     -3.596445     -2.577623
  H       3.558312     -1.855049     -1.104854
51
Coordinates from ORCA-job my_molecule E -1977.863626483066
  Pt     -0.001058     -0.357360      0.853450
  O       1.662165     -0.910106      1.852533
  O      -1.775919     -0.107250     -0.300140
  P       2.855587      0.170575      1.786444
  P      -1.749244     -1.617176     -0.740627
  O      -3.131101     -2.377078     -0.347869
  O      -0.517593     -2.210032      0.039978
  O       3.200767      0.422453      0.179155
  O       4.040597     -0.184494      2.667790
  C       1.986726      1.794727      2.157004
  C      -1.638272     -1.878069     -2.553153
  C      -1.831229     -3.371910     -2.866132
  C      -0.229367     -1.429945     -3.000315
  C      -2.738836     -1.015746     -3.212979
  C       0.698235      1.818958      1.305611
  C       1.665214      1.843275      3.685981
  C       2.878631      2.979568      1.741664
  H      -3.313729     -2.282381      0.612947
  H       3.356445     -0.437156     -0.282104
  H      -1.077956     -4.001988     -2.343433
  H      -1.702701     -3.532657     -3.957066
  H      -2.840697     -3.717665     -2.574677
  H       0.559166     -2.061559     -2.547824
  H      -0.024929     -0.376122     -2.732506
  H      -0.153468     -1.525623     -4.105626
  H      -3.752930     -1.331820     -2.897010
  H      -2.669927     -1.126492     -4.315100
  H      -2.621860      0.056199     -2.963006
  H      -0.147188      1.042303      1.790864
  H       0.906173      1.836214      0.197635
  H       0.019985      2.691811      1.547871
  H       0.991937      1.017326      3.993519
  H       1.166491      2.820733      3.951344
  H       2.600173      1.734412      4.283875
  H       3.128237      2.940626      0.639729
  H       3.835374      2.934270      2.320819
  H       2.364036      3.971503      1.964855
  Si      4.209201     -3.089392     -0.482652
  C       5.657523     -2.508379      0.577307
  C       2.897428     -3.960962      0.562143
  C       4.769306     -4.145469     -1.957668
  H       5.298693     -1.853232      1.399370
  H       6.399763     -1.939532     -0.015940
  H       6.174140     -3.378585      1.021375
  H       2.008736     -4.250305     -0.039687
  H       2.548062     -3.274798      1.362711
  H       3.313607     -4.873965      1.034764
  H       3.907714     -4.433175     -2.595945
  H       5.255979     -5.080289     -1.611179
  H       5.496996     -3.596255     -2.592155
  H       3.550849     -1.850521     -1.094132
51
Coordinates from ORCA-job my_molecule E -1977.861242293694
  Pt     -0.031071     -0.329219      0.822183
  O       1.626543     -0.884091      1.827934
  O      -1.803822     -0.084220     -0.342035
  P       2.837764      0.187892      1.763393
  P      -1.768837     -1.610881     -0.766872
  O      -3.167334     -2.383639     -0.380251
  O      -0.510413     -2.198052      0.048512
  O       3.170075      0.443348      0.177203
  O       4.008980     -0.151133      2.598793
  C       2.017303      1.793028      2.162139
  C      -1.659171     -1.903447     -2.578858
  C      -1.855163     -3.408598     -2.860679
  C      -0.258922     -1.444813     -3.015592
  C      -2.736170     -1.060466     -3.268632
  C       0.712998      1.825968      1.342629
  C       1.740298      1.789385      3.665268
  C       2.928829      2.981421      1.787180
  H      -3.372208     -2.289196      0.574958
  H       3.323380     -0.414199     -0.291286
  H      -1.118099     -4.022550     -2.323286
  H      -1.719508     -3.590821     -3.942666
  H      -2.859942     -3.751042     -2.584322
  H       0.530785     -2.062442     -2.544148
  H      -0.065624     -0.379364     -2.761725
  H      -0.179536     -1.552588     -4.113647
  H      -3.742514     -1.362651     -2.966911
  H      -2.654762     -1.195372     -4.358146
  H      -2.610739      0.015720     -3.038311
  H      -0.120717      1.050522      1.811070
  H       0.880758      1.880791      0.241891
  H       0.074334      2.675355      1.609963
  H       1.058240      0.945000      3.961286
  H       1.273226      2.733257      3.964057
  H       2.690281      1.677310      4.236895
  H       3.152265      3.005919      0.737279
  H       3.891976      2.927288      2.327485
  H       2.467137      3.897530      2.065911
  Si      4.193760     -3.058281     -0.470772
  C       5.636365     -2.467663      0.581052
  C       2.891110     -3.916893      0.576598
  C       4.764730     -4.124099     -1.923919
  H       5.273316     -1.803821      1.391986
  H       6.374430     -1.907718     -0.021427
  H       6.158897     -3.335232      1.045120
  H       2.013075     -4.210646     -0.018875
  H       2.538094     -3.226911      1.365762
  H       3.308098     -4.825334      1.057645
  H       3.909958     -4.419388     -2.556081
  H       5.259244     -5.050017     -1.563631
  H       5.486269     -3.586344     -2.558712
  H       3.527970     -1.831134     -1.091598
51
Coordinates from ORCA-job my_molecule E -1977.865214914453
  Pt     -0.020135     -0.325435      0.835428
  O       1.639439     -0.887018      1.842746
  O      -1.786870     -0.085982     -0.327455
  P       2.845569      0.192315      1.778982
  P      -1.754187     -1.605054     -0.762439
  O      -3.131148     -2.377055     -0.391442
  O      -0.510305     -2.186649      0.047977
  O       3.182788      0.441287      0.176302
  O       4.027275     -0.150510      2.637318
  C       2.005661      1.802159      2.170386
  C      -1.653205     -1.893464     -2.578786
  C      -1.851073     -3.401479     -2.859087
  C      -0.247822     -1.437168     -3.029033
  C      -2.753354     -1.050158     -3.255824
  C       0.719843      1.816126      1.343731
  C       1.717784      1.808840      3.670737
  C       2.907039      3.000079      1.785262
  H      -3.316534     -2.287445      0.566240
  H       3.338389     -0.426872     -0.282396
  H      -1.102165     -4.013476     -2.319068
  H      -1.723975     -3.584741     -3.947739
  H      -2.862242     -3.752050     -2.566576
  H       0.546445     -2.059325     -2.567524
  H      -0.053102     -0.375475     -2.769654
  H      -0.172207     -1.538864     -4.130138
  H      -3.768483     -1.363811     -2.924236
  H      -2.695226     -1.183513     -4.360278
  H      -2.624218      0.028918     -3.033450
  H      -0.128091      1.020678      1.840675
  H       0.879377      1.859062      0.253579
  H       0.081378      2.686144      1.599644
  H       1.052130      0.964092      3.956815
  H       1.244167      2.757264      3.965725
  H       2.652211      1.706071      4.242267
  H       3.168592      2.981131      0.694004
  H       3.851834      2.957053      2.373460
  H       2.397669      3.977038      2.015580
  Si      4.199006     -3.075443     -0.477377
  C       5.651413     -2.489309      0.582687
  C       2.883892     -3.938175      0.571586
  C       4.766948     -4.139881     -1.941424
  H       5.286079     -1.822216      1.398949
  H       6.398602     -1.929118     -0.021953
  H       6.172764     -3.357758      1.050708
  H       1.999214     -4.230500     -0.034062
  H       2.527832     -3.250956      1.366824
  H       3.297544     -4.850589      1.053269
  H       3.906374     -4.430030     -2.584034
  H       5.253676     -5.071167     -1.582062
  H       5.502197     -3.597698     -2.574958
  H       3.537143     -1.842407     -1.098079
51
Coordinates from ORCA-job my_molecule E -1977.865062636005
  Pt     -0.000848     -0.347853      0.846974
  O       1.658841     -0.903117      1.838345
  O      -1.776602     -0.099467     -0.302044
  P       2.854207      0.175068      1.776422
  P      -1.746637     -1.612849     -0.742495
  O      -3.131398     -2.384358     -0.344184
  O      -0.507420     -2.202136      0.044018
  O       3.209084      0.432485      0.174346
  O       4.034784     -0.188964      2.673013
  C       1.991094      1.793031      2.148968
  C      -1.645371     -1.881933     -2.557616
  C      -1.835844     -3.380872     -2.857141
  C      -0.240635     -1.422569     -3.010009
  C      -2.754506     -1.029968     -3.222004
  C       0.706922      1.837586      1.297332
  C       1.656950      1.815059      3.663444
  C       2.899914      2.962941      1.767076
  H      -3.317076     -2.300264      0.614971
  H       3.367866     -0.422516     -0.285263
  H      -1.080371     -4.001672     -2.329113
  H      -1.709791     -3.550098     -3.946500
  H      -2.844476     -3.731600     -2.563049
  H       0.553030     -2.046449     -2.555337
  H      -0.043391     -0.366365     -2.747367
  H      -0.167611     -1.522923     -4.115079
  H      -3.768915     -1.348082     -2.896134
  H      -2.694652     -1.149702     -4.325906
  H      -2.635893      0.044884     -2.983303
  H      -0.150252      1.078506      1.751139
  H       0.918549      1.879393      0.213430
  H       0.034667      2.707044      1.545762
  H       0.977491      0.996849      3.949942
  H       1.165361      2.786994      3.939334
  H       2.588521      1.693404      4.261409
  H       3.154623      2.948917      0.693982
  H       3.847086      2.907680      2.338236
  H       2.399980      3.930477      2.008822
  Si      4.211230     -3.080088     -0.479285
  C       5.658648     -2.501940      0.575105
  C       2.900963     -3.940666      0.566630
  C       4.769805     -4.144641     -1.942886
  H       5.304425     -1.842836      1.392395
  H       6.400123     -1.940888     -0.023300
  H       6.172829     -3.370821      1.021435
  H       2.014512     -4.229882     -0.034843
  H       2.549647     -3.250459      1.362431
  H       3.315223     -4.852489      1.042655
  H       3.909150     -4.430463     -2.580107
  H       5.253297     -5.079157     -1.587908
  H       5.501266     -3.604194     -2.578526
  H       3.557536     -1.840568     -1.096406
51
Coordinates from ORCA-job my_molecule E -1977.866074525694
  Pt     -0.010572     -0.353565      0.845079
  O       1.647510     -0.903800      1.845541
  O      -1.788610     -0.102969     -0.312048
  P       2.843526      0.175644      1.770646
  P      -1.753115     -1.618996     -0.752663
  O      -3.141154     -2.393679     -0.358196
  O      -0.504292     -2.207220      0.038518
  O       3.164712      0.423608      0.174815
  O       4.028002     -0.170151      2.617810
  C       1.998754      1.792509      2.156565
  C      -1.645761     -1.886453     -2.566113
  C      -1.837226     -3.381779     -2.870505
  C      -0.243686     -1.430658     -3.009901
  C      -2.735825     -1.029295     -3.232490
  C       0.705012      1.815529      1.332376
  C       1.706421      1.819021      3.671582
  C       2.891686      2.978204      1.750145
  H      -3.334640     -2.306491      0.598266
  H       3.333897     -0.428247     -0.291401
  H      -1.081176     -4.007787     -2.349387
  H      -1.713140     -3.543243     -3.963197
  H      -2.846342     -3.730347     -2.573527
  H       0.547837     -2.055086     -2.552211
  H      -0.049495     -0.373268     -2.746330
  H      -0.166082     -1.529612     -4.112036
  H      -3.744869     -1.340677     -2.926896
  H      -2.657790     -1.143827     -4.326844
  H      -2.620425      0.042427     -2.983497
  H      -0.120606      1.044749      1.803405
  H       0.887197      1.857932      0.241558
  H       0.046359      2.677220      1.589036
  H       1.036041      0.990034      3.976976
  H       1.228254      2.786820      3.957349
  H       2.644991      1.706796      4.241860
  H       3.137428      2.953520      0.664376
  H       3.842126      2.936246      2.317183
  H       2.391371      3.949478      1.987850
  Si      4.200383     -3.072672     -0.472820
  C       5.648562     -2.490905      0.589227
  C       2.887361     -3.938747      0.570276
  C       4.768604     -4.137680     -1.937601
  H       5.287794     -1.823094      1.400661
  H       6.399877     -1.938309     -0.013483
  H       6.162380     -3.359808      1.055654
  H       2.001851     -4.224603     -0.032726
  H       2.538085     -3.253314      1.369869
  H       3.298839     -4.853807      1.042422
  H       3.909711     -4.431508     -2.574825
  H       5.257383     -5.067770     -1.581517
  H       5.497012     -3.594543     -2.573532
  H       3.541772     -1.838361     -1.093487
51
Coordinates from ORCA-job my_molecule E -1977.865957716113
  Pt     -0.013463     -0.329935      0.827166
  O       1.646046     -0.885562      1.838347
  O      -1.780505     -0.088713     -0.334257
  P       2.851143      0.192461      1.775673
  P      -1.750001     -1.607391     -0.763172
  O      -3.127513     -2.374973     -0.382179
  O      -0.504229     -2.190646      0.038824
  O       3.190792      0.443995      0.173940
  O       4.032286     -0.156714      2.638693
  C       2.007189      1.802156      2.167890
  C      -1.654859     -1.895333     -2.578755
  C      -1.846594     -3.403892     -2.859358
  C      -0.251425     -1.431815     -3.033568
  C      -2.767521     -1.058091     -3.252592
  C       0.716463      1.825316      1.335511
  C       1.710413      1.805293      3.673717
  C       2.910918      2.995940      1.788619
  H      -3.312978     -2.277712      0.574825
  H       3.357694     -0.420277     -0.286847
  H      -1.090561     -4.014604     -2.327795
  H      -1.726636     -3.584096     -3.948369
  H      -2.852662     -3.757755     -2.561429
  H       0.546956     -2.046546     -2.569854
  H      -0.061705     -0.366887     -2.781571
  H      -0.177419     -1.540310     -4.135115
  H      -3.781814     -1.384197     -2.916497
  H      -2.712973     -1.185972     -4.359703
  H      -2.649837      0.023328     -3.028254
  H      -0.127229      1.033593      1.813513
  H       0.892157      1.873508      0.239401
  H       0.067285      2.687122      1.594129
  H       1.037005      0.964044      3.959395
  H       1.233671      2.754307      3.967985
  H       2.649474      1.694608      4.252709
  H       3.157663      2.996348      0.715517
  H       3.862142      2.950246      2.356339
  H       2.420116      3.946737      2.040649
  Si      4.201393     -3.070557     -0.474263
  C       5.655140     -2.492919      0.588864
  C       2.879159     -3.929537      0.570348
  C       4.766573     -4.139612     -1.936473
  H       5.296324     -1.822126      1.403326
  H       6.408018     -1.941297     -0.016129
  H       6.167887     -3.363982      1.056915
  H       1.992595     -4.213993     -0.037519
  H       2.527463     -3.242297      1.367514
  H       3.286045     -4.846878      1.049486
  H       3.905595     -4.429985     -2.576125
  H       5.250795     -5.071616     -1.576303
  H       5.500811     -3.600933     -2.572306
  H       3.548648     -1.834378     -1.099049
51
Coordinates from ORCA-job my_molecule E -1977.865866647631
  Pt     -0.008295     -0.337571      0.826758
  O       1.651983     -0.889046      1.830947
  O      -1.779333     -0.091028     -0.327387
  P       2.851855      0.189967      1.770472
  P      -1.750156     -1.609276     -0.760040
  O      -3.136042     -2.378021     -0.373902
  O      -0.502798     -2.198063      0.038810
  O       3.199101      0.449168      0.171857
  O       4.031981     -0.163344      2.645003
  C       2.002046      1.795575      2.161985
  C      -1.651421     -1.893617     -2.573225
  C      -1.840342     -3.398063     -2.862241
  C      -0.251015     -1.427858     -3.022930
  C      -2.754237     -1.054300     -3.247202
  C       0.711407      1.830012      1.330178
  C       1.695911      1.792653      3.664212
  C       2.908971      2.978454      1.790565
  H      -3.330779     -2.277580      0.581330
  H       3.369061     -0.409462     -0.289951
  H      -1.100830     -4.008937     -2.327289
  H      -1.705246     -3.580520     -3.941126
  H      -2.841405     -3.745514     -2.585570
  H       0.545281     -2.040562     -2.557869
  H      -0.061415     -0.363908     -2.772345
  H      -0.176627     -1.539186     -4.124207
  H      -3.764891     -1.375740     -2.926149
  H      -2.689256     -1.180804     -4.347745
  H      -2.637847      0.023159     -3.014631
  H      -0.128996      1.054439      1.785535
  H       0.896525      1.890708      0.248510
  H       0.054563      2.682470      1.593393
  H       1.024061      0.957586      3.942489
  H       1.211886      2.738151      3.960315
  H       2.634370      1.679607      4.245416
  H       3.179011      2.968130      0.709744
  H       3.858024      2.927546      2.381523
  H       2.394659      3.942196      2.025492
  Si      4.199013     -3.068215     -0.471942
  C       5.653685     -2.489466      0.562677
  C       2.897536     -3.915100      0.584779
  C       4.747239     -4.146628     -1.924033
  H       5.311100     -1.820963      1.376475
  H       6.388461     -1.937487     -0.045889
  H       6.168202     -3.358769      1.011423
  H       2.010516     -4.202164     -0.006686
  H       2.553361     -3.220801      1.377013
  H       3.310976     -4.826937      1.061407
  H       3.883825     -4.434370     -2.552316
  H       5.231032     -5.078008     -1.561623
  H       5.475135     -3.618255     -2.566628
  H       3.546090     -1.832789     -1.093571
51
Coordinates from ORCA-job my_molecule E -1977.866361044479
  Pt     -0.006578     -0.344699      0.837573
  O       1.652134     -0.900807      1.835160
  O      -1.782396     -0.096194     -0.315011
  P       2.848484      0.180545      1.773539
  P      -1.749796     -1.613113     -0.754117
  O      -3.135744     -2.386649     -0.358574
  O      -0.504194     -2.200223      0.037600
  O       3.192228      0.436700      0.176141
  O       4.028057     -0.169394      2.643036
  C       1.996952      1.794347      2.158095
  C      -1.649078     -1.888349     -2.569048
  C      -1.831253     -3.388643     -2.864164
  C      -0.250787     -1.421877     -3.021261
  C      -2.750546     -1.042183     -3.235107
  C       0.709312      1.826449      1.323269
  C       1.689216      1.808638      3.669842
  C       2.898389      2.977453      1.772758
  H      -3.330737     -2.292560      0.596652
  H       3.365155     -0.417977     -0.283768
  H      -1.071272     -4.002738     -2.331872
  H      -1.702558     -3.560385     -3.955034
  H      -2.840618     -3.746505     -2.567120
  H       0.546925     -2.037510     -2.562812
  H      -0.063746     -0.361989     -2.763241
  H      -0.176639     -1.526040     -4.123980
  H      -3.758056     -1.357724     -2.920107
  H      -2.680729     -1.163996     -4.332933
  H      -2.635108      0.031248     -2.995451
  H      -0.132708      1.055936      1.787410
  H       0.897193      1.873553      0.233544
  H       0.050122      2.699300      1.578665
  H       1.019292      0.979292      3.958824
  H       1.201399      2.773000      3.956592
  H       2.622555      1.697137      4.252339
  H       3.155372      2.961642      0.694739
  H       3.841613      2.929808      2.347829
  H       2.396063      3.946400      2.011626
  Si      4.203064     -3.075527     -0.474250
  C       5.658642     -2.498601      0.572699
  C       2.893907     -3.930591      0.575718
  C       4.757404     -4.147752     -1.934239
  H       5.310139     -1.830686      1.388173
  H       6.402289     -1.944099     -0.034010
  H       6.172086     -3.369248      1.027867
  H       2.006788     -4.216238     -0.024409
  H       2.545395     -3.240642      1.371889
  H       3.304728     -4.844825      1.050516
  H       3.893925     -4.435072     -2.568653
  H       5.240241     -5.080438     -1.574447
  H       5.489870     -3.613236     -2.573604
  H       3.549536     -1.837470     -1.093072
51
Coordinates from ORCA-job my_molecule E -1977.866214532117
  Pt     -0.005189     -0.340469      0.827766
  O       1.650545     -0.895980      1.835175
  O      -1.774138     -0.092220     -0.329034
  P       2.850529      0.180239      1.775471
  P      -1.750295     -1.608478     -0.758196
  O      -3.135280     -2.368530     -0.367818
  O      -0.509310     -2.200083      0.034306
  O       3.196258      0.436265      0.180925
  O       4.026167     -0.169191      2.639253
  C       2.003614      1.795136      2.159967
  C      -1.657948     -1.891312     -2.573262
  C      -1.839167     -3.396614     -2.858393
  C      -0.258895     -1.419962     -3.032109
  C      -2.777041     -1.056066     -3.240522
  C       0.713569      1.827543      1.324594
  C       1.694391      1.806911      3.674048
  C       2.913201      2.979901      1.773482
  H      -3.324486     -2.261954      0.587741
  H       3.370596     -0.417025     -0.282651
  H      -1.084480     -4.005028     -2.321162
  H      -1.708807     -3.576778     -3.944545
  H      -2.844881     -3.754215     -2.566406
  H       0.543462     -2.030970     -2.571198
  H      -0.075230     -0.356330     -2.779613
  H      -0.185765     -1.526861     -4.134401
  H      -3.787959     -1.385059     -2.905392
  H      -2.722911     -1.181488     -4.345489
  H      -2.664201      0.024100     -3.013537
  H      -0.127598      1.050192      1.785558
  H       0.897664      1.884705      0.234753
  H       0.060653      2.679473      1.584140
  H       1.012569      0.974319      3.968583
  H       1.212869      2.770448      3.959259
  H       2.630752      1.689674      4.257096
  H       3.173009      2.970091      0.697414
  H       3.859044      2.930873      2.349063
  H       2.418000      3.940264      2.014833
  Si      4.208025     -3.070064     -0.473815
  C       5.663947     -2.495437      0.597896
  C       2.883072     -3.934811      0.567361
  C       4.775981     -4.136767     -1.940257
  H       5.304213     -1.828330      1.415787
  H       6.423595     -1.939234     -0.003816
  H       6.174298     -3.369148      1.066971
  H       1.997134     -4.221217     -0.044266
  H       2.529034     -3.248533      1.365887
  H       3.289996     -4.851659      1.045263
  H       3.914932     -4.426201     -2.581759
  H       5.258651     -5.069467     -1.582565
  H       5.512258     -3.595779     -2.574642
  H       3.557488     -1.831409     -1.095933
51
Coordinates from ORCA-job my_molecule E -1977.866397095275
  Pt     -0.009171     -0.332390      0.825897
  O       1.649681     -0.889588      1.832644
  O      -1.781321     -0.088551     -0.331859
  P       2.853217      0.190133      1.777483
  P      -1.748909     -1.608189     -0.764090
  O      -3.129498     -2.380819     -0.374045
  O      -0.498502     -2.189892      0.034101
  O       3.201778      0.446477      0.179020
  O       4.030580     -0.160727      2.647499
  C       2.004131      1.799298      2.167139
  C      -1.654324     -1.892606     -2.579033
  C      -1.833426     -3.399034     -2.863060
  C      -0.257598     -1.421448     -3.037105
  C      -2.768552     -1.058521     -3.247551
  C       0.717680      1.823606      1.332281
  C       1.704604      1.801511      3.670681
  C       2.902395      2.992621      1.791443
  H      -3.322144     -2.281380      0.580948
  H       3.378060     -0.416053     -0.279751
  H      -1.080176     -4.007125     -2.327622
  H      -1.703332     -3.579743     -3.949721
  H      -2.836315     -3.754512     -2.572402
  H       0.545372     -2.029532     -2.574944
  H      -0.076214     -0.356403     -2.786231
  H      -0.185251     -1.531416     -4.138534
  H      -3.777593     -1.387353     -2.917386
  H      -2.708548     -1.183550     -4.350522
  H      -2.659440      0.021470     -3.017549
  H      -0.123675      1.040474      1.807289
  H       0.896866      1.867961      0.234831
  H       0.064154      2.696090      1.586107
  H       1.037989      0.961361      3.949498
  H       1.221814      2.747703      3.967439
  H       2.639425      1.693378      4.249111
  H       3.156614      2.985816      0.717529
  H       3.846973      2.950445      2.368081
  H       2.403357      3.949349      2.035299
  Si      4.200918     -3.072564     -0.471680
  C       5.660221     -2.497569      0.574787
  C       2.886241     -3.921639      0.579805
  C       4.754019     -4.149907     -1.929390
  H       5.313816     -1.824202      1.389458
  H       6.404073     -1.949217     -0.035480
  H       6.172885     -3.369054      1.034838
  H       1.999133     -4.205636     -0.021478
  H       2.537830     -3.230303      1.374081
  H       3.293605     -4.837311      1.058372
  H       3.890044     -4.436425     -2.563931
  H       5.233972     -5.083299     -1.566492
  H       5.487666     -3.620173     -2.569831
  H       3.550807     -1.834093     -1.094169
51
Coordinates from ORCA-job my_molecule E -1977.866318212257
  Pt     -0.003628     -0.339223      0.827411
  O       1.653684     -0.897377      1.832844
  O      -1.775332     -0.090653     -0.328213
  P       2.852983      0.182851      1.776896
  P      -1.749349     -1.607879     -0.760713
  O      -3.133372     -2.373448     -0.366666
  O      -0.503225     -2.196829      0.030603
  O       3.202458      0.442291      0.179872
  O       4.030202     -0.171436      2.653368
  C       2.001261      1.793769      2.161785
  C      -1.654907     -1.891230     -2.573642
  C      -1.830884     -3.396705     -2.859990
  C      -0.260538     -1.417461     -3.029477
  C      -2.760765     -1.057210     -3.242464
  C       0.713553      1.828716      1.323587
  C       1.687574      1.799868      3.669976
  C       2.907737      2.977312      1.784875
  H      -3.324810     -2.271371      0.588770
  H       3.381479     -0.414162     -0.280132
  H      -1.055683     -4.003192     -2.332838
  H      -1.715772     -3.568460     -3.956447
  H      -2.838484     -3.764397     -2.547336
  H       0.542216     -2.024816     -2.568069
  H      -0.079429     -0.353155     -2.779377
  H      -0.188456     -1.528556     -4.130933
  H      -3.765117     -1.379704     -2.925085
  H      -2.692894     -1.183053     -4.339077
  H      -2.650409      0.018830     -3.006990
  H      -0.133289      1.055347      1.781106
  H       0.900247      1.884289      0.239300
  H       0.057482      2.687225      1.583725
  H       1.009967      0.968804      3.953224
  H       1.204071      2.757300      3.959280
  H       2.623033      1.681403      4.255953
  H       3.169543      2.964854      0.706636
  H       3.854592      2.928264      2.366298
  H       2.402748      3.942710      2.021348
  Si      4.202569     -3.070142     -0.471921
  C       5.658794     -2.495577      0.569163
  C       2.892866     -3.918268      0.578264
  C       4.752817     -4.147462     -1.927596
  H       5.316538     -1.823853      1.382037
  H       6.399139     -1.949256     -0.040475
  H       6.169596     -3.365959      1.022945
  H       2.006611     -4.200725     -0.019619
  H       2.547174     -3.226627      1.372635
  H       3.301098     -4.833303      1.052821
  H       3.889859     -4.434587     -2.558003
  H       5.233971     -5.080300     -1.566078
  H       5.482727     -3.618313     -2.568986
  H       3.553687     -1.831673     -1.092784
51
Coordinates from ORCA-job my_molecule E -1977.866367047176
  Pt     -0.001691     -0.344406      0.835113
  O       1.653462     -0.903397      1.837344
  O      -1.776393     -0.092773     -0.319414
  P       2.851315      0.176016      1.779078
  P      -1.748731     -1.609203     -0.756431
  O      -3.134179     -2.379435     -0.355387
  O      -0.501070     -2.197692      0.030802
  O       3.198155      0.432922      0.183382
  O       4.028252     -0.177487      2.650274
  C       1.999603      1.792512      2.159525
  C      -1.655703     -1.887581     -2.570380
  C      -1.831894     -3.390151     -2.859862
  C      -0.261449     -1.414111     -3.031457
  C      -2.767303     -1.051452     -3.234386
  C       0.714328      1.825156      1.321620
  C       1.685304      1.812254      3.672861
  C       2.902204      2.974784      1.771088
  H      -3.325810     -2.282079      0.600361
  H       3.380502     -0.418834     -0.277709
  H      -1.081822     -3.998756     -2.327278
  H      -1.699172     -3.568751     -3.942106
  H      -2.832206     -3.744073     -2.573669
  H       0.543851     -2.021839     -2.573961
  H      -0.081197     -0.351260     -2.780211
  H      -0.191481     -1.523163     -4.134486
  H      -3.772698     -1.374260     -2.909604
  H      -2.705648     -1.175978     -4.334654
  H      -2.656280      0.023799     -2.999387
  H      -0.127944      1.056385      1.784924
  H       0.903876      1.872373      0.235175
  H       0.056056      2.692918      1.575252
  H       1.009735      0.985349      3.965457
  H       1.200066      2.781785      3.955460
  H       2.617501      1.695504      4.257651
  H       3.157186      2.956113      0.692617
  H       3.846140      2.927626      2.342961
  H       2.403365      3.945703      2.007253
  Si      4.208631     -3.072984     -0.473760
  C       5.664107     -2.500227      0.587405
  C       2.887260     -3.931449      0.567910
  C       4.769417     -4.143708     -1.937498
  H       5.312141     -1.828509      1.401142
  H       6.419838     -1.952568     -0.018260
  H       6.171534     -3.372372      1.052925
  H       2.001301     -4.214094     -0.040515
  H       2.536374     -3.243574      1.366114
  H       3.292843     -4.848648      1.042758
  H       3.907491     -4.432059     -2.576158
  H       5.249635     -5.077576     -1.578153
  H       5.505526     -3.606540     -2.574289
  H       3.561606     -1.832744     -1.095628
51
Coordinates from ORCA-job my_molecule E -1977.866298015651
  Pt     -0.004214     -0.334013      0.820984
  O       1.651521     -0.888636      1.826686
  O      -1.777069     -0.087986     -0.334919
  P       2.853737      0.187518      1.775162
  P      -1.747812     -1.606439     -0.765086
  O      -3.130231     -2.373492     -0.368187
  O      -0.498449     -2.192009      0.025807
  O       3.202414      0.444932      0.182698
  O       4.026591     -0.162847      2.638765
  C       2.006993      1.795494      2.164932
  C      -1.658805     -1.890529     -2.580180
  C      -1.830820     -3.398250     -2.859918
  C      -0.263845     -1.412166     -3.044388
  C      -2.790485     -1.065864     -3.246806
  C       0.719348      1.825710      1.325733
  C       1.700195      1.794887      3.669459
  C       2.913153      2.982748      1.792234
  H      -3.321503     -2.270384      0.586668
  H       3.385710     -0.411324     -0.279868
  H      -1.063717     -4.002807     -2.333420
  H      -1.713402     -3.574483     -3.950574
  H      -2.831812     -3.761241     -2.555957
  H       0.543037     -2.014240     -2.581531
  H      -0.087161     -0.345480     -2.797428
  H      -0.193217     -1.524649     -4.146024
  H      -3.799987     -1.407743     -2.903455
  H      -2.740828     -1.190382     -4.354388
  H      -2.689632      0.017325     -3.022687
  H      -0.121199      1.045050      1.795396
  H       0.906916      1.874921      0.226737
  H       0.064401      2.694338      1.577375
  H       1.027256      0.957444      3.947516
  H       1.217292      2.742128      3.965314
  H       2.635071      1.681282      4.250239
  H       3.175540      2.976052      0.718216
  H       3.858447      2.935113      2.373810
  H       2.413274      3.938527      2.033176
  Si      4.205658     -3.067869     -0.468676
  C       5.664194     -2.497047      0.589160
  C       2.884289     -3.918325      0.577233
  C       4.764122     -4.145597     -1.925783
  H       5.314375     -1.822504      1.402535
  H       6.419287     -1.949997     -0.018475
  H       6.171319     -3.371013      1.057868
  H       1.998598     -4.201561     -0.029183
  H       2.533880     -3.227230      1.370876
  H       3.288423     -4.835146      1.057281
  H       3.901416     -4.431498     -2.564573
  H       5.241175     -5.079381     -1.561184
  H       5.502332     -3.615731     -2.563577
  H       3.560157     -1.828136     -1.093783
51
Coordinates from ORCA-job my_molecule E -1977.866457232129
  Pt     -0.005598     -0.332828      0.823684
  O       1.651963     -0.893833      1.835786
  O      -1.776104     -0.087802     -0.335355
  P       2.854641      0.187063      1.785424
  P      -1.747678     -1.606232     -0.766829
  O      -3.127250     -2.374609     -0.380258
  O      -0.499116     -2.190579      0.030205
  O       3.213975      0.447711      0.186712
  O       4.029086     -0.167106      2.664903
  C       2.002707      1.800292      2.169990
  C      -1.655752     -1.895096     -2.579921
  C      -1.825816     -3.403281     -2.862459
  C      -0.264316     -1.414305     -3.040937
  C      -2.769036     -1.069062     -3.248431
  C       0.717781      1.825652      1.334140
  C       1.697662      1.809415      3.678707
  C       2.903638      2.994623      1.789228
  H      -3.312826     -2.273624      0.576506
  H       3.402507     -0.412216     -0.268506
  H      -1.059841     -4.004475     -2.331579
  H      -1.703579     -3.581633     -3.951720
  H      -2.827529     -3.769468     -2.561931
  H       0.544946     -2.015635     -2.580895
  H      -0.090834     -0.347660     -2.793092
  H      -0.194102     -1.526008     -4.142010
  H      -3.771722     -1.404043     -2.929585
  H      -2.699503     -1.192583     -4.344366
  H      -2.670447      0.011105     -3.013763
  H      -0.126218      1.041516      1.798059
  H       0.894491      1.880272      0.244738
  H       0.065342      2.683306      1.595910
  H       1.024081      0.971448      3.966238
  H       1.218080      2.766797      3.969180
  H       2.632127      1.697292      4.259942
  H       3.155887      2.986426      0.714044
  H       3.849040      2.951344      2.360454
  H       2.409196      3.954585      2.031948
  Si      4.199139     -3.073703     -0.472340
  C       5.664128     -2.503009      0.569959
  C       2.882894     -3.920852      0.580532
  C       4.743590     -4.151628     -1.934155
  H       5.325228     -1.827468      1.385841
  H       6.408574     -1.959361     -0.043573
  H       6.173512     -3.375400      1.027089
  H       1.993381     -4.200982     -0.021074
  H       2.538271     -3.229838      1.378013
  H       3.287530     -4.839011      1.055824
  H       3.876641     -4.436636     -2.565389
  H       5.221777     -5.086664     -1.574253
  H       5.476622     -3.622932     -2.577138
  H       3.554760     -1.831820     -1.091688
51
Coordinates from ORCA-job my_molecule E -1977.866509242119
  Pt      0.002767     -0.342036      0.828756
  O       1.657682     -0.899728      1.830276
  O      -1.773205     -0.094315     -0.322856
  P       2.854223      0.181872      1.775804
  P      -1.743227     -1.610543     -0.759013
  O      -3.125251     -2.383077     -0.350714
  O      -0.491611     -2.196695      0.022535
  O       3.200292      0.440962      0.180772
  O       4.031064     -0.171990      2.648673
  C       1.999910      1.792513      2.159476
  C      -1.654694     -1.887507     -2.573591
  C      -1.824447     -3.391198     -2.861720
  C      -0.264033     -1.408046     -3.037034
  C      -2.770457     -1.055626     -3.233877
  C       0.714107      1.827687      1.317984
  C       1.681446      1.800784      3.667951
  C       2.904231      2.974160      1.782457
  H      -3.316733     -2.286327      0.604915
  H       3.391529     -0.410730     -0.279375
  H      -1.057554     -3.995482     -2.334587
  H      -1.703080     -3.566110     -3.951402
  H      -2.825862     -3.755991     -2.557519
  H       0.544078     -2.010006     -2.577766
  H      -0.088476     -0.343122     -2.789031
  H      -0.194945     -1.520680     -4.139399
  H      -3.773572     -1.378114     -2.904484
  H      -2.713777     -1.180796     -4.337217
  H      -2.658972      0.017446     -2.998761
  H      -0.132222      1.058420      1.777551
  H       0.906270      1.878561      0.232282
  H       0.055521      2.693483      1.573595
  H       1.006638      0.971870      3.948946
  H       1.193800      2.760469      3.955688
  H       2.614722      1.682535      4.256883
  H       3.165227      2.959131      0.703866
  H       3.850343      2.924955      2.362886
  H       2.397582      3.942314      2.017145
  Si      4.205198     -3.070688     -0.470840
  C       5.663476     -2.502021      0.578929
  C       2.886948     -3.917125      0.575254
  C       4.756629     -4.150106     -1.927559
  H       5.319532     -1.823616      1.388059
  H       6.415518     -1.965401     -0.032492
  H       6.167806     -3.374046      1.045253
  H       2.000168     -4.194541     -0.027265
  H       2.542065     -3.226405      1.371173
  H       3.289756     -4.835307      1.049033
  H       3.893381     -4.436934     -2.559715
  H       5.234803     -5.083880     -1.564768
  H       5.489331     -3.622015     -2.568808
  H       3.562006     -1.829492     -1.094538
51
Coordinates from ORCA-job my_molecule E -1977.866709848326
  Pt     -0.000744     -0.335233      0.821666
  O       1.652124     -0.896290      1.831905
  O      -1.773396     -0.083878     -0.335183
  P       2.854431      0.180211      1.782967
  P      -1.748923     -1.602360     -0.765393
  O      -3.133018     -2.367417     -0.365487
  O      -0.499718     -2.190218      0.023188
  O       3.210624      0.440294      0.190261
  O       4.025627     -0.175704      2.657352
  C       2.005562      1.793031      2.165871
  C      -1.662158     -1.890389     -2.578629
  C      -1.825926     -3.399615     -2.856286
  C      -0.272589     -1.405241     -3.045939
  C      -2.789740     -1.071530     -3.245675
  C       0.722629      1.827323      1.322979
  C       1.689557      1.801463      3.673029
  C       2.913361      2.976856      1.789636
  H      -3.320208     -2.265467      0.590615
  H       3.400566     -0.413798     -0.269437
  H      -1.056924     -3.997020     -2.326513
  H      -1.705645     -3.579594     -3.944034
  H      -2.824283     -3.768089     -2.553639
  H       0.539181     -2.002991     -2.586252
  H      -0.101225     -0.338135     -2.801092
  H      -0.204792     -1.519378     -4.147743
  H      -3.792591     -1.414434     -2.916108
  H      -2.728916     -1.195839     -4.345300
  H      -2.696143      0.010524     -3.016654
  H      -0.121697      1.053690      1.785680
  H       0.914066      1.876670      0.231982
  H       0.065524      2.694644      1.574151
  H       1.010317      0.970956      3.956657
  H       1.209656      2.761212      3.962025
  H       2.621215      1.681232      4.257139
  H       3.175646      2.964730      0.713913
  H       3.856935      2.926646      2.368641
  H       2.414677      3.941396      2.026615
  Si      4.207360     -3.068500     -0.469901
  C       5.665957     -2.499398      0.584724
  C       2.886024     -3.919008      0.573858
  C       4.762456     -4.144778     -1.929456
  H       5.320840     -1.823825      1.396914
  H       6.419377     -1.957047     -0.024096
  H       6.170602     -3.372552      1.049561
  H       2.000865     -4.200412     -0.032854
  H       2.536433     -3.228329      1.369054
  H       3.289348     -4.836295      1.050841
  H       3.899443     -4.430066     -2.566769
  H       5.238563     -5.079631     -1.566786
  H       5.500243     -3.614587     -2.567504
  H       3.565359     -1.826360     -1.092684
51
Coordinates from ORCA-job my_molecule E -1977.866667994807
  Pt      0.000166     -0.337521      0.825037
  O       1.656267     -0.892146      1.831580
  O      -1.774336     -0.096904     -0.327533
  P       2.854300      0.191289      1.778471
  P      -1.739736     -1.613159     -0.765448
  O      -3.115894     -2.389379     -0.367242
  O      -0.485894     -2.195646      0.021155
  O       3.203313      0.450696      0.181065
  O       4.031439     -0.158741      2.648183
  C       1.999637      1.800983      2.166042
  C      -1.653568     -1.889986     -2.581067
  C      -1.824795     -3.393111     -2.870010
  C      -0.263828     -1.409168     -3.047046
  C      -2.773847     -1.059792     -3.237903
  C       0.712807      1.824712      1.328036
  C       1.691766      1.805344      3.674950
  C       2.899103      2.994381      1.788573
  H      -3.304946     -2.290077      0.588602
  H       3.403412     -0.403127     -0.276830
  H      -1.057704     -3.998655     -2.347724
  H      -1.707749     -3.566180     -3.961600
  H      -2.824268     -3.755825     -2.564306
  H       0.546432     -2.006774     -2.585624
  H      -0.092263     -0.342001     -2.801695
  H      -0.194260     -1.523824     -4.148457
  H      -3.778088     -1.388200     -2.900661
  H      -2.721982     -1.183453     -4.344221
  H      -2.664380      0.015574     -3.004373
  H      -0.130021      1.041135      1.793548
  H       0.892468      1.880735      0.237886
  H       0.058624      2.684316      1.589133
  H       1.027880      0.963627      3.955161
  H       1.199262      2.755932      3.966270
  H       2.626635      1.702026      4.263052
  H       3.152573      2.987142      0.712077
  H       3.845932      2.951558      2.362358
  H       2.399154      3.953161      2.031377
  Si      4.201975     -3.076360     -0.469022
  C       5.669609     -2.509151      0.573509
  C       2.885583     -3.918876      0.586061
  C       4.744352     -4.160731     -1.926876
  H       5.331651     -1.827028      1.384708
  H       6.421021     -1.973747     -0.043067
  H       6.174238     -3.381812      1.040630
  H       1.995205     -4.197048     -0.014242
  H       2.543837     -3.227073      1.383122
  H       3.288447     -4.837960      1.060976
  H       3.876619     -4.445273     -2.557837
  H       5.219785     -5.095986     -1.563282
  H       5.479477     -3.636140     -2.571549
  H       3.560521     -1.834287     -1.092136
51
Coordinates from ORCA-job my_molecule E -1977.866750440528
  Pt      0.000167     -0.333361      0.819489
  O       1.652696     -0.894853      1.829647
  O      -1.772372     -0.085121     -0.336016
  P       2.854763      0.183403      1.781931
  P      -1.746811     -1.603553     -0.766086
  O      -3.127473     -2.370961     -0.361915
  O      -0.494804     -2.188973      0.019559
  O       3.211717      0.444014      0.187730
  O       4.026417     -0.173429      2.658762
  C       2.004273      1.794999      2.165949
  C      -1.663668     -1.891151     -2.579705
  C      -1.825970     -3.399487     -2.858168
  C      -0.276858     -1.404113     -3.050277
  C      -2.788899     -1.072151     -3.242439
  C       0.721983      1.828886      1.321919
  C       1.687093      1.799680      3.671752
  C       2.911648      2.980877      1.794004
  H      -3.314479     -2.267190      0.593976
  H       3.408571     -0.410170     -0.270438
  H      -1.053537     -3.995741     -2.331236
  H      -1.709151     -3.579177     -3.947481
  H      -2.823256     -3.769196     -2.550195
  H       0.537836     -1.997451     -2.589705
  H      -0.108782     -0.335437     -2.809192
  H      -0.210338     -1.521990     -4.151835
  H      -3.789371     -1.408805     -2.910841
  H      -2.731050     -1.198856     -4.343289
  H      -2.690340      0.006915     -3.012450
  H      -0.125407      1.053485      1.782855
  H       0.912332      1.880158      0.232261
  H       0.066700      2.693732      1.576261
  H       1.009412      0.966904      3.950859
  H       1.205153      2.756321      3.961923
  H       2.618544      1.681002      4.258785
  H       3.173945      2.971506      0.718844
  H       3.855505      2.931250      2.374643
  H       2.411657      3.943438      2.032213
  Si      4.208680     -3.069772     -0.469757
  C       5.669203     -2.502925      0.583644
  C       2.885035     -3.916253      0.574502
  C       4.761100     -4.149498     -1.927584
  H       5.325839     -1.823076      1.394193
  H       6.424431     -1.966499     -0.027654
  H       6.171572     -3.376258      1.051960
  H       1.998906     -4.194588     -0.032820
  H       2.536776     -3.225447      1.369992
  H       3.286004     -4.835176      1.051238
  H       3.897525     -4.435102     -2.562265
  H       5.236820     -5.084162     -1.564078
  H       5.497048     -3.622183     -2.567613
  H       3.569148     -1.827001     -1.094039
51
Coordinates from ORCA-job my_molecule E -1977.866737477548
  Pt      0.001388     -0.336029      0.821891
  O       1.652843     -0.897773      1.833894
  O      -1.772287     -0.085547     -0.335072
  P       2.854530      0.180158      1.784213
  P      -1.745658     -1.603419     -0.768566
  O      -3.127378     -2.371884     -0.366267
  O      -0.493599     -2.190136      0.016516
  O       3.207619      0.440291      0.191024
  O       4.027091     -0.176038      2.657276
  C       2.004462      1.793393      2.167249
  C      -1.661823     -1.887910     -2.582053
  C      -1.819568     -3.397368     -2.860514
  C      -0.275914     -1.397641     -3.051539
  C      -2.794183     -1.072151     -3.244681
  C       0.721856      1.825555      1.324151
  C       1.687048      1.803146      3.675753
  C       2.910722      2.978678      1.789248
  H      -3.315611     -2.268799      0.589440
  H       3.409065     -0.412054     -0.267767
  H      -1.045650     -3.991877     -2.333554
  H      -1.701704     -3.576103     -3.948756
  H      -2.815763     -3.770666     -2.553529
  H       0.538569     -1.991068     -2.592360
  H      -0.109857     -0.329973     -2.807603
  H      -0.208436     -1.512866     -4.152652
  H      -3.795227     -1.416556     -2.910368
  H      -2.737677     -1.196371     -4.346125
  H      -2.701694      0.009228     -3.015553
  H      -0.122636      1.051079      1.786381
  H       0.911859      1.877255      0.235601
  H       0.065039      2.690852      1.577527
  H       1.008721      0.971878      3.960023
  H       1.205196      2.764711      3.963401
  H       2.618189      1.683923      4.261646
  H       3.169342      2.966005      0.712337
  H       3.854933      2.929032      2.364364
  H       2.413217      3.944901      2.027140
  Si      4.207853     -3.070777     -0.466864
  C       5.669280     -2.503758      0.579377
  C       2.889432     -3.916327      0.579814
  C       4.756456     -4.151503     -1.924272
  H       5.330805     -1.822773      1.388147
  H       6.420563     -1.968945     -0.033549
  H       6.170804     -3.376260      1.044449
  H       2.003298     -4.194510     -0.023624
  H       2.543559     -3.225307      1.375516
  H       3.291599     -4.834715      1.054041
  H       3.891948     -4.435408     -2.559426
  H       5.230216     -5.087230     -1.559845
  H       5.494482     -3.625586     -2.564707
  H       3.568613     -1.827293     -1.089358
51
Coordinates from ORCA-job my_molecule E -1977.866785811755
  Pt      0.001900     -0.333824      0.818674
  O       1.652962     -0.895703      1.830527
  O      -1.771726     -0.083917     -0.336411
  P       2.855161      0.181719      1.783153
  P      -1.746234     -1.602080     -0.768231
  O      -3.127201     -2.369833     -0.364109
  O      -0.493553     -2.188618      0.016010
  O       3.211451      0.443005      0.190399
  O       4.026148     -0.175621      2.658456
  C       2.004820      1.794244      2.166428
  C      -1.665035     -1.888842     -2.581738
  C      -1.821540     -3.398185     -2.858702
  C      -0.280788     -1.396214     -3.054641
  C      -2.797902     -1.075749     -3.243209
  C       0.723190      1.827800      1.320953
  C       1.685362      1.800600      3.673515
  C       2.912431      2.979576      1.793595
  H      -3.313730     -2.265668      0.591831
  H       3.416505     -0.408310     -0.268094
  H      -1.045962     -3.990729     -2.333062
  H      -1.706265     -3.578009     -3.947648
  H      -2.816386     -3.771937     -2.549084
  H       0.536559     -1.986000     -2.595015
  H      -0.117173     -0.327242     -2.813738
  H      -0.214877     -1.513863     -4.156020
  H      -3.797006     -1.421221     -2.909686
  H      -2.740563     -1.200370     -4.343379
  H      -2.707414      0.005383     -3.013771
  H      -0.123246      1.053275      1.782038
  H       0.914920      1.879856      0.231688
  H       0.066601      2.693225      1.573888
  H       1.011744      0.966552      3.952152
  H       1.198117      2.756842      3.961881
  H       2.616019      1.686623      4.264049
  H       3.174418      2.969353      0.717785
  H       3.856151      2.929227      2.372926
  H       2.413317      3.943529      2.031672
  Si      4.210340     -3.070940     -0.467107
  C       5.672723     -2.505991      0.584054
  C       2.887457     -3.916557      0.577695
  C       4.760000     -4.151491     -1.925331
  H       5.332652     -1.823462      1.392542
  H       6.429079     -1.973294     -0.028804
  H       6.172030     -3.379387      1.053779
  H       2.001220     -4.193553     -0.028807
  H       2.540769     -3.225922      1.373762
  H       3.287616     -4.836151      1.052804
  H       3.895605     -4.435672     -2.560811
  H       5.233511     -5.087217     -1.561212
  H       5.498432     -3.625180     -2.565401
  H       3.573324     -1.826587     -1.090436
51
Coordinates from ORCA-job my_molecule E -1977.866793691243
  Pt      0.001160     -0.328871      0.811427
  O       1.648299     -0.894427      1.825524
  O      -1.771345     -0.078506     -0.344771
  P       2.853679      0.180294      1.785397
  P      -1.749288     -1.597785     -0.771935
  O      -3.128635     -2.362875     -0.358179
  O      -0.494234     -2.183073      0.008058
  O       3.220296      0.442311      0.193549
  O       4.019204     -0.182672      2.667934
  C       2.005888      1.793508      2.167335
  C      -1.675041     -1.890433     -2.584880
  C      -1.824572     -3.400472     -2.856812
  C      -0.296715     -1.390799     -3.066638
  C      -2.812081     -1.084644     -3.242131
  C       0.726703      1.831354      1.318528
  C       1.683297      1.796131      3.670817
  C       2.917957      2.977543      1.801015
  H      -3.310858     -2.256447      0.598302
  H       3.433265     -0.409758     -0.261860
  H      -1.041962     -3.987174     -2.334849
  H      -1.715748     -3.583308     -3.947166
  H      -2.815024     -3.777318     -2.538439
  H       0.528204     -1.970040     -2.605950
  H      -0.140974     -0.318128     -2.833795
  H      -0.234687     -1.515875     -4.167945
  H      -3.807060     -1.426649     -2.899335
  H      -2.763489     -1.216391     -4.345326
  H      -2.718632     -0.005250     -3.017381
  H      -0.123991      1.057622      1.776028
  H       0.921591      1.883245      0.228894
  H       0.073972      2.698703      1.571382
  H       0.995940      0.966639      3.947895
  H       1.209910      2.756406      3.961691
  H       2.611630      1.667575      4.256834
  H       3.183670      2.969249      0.727104
  H       3.859959      2.924651      2.385010
  H       2.420127      3.940409      2.038645
  Si      4.219124     -3.069403     -0.465692
  C       5.679099     -2.506988      0.592439
  C       2.888859     -3.912386      0.572815
  C       4.773067     -4.151455     -1.921658
  H       5.337148     -1.820733      1.398985
  H       6.441136     -1.979056     -0.019093
  H       6.173919     -3.381179      1.067953
  H       2.005283     -4.188409     -0.039981
  H       2.537207     -3.221519      1.367154
  H       3.285784     -4.832545      1.050871
  H       3.910588     -4.435736     -2.558637
  H       5.245227     -5.086881     -1.555617
  H       5.512389     -3.627075     -2.560094
  H       3.586688     -1.823909     -1.091612
51
Coordinates from ORCA-job my_molecule E -1977.866859096857
  Pt      0.002442     -0.326549      0.808470
  O       1.648415     -0.893900      1.823910
  O      -1.770756     -0.075849     -0.346760
  P       2.854641      0.180110      1.785563
  P      -1.749028     -1.595128     -0.774194
  O      -3.127301     -2.361112     -0.358838
  O      -0.492431     -2.180106      0.004097
  O       3.221283      0.443911      0.194901
  O       4.019241     -0.184695      2.668157
  C       2.006800      1.793373      2.167700
  C      -1.678362     -1.888385     -2.587175
  C      -1.818365     -3.400583     -2.855986
  C      -0.304372     -1.380354     -3.072911
  C      -2.823351     -1.091329     -3.242817
  C       0.729066      1.832059      1.316332
  C       1.680237      1.794949      3.671325
  C       2.919928      2.977256      1.803916
  H      -3.309062     -2.252878      0.597517
  H       3.446650     -0.405224     -0.259971
  H      -1.029627     -3.980553     -2.335305
  H      -1.711849     -3.584364     -3.945593
  H      -2.805265     -3.784942     -2.533911
  H       0.525245     -1.953352     -2.613141
  H      -0.155654     -0.306693     -2.841661
  H      -0.243612     -1.506336     -4.173911
  H      -3.814871     -1.443577     -2.900289
  H      -2.773342     -1.221116     -4.343921
  H      -2.740833     -0.009830     -3.017964
  H      -0.123269      1.058747      1.773309
  H       0.925287      1.885297      0.227495
  H       0.076102      2.699147      1.568717
  H       0.999541      0.962379      3.943508
  H       1.197952      2.751411      3.960766
  H       2.607525      1.673706      4.264739
  H       3.186526      2.969910      0.729925
  H       3.861487      2.922784      2.388077
  H       2.422424      3.940708      2.042048
  Si      4.222044     -3.070826     -0.463098
  C       5.684777     -2.512446      0.593691
  C       2.889757     -3.911379      0.574976
  C       4.772255     -4.154561     -1.919002
  H       5.346412     -1.821277      1.397151
  H       6.449886     -1.991580     -0.020109
  H       6.174523     -3.387171      1.073321
  H       2.005563     -4.183395     -0.038490
  H       2.540186     -3.221247      1.370438
  H       3.283726     -4.833864      1.050974
  H       3.908993     -4.437541     -2.555244
  H       5.242366     -5.090889     -1.552513
  H       5.512318     -3.632330     -2.558210
  H       3.593681     -1.822919     -1.088198
51
Coordinates from ORCA-job my_molecule E -1977.866930099523
  Pt      0.001039     -0.322818      0.803845
  O       1.644280     -0.894343      1.820675
  O      -1.772992     -0.069091     -0.350612
  P       2.853265      0.175767      1.785383
  P      -1.753119     -1.588606     -0.778732
  O      -3.130673     -2.354790     -0.361981
  O      -0.494839     -2.175053     -0.002880
  O       3.221223      0.442153      0.197615
  O       4.014344     -0.195035      2.668715
  C       2.008288      1.791314      2.166739
  C      -1.688469     -1.883739     -2.591067
  C      -1.812918     -3.397923     -2.854868
  C      -0.323505     -1.360119     -3.084649
  C      -2.847947     -1.103195     -3.242234
  C       0.732731      1.833521      1.311210
  C       1.675661      1.793330      3.670865
  C       2.925138      2.972558      1.806244
  H      -3.308968     -2.245450      0.594889
  H       3.470216     -0.399843     -0.257180
  H      -1.013425     -3.965994     -2.338990
  H      -1.713622     -3.583918     -3.944797
  H      -2.792381     -3.793381     -2.523469
  H       0.515680     -1.919863     -2.626247
  H      -0.188930     -0.284515     -2.856860
  H      -0.265420     -1.488341     -4.185142
  H      -3.833258     -1.470223     -2.893817
  H      -2.801649     -1.233325     -4.342242
  H      -2.779910     -0.019305     -3.020063
  H      -0.122612      1.063682      1.767211
  H       0.932647      1.888272      0.223374
  H       0.079767      2.702795      1.561785
  H       0.996994      0.960679      3.939458
  H       1.189171      2.749625      3.958424
  H       2.600496      1.674437      4.270362
  H       3.193038      2.965570      0.732190
  H       3.865978      2.913942      2.390991
  H       2.430095      3.937867      2.045050
  Si      4.234136     -3.073878     -0.456313
  C       5.697749     -2.520534      0.602169
  C       2.896273     -3.912223      0.576299
  C       4.784034     -4.158522     -1.911684
  H       5.363538     -1.821139      1.398623
  H       6.469078     -2.011085     -0.012753
  H       6.177203     -3.395107      1.089577
  H       2.013389     -4.177315     -0.041597
  H       2.546989     -3.224397      1.373299
  H       3.284466     -4.838684      1.048809
  H       3.921443     -4.440385     -2.550352
  H       5.250885     -5.095974     -1.543644
  H       5.528270     -3.637400     -2.549342
  H       3.613066     -1.822528     -1.080474
51
Coordinates from ORCA-job my_molecule E -1977.866979745581
  Pt     -0.003015     -0.316867      0.797773
  O       1.635914     -0.894489      1.814512
  O      -1.778215     -0.061561     -0.357158
  P       2.849617      0.170572      1.785143
  P      -1.760055     -1.581488     -0.784358
  O      -3.135908     -2.347891     -0.357951
  O      -0.499530     -2.167328     -0.013686
  O       3.223502      0.438089      0.199207
  O       4.005216     -0.208957      2.672158
  C       2.009803      1.789122      2.165605
  C      -1.702221     -1.878225     -2.596467
  C      -1.806351     -3.395587     -2.853788
  C      -0.347380     -1.337781     -3.099733
  C      -2.878582     -1.114967     -3.242290
  C       0.734967      1.835885      1.308261
  C       1.674017      1.790855      3.669138
  C       2.931803      2.967527      1.806684
  H      -3.311427     -2.238027      0.599273
  H       3.495040     -0.400334     -0.251626
  H      -0.993682     -3.950662     -2.342671
  H      -1.713144     -3.584107     -3.943004
  H      -2.776698     -3.804002     -2.512259
  H       0.502396     -1.882043     -2.642142
  H      -0.228155     -0.259103     -2.876934
  H      -0.292612     -1.470274     -4.199920
  H      -3.856203     -1.497531     -2.887781
  H      -2.835509     -1.244708     -4.341536
  H      -2.828680     -0.028630     -3.022124
  H      -0.125103      1.068514      1.762779
  H       0.935781      1.892958      0.221505
  H       0.087523      2.707164      1.560919
  H       0.992017      0.959924      3.934341
  H       1.189777      2.748825      3.956332
  H       2.596847      1.668150      4.271704
  H       3.198750      2.960151      0.732115
  H       3.872114      2.904217      2.390274
  H       2.441863      3.935758      2.046547
  Si      4.250950     -3.076982     -0.449540
  C       5.711860     -2.529851      0.615142
  C       2.903922     -3.910846      0.573055
  C       4.804057     -4.163141     -1.901528
  H       5.378345     -1.821242      1.403972
  H       6.491756     -2.032340      0.001544
  H       6.179450     -3.404802      1.113416
  H       2.024608     -4.168032     -0.052682
  H       2.551169     -3.225367      1.370144
  H       3.284541     -4.841378      1.043780
  H       3.943932     -4.443524     -2.543656
  H       5.267506     -5.101418     -1.530311
  H       5.551606     -3.644521     -2.536322
  H       3.637753     -1.822242     -1.074048
51
Coordinates from ORCA-job my_molecule E -1977.867031672311
  Pt     -0.008260     -0.309290      0.787734
  O       1.627074     -0.895929      1.807102
  O      -1.783584     -0.047342     -0.366066
  P       2.845750      0.162025      1.782014
  P      -1.772380     -1.567911     -0.790280
  O      -3.148394     -2.330825     -0.359769
  O      -0.510700     -2.157126     -0.022226
  O       3.224243      0.433676      0.198513
  O       3.995428     -0.228263      2.671442
  C       2.010998      1.783422      2.162575
  C      -1.723950     -1.869834     -2.601374
  C      -1.803181     -3.390346     -2.850945
  C      -0.383717     -1.306674     -3.117571
  C      -2.917751     -1.131498     -3.240362
  C       0.740075      1.836279      1.300708
  C       1.668522      1.784545      3.665058
  C       2.937901      2.958980      1.809667
  H      -3.316889     -2.219051      0.598554
  H       3.530685     -0.394483     -0.248540
  H      -0.972626     -3.926132     -2.347934
  H      -1.721030     -3.582669     -3.939880
  H      -2.761099     -3.816704     -2.494216
  H       0.480489     -1.828077     -2.660246
  H      -0.285843     -0.223920     -2.904168
  H      -0.333269     -1.446799     -4.216834
  H      -3.885118     -1.526063     -2.871697
  H      -2.886580     -1.269959     -4.341215
  H      -2.879086     -0.044166     -3.028694
  H      -0.124316      1.073924      1.754848
  H       0.944767      1.892915      0.214353
  H       0.094807      2.710326      1.551157
  H       0.980939      0.956351      3.926973
  H       1.188055      2.745144      3.951486
  H       2.587429      1.655643      4.270754
  H       3.206469      2.953989      0.735629
  H       3.876392      2.888664      2.393900
  H       2.452914      3.929225      2.052507
  Si      4.277276     -3.081138     -0.439569
  C       5.734980     -2.541288      0.633386
  C       2.918083     -3.910005      0.570175
  C       4.835575     -4.169937     -1.886955
  H       5.402651     -1.819605      1.410541
  H       6.526907     -2.061393      0.022042
  H       6.185250     -3.415968      1.147194
  H       2.043020     -4.155095     -0.064722
  H       2.563071     -3.228406      1.369037
  H       3.288083     -4.846714      1.035817
  H       3.979075     -4.450853     -2.532220
  H       5.296442     -5.107727     -1.512388
  H       5.585522     -3.653712     -2.518530
  H       3.674832     -1.822740     -1.064955
51
Coordinates from ORCA-job my_molecule E -1977.867079324621
  Pt     -0.017492     -0.300743      0.776015
  O       1.610142     -0.897636      1.798480
  O      -1.792182     -0.031004     -0.376962
  P       2.836642      0.150459      1.777469
  P      -1.791395     -1.552394     -0.797410
  O      -3.167460     -2.308258     -0.352654
  O      -0.528580     -2.146797     -0.036513
  O       3.223717      0.423669      0.195248
  O       3.978778     -0.253385      2.670158
  C       2.012922      1.777967      2.157671
  C      -1.756653     -1.860088     -2.607663
  C      -1.816281     -3.382140     -2.847724
  C      -0.430783     -1.279561     -3.141568
  C      -2.968298     -1.143019     -3.237509
  C       0.743841      1.840998      1.291865
  C       1.666345      1.777463      3.658406
  C       2.949478      2.947605      1.811338
  H      -3.326284     -2.196058      0.607225
  H       3.556420     -0.397463     -0.245588
  H      -0.970780     -3.902009     -2.354916
  H      -1.748320     -3.580576     -3.937994
  H      -2.761825     -3.819030     -2.472696
  H       0.446636     -1.776567     -2.682345
  H      -0.352047     -0.191589     -2.943915
  H      -0.385267     -1.434629     -4.239564
  H      -3.925263     -1.550423     -2.856861
  H      -2.944872     -1.286011     -4.337645
  H      -2.945882     -0.054669     -3.031020
  H      -0.129398      1.085350      1.741647
  H       0.952775      1.899601      0.207108
  H       0.105753      2.720670      1.543989
  H       0.967469      0.954935      3.917174
  H       1.197299      2.742551      3.946288
  H       2.582004      1.636076      4.263713
  H       3.219811      2.945587      0.738132
  H       3.887079      2.868130      2.398517
  H       2.471082      3.919552      2.057866
  Si      4.317352     -3.087492     -0.427784
  C       5.760349     -2.549682      0.665976
  C       2.940649     -3.916176      0.558270
  C       4.898167     -4.175846     -1.867591
  H       5.420646     -1.817467      1.429556
  H       6.566888     -2.082540      0.065101
  H       6.192823     -3.422420      1.196435
  H       2.076191     -4.155222     -0.094374
  H       2.572540     -3.238623      1.355266
  H       3.300457     -4.856819      1.024095
  H       4.050827     -4.458982     -2.527485
  H       5.355067     -5.112861     -1.485275
  H       5.659682     -3.656620     -2.487822
  H       3.725162     -1.828350     -1.060321
51
Coordinates from ORCA-job my_molecule E -1977.867129717689
  Pt     -0.025836     -0.295334      0.767419
  O       1.597170     -0.899941      1.791453
  O      -1.799040     -0.016273     -0.385585
  P       2.830104      0.140309      1.772645
  P      -1.809309     -1.538713     -0.801453
  O      -3.187844     -2.285383     -0.348229
  O      -0.547447     -2.139226     -0.043939
  O       3.221857      0.415799      0.191226
  O       3.968424     -0.272965      2.666134
  C       2.014402      1.771447      2.154203
  C      -1.782952     -1.852380     -2.610895
  C      -1.831171     -3.376326     -2.843165
  C      -0.465013     -1.263706     -3.155280
  C      -3.003657     -1.147762     -3.237444
  C       0.746851      1.842532      1.287004
  C       1.666713      1.770862      3.654068
  C       2.956993      2.937588      1.810310
  H      -3.340377     -2.170977      0.612483
  H       3.565719     -0.402820     -0.245418
  H      -0.977080     -3.886803     -2.355205
  H      -1.770944     -3.579429     -3.933327
  H      -2.769532     -3.818898     -2.458523
  H       0.419169     -1.746763     -2.693911
  H      -0.396651     -0.173001     -2.969359
  H      -0.421427     -1.429864     -4.251574
  H      -3.955362     -1.559992     -2.848433
  H      -2.985783     -1.296781     -4.337691
  H      -2.987789     -0.058229     -3.037149
  H      -0.130709      1.091568      1.733891
  H       0.958150      1.899611      0.201914
  H       0.113777      2.725624      1.539367
  H       0.962428      0.952063      3.911228
  H       1.203473      2.738581      3.942268
  H       2.580566      1.623190      4.259780
  H       3.227837      2.937413      0.737111
  H       3.893533      2.851570      2.397369
  H       2.484298      3.911297      2.060155
  Si      4.349580     -3.090529     -0.421567
  C       5.777510     -2.552811      0.692390
  C       2.960898     -3.921272      0.545455
  C       4.951083     -4.178160     -1.853391
  H       5.426643     -1.816538      1.447823
  H       6.596816     -2.090389      0.103000
  H       6.198129     -3.425096      1.234767
  H       2.105878     -4.159828     -0.119075
  H       2.581398     -3.245968      1.339386
  H       3.315431     -4.862821      1.013177
  H       4.113414     -4.464932     -2.522317
  H       5.407852     -5.112631     -1.465352
  H       5.715779     -3.656919     -2.464988
  H       3.761979     -1.832527     -1.060948
51
Coordinates from ORCA-job my_molecule E -1977.867233183675
  Pt     -0.043690     -0.290543      0.761318
  O       1.580522     -0.904772      1.777645
  O      -1.819477      0.000476     -0.382341
  P       2.818824      0.128177      1.748714
  P      -1.840595     -1.520543     -0.799274
  O      -3.221178     -2.260168     -0.341483
  O      -0.581206     -2.130890     -0.045159
  O       3.199954      0.405886      0.163843
  O       3.963340     -0.290501      2.632235
  C       2.010676      1.760143      2.138979
  C      -1.821560     -1.831659     -2.610092
  C      -1.863228     -3.356498     -2.840038
  C      -0.507569     -1.239055     -3.160729
  C      -3.046035     -1.132083     -3.234125
  C       0.740941      1.839011      1.276770
  C       1.668480      1.755168      3.638812
  C       2.955555      2.924991      1.797376
  H      -3.366272     -2.154232      0.621324
  H       3.560032     -0.409754     -0.264765
  H      -1.003003     -3.862734     -2.357534
  H      -1.809159     -3.560017     -3.929708
  H      -2.796912     -3.803757     -2.449160
  H       0.379215     -1.710785     -2.693820
  H      -0.446419     -0.146651     -2.987683
  H      -0.461553     -1.417190     -4.254482
  H      -3.995522     -1.544034     -2.840305
  H      -3.030962     -1.285467     -4.334347
  H      -3.031705     -0.042167     -3.038244
  H      -0.141583      1.093184      1.725806
  H       0.947474      1.894334      0.190106
  H       0.115761      2.726367      1.531130
  H       0.959940      0.938899      3.897242
  H       1.211790      2.724471      3.930656
  H       2.584300      1.600669      4.239269
  H       3.221722      2.933247      0.723562
  H       3.894233      2.831758      2.379846
  H       2.486490      3.897413      2.058312
  Si      4.405336     -3.101887     -0.407375
  C       5.808777     -2.559527      0.733899
  C       3.002641     -3.938355      0.535674
  C       5.039233     -4.188037     -1.826171
  H       5.438436     -1.817010      1.474019
  H       6.644398     -2.102692      0.162707
  H       6.213300     -3.428939      1.293912
  H       2.159218     -4.177454     -0.143329
  H       2.609675     -3.267659      1.327006
  H       3.350726     -4.881888      1.004630
  H       4.217235     -4.483281     -2.509141
  H       5.499300     -5.116849     -1.428783
  H       5.807621     -3.660236     -2.425027
  H       3.818417     -1.849413     -1.059868
51
Coordinates from ORCA-job my_molecule E -1977.867312072827
  Pt     -0.061309     -0.290569      0.758512
  O       1.564827     -0.913290      1.768855
  O      -1.838402      0.013588     -0.381727
  P       2.809350      0.112339      1.734551
  P      -1.870479     -1.507309     -0.798262
  O      -3.256676     -2.236725     -0.342112
  O      -0.615486     -2.127729     -0.044687
  O       3.188280      0.387337      0.147474
  O       3.956365     -0.309750      2.613179
  C       2.011881      1.749211      2.128311
  C      -1.851459     -1.819537     -2.608454
  C      -1.892966     -3.345217     -2.835875
  C      -0.537126     -1.226365     -3.157698
  C      -3.074266     -1.120866     -3.236414
  C       0.738187      1.835754      1.273647
  C       1.678923      1.749005      3.630756
  C       2.959685      2.910680      1.779605
  H      -3.399432     -2.135705      0.621738
  H       3.545412     -0.435219     -0.272470
  H      -1.032566     -3.850445     -2.352404
  H      -1.840220     -3.550773     -3.925836
  H      -2.826812     -3.791992     -2.444736
  H       0.349462     -1.696787     -2.687788
  H      -0.477218     -0.133254     -2.989823
  H      -0.488077     -1.409374     -4.250366
  H      -4.025004     -1.528877     -2.842442
  H      -3.058450     -1.278913     -4.336610
  H      -3.057060     -0.030053     -3.044888
  H      -0.144680      1.096949      1.724279
  H       0.939916      1.887256      0.185801
  H       0.119181      2.727122      1.529487
  H       0.973361      0.934648      3.893818
  H       1.223012      2.718244      3.922667
  H       2.598298      1.597108      4.228572
  H       3.219363      2.919395      0.703704
  H       3.901373      2.812788      2.355583
  H       2.496704      3.884830      2.045995
  Si      4.446080     -3.106246     -0.397305
  C       5.823519     -2.557500      0.770256
  C       3.032305     -3.953231      0.521424
  C       5.112224     -4.182003     -1.809539
  H       5.432927     -1.818658      1.503560
  H       6.667753     -2.094669      0.218131
  H       6.220908     -3.426836      1.335037
  H       2.200355     -4.197561     -0.170712
  H       2.623922     -3.285569      1.308271
  H       3.378229     -4.895358      0.995338
  H       4.305080     -4.483060     -2.507589
  H       5.575935     -5.106881     -1.407419
  H       5.885129     -3.643435     -2.393522
  H       3.855674     -1.859031     -1.058065
51
Coordinates from ORCA-job my_molecule E -1977.867369082994
  Pt     -0.076580     -0.299629      0.767440
  O       1.562331     -0.921250      1.758715
  O      -1.862404      0.006908     -0.356423
  P       2.802615      0.107916      1.707692
  P      -1.889159     -1.509886     -0.787777
  O      -3.275721     -2.246442     -0.348273
  O      -0.635860     -2.135850     -0.034038
  O       3.160798      0.379047      0.115113
  O       3.964497     -0.304261      2.572519
  C       2.005273      1.742920      2.110152
  C      -1.861954     -1.802819     -2.600800
  C      -1.915585     -3.324103     -2.844847
  C      -0.538628     -1.216130     -3.135189
  C      -3.075197     -1.087745     -3.229889
  C       0.723066      1.826737      1.267548
  C       1.687526      1.743003      3.617165
  C       2.946193      2.906951      1.753026
  H      -3.422037     -2.161902      0.616517
  H       3.519611     -0.444547     -0.298963
  H      -1.064049     -3.841994     -2.360769
  H      -1.857222     -3.518707     -3.936381
  H      -2.856816     -3.766239     -2.464552
  H       0.339394     -1.698788     -2.662012
  H      -0.470571     -0.124998     -2.960016
  H      -0.481715     -1.392242     -4.228992
  H      -4.033074     -1.493668     -2.848466
  H      -3.049215     -1.232922     -4.329133
  H      -3.054412      0.001743     -3.027207
  H      -0.156637      1.088221      1.728091
  H       0.911921      1.877931      0.178028
  H       0.103815      2.718049      1.525967
  H       0.989939      0.925573      3.889257
  H       1.228957      2.710196      3.912776
  H       2.614757      1.598130      4.205106
  H       3.192936      2.919358      0.673844
  H       3.895229      2.810741      2.317328
  H       2.482340      3.878843      2.028252
  Si      4.472264     -3.116434     -0.386545
  C       5.837355     -2.560919      0.790929
  C       3.059974     -3.969645      0.529382
  C       5.151633     -4.186879     -1.794853
  H       5.433204     -1.824997      1.519497
  H       6.685333     -2.093551      0.247468
  H       6.233340     -3.429125      1.359387
  H       2.229374     -4.219118     -0.160934
  H       2.650481     -3.302733      1.315147
  H       3.408547     -4.909354      1.006091
  H       4.351481     -4.493465     -2.497889
  H       5.621559     -5.107867     -1.390417
  H       5.923476     -3.640892     -2.373796
  H       3.873551     -1.875696     -1.052469
51
Coordinates from ORCA-job my_molecule E -1977.867392708370
  Pt     -0.091330     -0.297153      0.767427
  O       1.549355     -0.924414      1.752113
  O      -1.880654      0.012950     -0.351773
  P       2.793333      0.100020      1.698211
  P      -1.908711     -1.503384     -0.785641
  O      -3.296051     -2.240916     -0.348604
  O      -0.657213     -2.131126     -0.031488
  O       3.148052      0.367480      0.105768
  O       3.955896     -0.315003      2.560241
  C       2.005878      1.739040      2.101379
  C      -1.881448     -1.794294     -2.599319
  C      -1.934776     -3.315887     -2.845176
  C      -0.557752     -1.206360     -3.131586
  C      -3.093804     -1.078582     -3.228339
  C       0.721854      1.829049      1.262365
  C       1.691393      1.740436      3.609179
  C       2.952484      2.897519      1.741369
  H      -3.440301     -2.165895      0.617143
  H       3.509105     -0.455757     -0.306961
  H      -1.083066     -3.833816     -2.360640
  H      -1.875641     -3.509300     -3.935729
  H      -2.875656     -3.759757     -2.465800
  H       0.320080     -1.688992     -2.657319
  H      -0.491549     -0.114851     -2.955107
  H      -0.499015     -1.381070     -4.225893
  H      -4.051842     -1.483778     -2.848075
  H      -3.068118     -1.223214     -4.327893
  H      -3.071695      0.010724     -3.025155
  H      -0.161554      1.095622      1.727968
  H       0.906506      1.879796      0.171595
  H       0.109010      2.724204      1.520041
  H       0.992581      0.925080      3.882864
  H       1.235190      2.709107      3.905106
  H       2.620165      1.594183      4.195923
  H       3.194555      2.909286      0.661131
  H       3.903646      2.795708      2.301176
  H       2.494895      3.871953      2.018509
  Si      4.499571     -3.122378     -0.378860
  C       5.847773     -2.562698      0.815151
  C       3.081130     -3.983934      0.520786
  C       5.199758     -4.183362     -1.783943
  H       5.431476     -1.830346      1.539268
  H       6.699065     -2.090736      0.283536
  H       6.239705     -3.430061      1.385016
  H       2.259087     -4.238741     -0.179777
  H       2.659180     -3.318966      1.302367
  H       3.429302     -4.921104      1.003172
  H       4.409392     -4.491918     -2.498575
  H       5.670623     -5.103125     -1.377623
  H       5.976387     -3.629668     -2.351261
  H       3.899681     -1.884106     -1.046461
51
Coordinates from ORCA-job my_molecule E -1977.867417724098
  Pt     -0.103443     -0.303306      0.770436
  O       1.544347     -0.931643      1.743527
  O      -1.899256      0.011254     -0.338490
  P       2.786537      0.093393      1.683126
  P      -1.927480     -1.502592     -0.781284
  O      -3.316203     -2.242149     -0.351526
  O      -0.676915     -2.134923     -0.029765
  O       3.134223      0.354624      0.088361
  O       3.954684     -0.318551      2.539896
  C       2.002781      1.734308      2.088568
  C      -1.897279     -1.781821     -2.597076
  C      -1.952658     -3.301777     -2.854129
  C      -0.570699     -1.192680     -3.121143
  C      -3.107609     -1.059615     -3.223233
  C       0.713335      1.823062      1.258591
  C       1.699214      1.738104      3.598620
  C       2.947306      2.891516      1.720087
  H      -3.461110     -2.177129      0.614790
  H       3.500970     -0.467868     -0.320794
  H      -1.103074     -3.824472     -2.370586
  H      -1.891188     -3.487893     -3.946007
  H      -2.895045     -3.746458     -2.479653
  H       0.304301     -1.679806     -2.647181
  H      -0.505102     -0.102257     -2.936642
  H      -0.507219     -1.360191     -4.216312
  H      -4.067277     -1.467173     -2.849253
  H      -3.079273     -1.194450     -4.324145
  H      -3.085431      0.028158     -3.010924
  H      -0.165029      1.090170      1.732407
  H       0.889286      1.872194      0.166245
  H       0.101052      2.717587      1.518022
  H       1.004374      0.921770      3.877850
  H       1.242950      2.705820      3.896781
  H       2.632190      1.595050      4.178745
  H       3.177719      2.902185      0.637063
  H       3.904226      2.788559      2.270580
  H       2.494310      3.866984      2.000572
  Si      4.525997     -3.129875     -0.368101
  C       5.860832     -2.566420      0.837942
  C       3.104572     -3.995399      0.523009
  C       5.240905     -4.184743     -1.770104
  H       5.433840     -1.837417      1.559423
  H       6.714533     -2.090482      0.315455
  H       6.250395     -3.434359      1.408244
  H       2.287584     -4.257291     -0.180478
  H       2.675453     -3.328300      1.298793
  H       3.454039     -4.927444      1.013912
  H       4.457327     -4.494795     -2.492918
  H       5.712118     -5.103719     -1.362057
  H       6.021287     -3.626123     -2.329268
  H       3.924538     -1.894151     -1.038164
51
Coordinates from ORCA-job my_molecule E -1977.867458679546
  Pt     -0.116716     -0.307794      0.768106
  O       1.536490     -0.939566      1.731541
  O      -1.919781      0.011701     -0.327103
  P       2.778079      0.085459      1.668637
  P      -1.950140     -1.499982     -0.778969
  O      -3.339074     -2.240516     -0.352730
  O      -0.698307     -2.136930     -0.033480
  O       3.125068      0.341234      0.073061
  O       3.948634     -0.325093      2.523512
  C       1.999737      1.728739      2.074543
  C      -1.922402     -1.767492     -2.596750
  C      -1.974745     -3.285602     -2.865719
  C      -0.597612     -1.171185     -3.117869
  C      -3.135708     -1.043433     -3.214894
  C       0.706348      1.818097      1.251413
  C       1.703414      1.733989      3.586110
  C       2.946383      2.882047      1.699758
  H      -3.480495     -2.185570      0.614739
  H       3.503874     -0.477557     -0.332472
  H      -1.123681     -3.809720     -2.386666
  H      -1.913847     -3.463402     -3.959733
  H      -2.915473     -3.734610     -2.492616
  H       0.278662     -1.656162     -2.644180
  H      -0.538088     -0.080661     -2.928090
  H      -0.531932     -1.334246     -4.214135
  H      -4.093601     -1.459376     -2.845361
  H      -3.107292     -1.165338     -4.317408
  H      -3.118175      0.041960     -2.990356
  H      -0.169441      1.086694      1.731690
  H       0.875812      1.866478      0.158750
  H       0.095333      2.713568      1.513305
  H       1.008987      0.917595      3.869153
  H       1.248819      2.702121      3.886194
  H       2.638708      1.590625      4.161775
  H       3.165788      2.891315      0.614306
  H       3.908298      2.773850      2.240751
  H       2.501761      3.860320      1.982759
  Si      4.563237     -3.138256     -0.355105
  C       5.881696     -2.573423      0.867406
  C       3.135051     -4.005430      0.523134
  C       5.295680     -4.189618     -1.749840
  H       5.442512     -1.846979      1.585018
  H       6.741070     -2.094909      0.356369
  H       6.266048     -3.442753      1.440576
  H       2.327226     -4.278958     -0.186541
  H       2.693269     -3.332964      1.287429
  H       3.484628     -4.929341      1.029290
  H       4.520988     -4.499013     -2.481728
  H       5.763254     -5.108905     -1.338033
  H       6.081669     -3.630217     -2.298782
  H       3.965922     -1.903323     -1.028956
51
Coordinates from ORCA-job my_molecule E -1977.867529046629
  Pt     -0.127050     -0.320474      0.763149
  O       1.536033     -0.954719      1.710499
  O      -1.942976      0.004343     -0.307907
  P       2.773399      0.075714      1.645008
  P      -1.974216     -1.502187     -0.775607
  O      -3.361534     -2.247463     -0.351486
  O      -0.716788     -2.144449     -0.044900
  O       3.120333      0.328975      0.049464
  O       3.948983     -0.329430      2.497310
  C       1.992076      1.717762      2.051599
  C      -1.953388     -1.743763     -2.597523
  C      -1.992923     -3.258267     -2.889901
  C      -0.635846     -1.126961     -3.113789
  C      -3.175456     -1.020633     -3.198291
  C       0.692333      1.801488      1.239095
  C       1.708074      1.722632      3.565059
  C       2.935311      2.870507      1.666193
  H      -3.498015     -2.206822      0.617586
  H       3.530257     -0.478564     -0.347178
  H      -1.135640     -3.781991     -2.421152
  H      -1.933394     -3.418123     -3.986825
  H      -2.928012     -3.721091     -2.519887
  H       0.245537     -1.606599     -2.645372
  H      -0.591159     -0.038492     -2.910079
  H      -0.567723     -1.276527     -4.211363
  H      -4.127515     -1.456012     -2.836445
  H      -3.149326     -1.117373     -4.303859
  H      -3.168800      0.059207     -2.949143
  H      -0.173812      1.065917      1.730755
  H       0.852735      1.846883      0.143721
  H       0.078692      2.692752      1.504528
  H       1.020606      0.901430      3.852885
  H       1.250750      2.687540      3.869535
  H       2.647253      1.583826      4.132389
  H       3.138484      2.878959      0.577328
  H       3.904791      2.757836      2.192738
  H       2.498754      3.850403      1.953160
  Si      4.609454     -3.148080     -0.331992
  C       5.915803     -2.586018      0.904662
  C       3.170237     -4.005691      0.538852
  C       5.352789     -4.205960     -1.716703
  H       5.469822     -1.858459      1.617095
  H       6.783306     -2.110624      0.403047
  H       6.290952     -3.457938      1.480540
  H       2.370226     -4.295290     -0.172311
  H       2.719151     -3.318939      1.284789
  H       3.516828     -4.916811      1.069181
  H       4.583629     -4.511880     -2.455745
  H       5.809482     -5.128062     -1.299012
  H       6.148532     -3.653701     -2.258337
  H       4.024894     -1.911312     -1.013550
51
Coordinates from ORCA-job my_molecule E -1977.867580608408
  Pt     -0.129529     -0.322321      0.752656
  O       1.534643     -0.960306      1.696056
  O      -1.950908      0.004104     -0.306143
  P       2.773214      0.070962      1.637332
  P      -1.983639     -1.501077     -0.780017
  O      -3.367107     -2.249256     -0.349955
  O      -0.719852     -2.143881     -0.060796
  O       3.130490      0.327606      0.044734
  O       3.944581     -0.336263      2.493786
  C       1.991344      1.712251      2.043269
  C      -1.975158     -1.733648     -2.603014
  C      -1.997281     -3.247208     -2.902377
  C      -0.670713     -1.095680     -3.126791
  C      -3.211520     -1.023375     -3.189858
  C       0.691212      1.796571      1.232051
  C       1.706547      1.716471      3.556929
  C       2.935741      2.863253      1.659874
  H      -3.494645     -2.214698      0.620687
  H       3.564859     -0.471152     -0.345293
  H      -1.129179     -3.761476     -2.443375
  H      -1.944472     -3.400465     -4.000748
  H      -2.923055     -3.724172     -2.527190
  H       0.221081     -1.560166     -2.662096
  H      -0.642510     -0.007009     -2.921940
  H      -0.606891     -1.243844     -4.224870
  H      -4.154137     -1.477444     -2.826371
  H      -3.191400     -1.108418     -4.296649
  H      -3.218964      0.053820     -2.929322
  H      -0.174538      1.059404      1.725436
  H       0.852139      1.843156      0.137826
  H       0.078146      2.688596      1.500665
  H       1.018059      0.894498      3.844646
  H       1.249127      2.682715      3.861573
  H       2.644945      1.575535      4.125719
  H       3.137220      2.872651      0.571697
  H       3.906175      2.746758      2.186190
  H       2.501241      3.843399      1.947924
  Si      4.636006     -3.151688     -0.319993
  C       5.939277     -2.596270      0.922839
  C       3.186358     -3.996808      0.545103
  C       5.379788     -4.221147     -1.695197
  H       5.494355     -1.861897      1.629673
  H       6.813940     -2.130034      0.424113
  H       6.304991     -3.469134      1.505544
  H       2.393059     -4.295330     -0.169980
  H       2.728728     -3.299450      1.277084
  H       3.526600     -4.901533      1.090742
  H       4.612260     -4.521387     -2.437219
  H       5.823554     -5.146823     -1.271518
  H       6.184028     -3.680279     -2.233881
  H       4.067721     -1.910643     -1.007745
51
Coordinates from ORCA-job my_molecule E -1977.867615105882
  Pt     -0.128231     -0.323393      0.745503
  O       1.535352     -0.962469      1.687621
  O      -1.952057      0.002024     -0.306446
  P       2.775106      0.068879      1.634032
  P      -1.984035     -1.502509     -0.783840
  O      -3.363838     -2.254577     -0.348430
  O      -0.715994     -2.144894     -0.072360
  O       3.139104      0.331258      0.044270
  O       3.942738     -0.341551      2.493817
  C       1.990369      1.708571      2.040226
  C      -1.985506     -1.728476     -2.607070
  C      -1.994281     -3.240561     -2.910857
  C      -0.692649     -1.073683     -3.137483
  C      -3.232961     -1.028958     -3.183264
  C       0.690227      1.793569      1.227139
  C       1.703613      1.709883      3.553357
  C       2.936275      2.859771      1.656926
  H      -3.486658     -2.220437      0.622836
  H       3.593095     -0.458773     -0.340498
  H      -1.117507     -3.747497     -2.460762
  H      -1.948591     -3.389338     -4.010166
  H      -2.912468     -3.728399     -2.530504
  H       0.207930     -1.525954     -2.676651
  H      -0.676673      0.014856     -2.932435
  H      -0.633409     -1.220749     -4.235747
  H      -4.167924     -1.496449     -2.817592
  H      -3.217867     -1.106779     -4.290457
  H      -3.251239      0.046252     -2.915298
  H      -0.176408      1.054209      1.719613
  H       0.855023      1.843085      0.133271
  H       0.076345      2.684809      1.497798
  H       1.015490      0.886854      3.838974
  H       1.245761      2.673995      3.859353
  H       2.641829      1.567829      4.122905
  H       3.139468      2.869729      0.568457
  H       3.905317      2.741248      2.181509
  H       2.502954      3.840591      1.946647
  Si      4.648395     -3.151698     -0.311819
  C       5.954970     -2.602274      0.931072
  C       3.191024     -3.985768      0.552061
  C       5.386365     -4.233803     -1.680907
  H       5.515603     -1.861869      1.633890
  H       6.833187     -2.143883      0.431548
  H       6.314407     -3.473989      1.517646
  H       2.401402     -4.289234     -0.166166
  H       2.730778     -3.281478      1.276205
  H       3.525170     -4.888277      1.105370
  H       4.617398     -4.529382     -2.422852
  H       5.819256     -5.162453     -1.253002
  H       6.196359     -3.703361     -2.220641
  H       4.093922     -1.907033     -1.004991
51
Coordinates from ORCA-job my_molecule E -1977.867643905674
  Pt     -0.129001     -0.322642      0.739815
  O       1.533816     -0.963893      1.681039
  O      -1.954236      0.003192     -0.309675
  P       2.776832      0.064832      1.631434
  P      -1.986566     -1.500964     -0.788079
  O      -3.362578     -2.257073     -0.346442
  O      -0.715302     -2.142008     -0.082080
  O       3.146165      0.330487      0.043584
  O       3.939976     -0.350555      2.493482
  C       1.992023      1.704768      2.038030
  C      -1.997310     -1.724250     -2.611510
  C      -1.995518     -3.236221     -2.915809
  C      -0.713801     -1.056899     -3.148583
  C      -3.253441     -1.034148     -3.180726
  C       0.692114      1.791133      1.224753
  C       1.705080      1.708229      3.551540
  C       2.936372      2.857156      1.656502
  H      -3.478601     -2.227931      0.625785
  H       3.612691     -0.455596     -0.334845
  H      -1.111833     -3.736552     -2.471844
  H      -1.956146     -3.383724     -4.014966
  H      -2.907606     -3.732532     -2.531458
  H       0.194356     -1.499205     -2.691820
  H      -0.706905      0.031581     -2.944549
  H      -0.659173     -1.203935     -4.246827
  H      -4.182654     -1.510353     -2.812008
  H      -3.242365     -1.109695     -4.287941
  H      -3.279123      0.040596     -2.910427
  H      -0.175449      1.051560      1.718845
  H       0.858205      1.841098      0.130943
  H       0.080011      2.682861      1.495720
  H       1.017050      0.886536      3.838810
  H       1.247841      2.674593      3.855640
  H       2.643375      1.565762      4.122037
  H       3.144682      2.867790      0.569703
  H       3.903428      2.741485      2.187346
  H       2.497870      3.835522      1.946945
  Si      4.661222     -3.151919     -0.306059
  C       5.966758     -2.607511      0.940573
  C       3.196085     -3.977768      0.552339
  C       5.397911     -4.243393     -1.668762
  H       5.528439     -1.863179      1.639164
  H       6.848642     -2.153742      0.443253
  H       6.320808     -3.477886      1.531523
  H       2.412474     -4.285444     -0.170416
  H       2.731329     -3.269304      1.269163
  H       3.523887     -4.879134      1.111331
  H       4.629918     -4.534366     -2.414210
  H       5.820365     -5.174658     -1.236356
  H       6.214908     -3.720379     -2.206336
  H       4.118905     -1.904857     -1.005759
51
Coordinates from ORCA-job my_molecule E -1977.867674325497
  Pt     -0.137075     -0.324592      0.738353
  O       1.528293     -0.967643      1.672726
  O      -1.965329      0.004272     -0.304856
  P       2.773540      0.057926      1.620928
  P      -1.998778     -1.498689     -0.787990
  O      -3.373525     -2.257630     -0.347461
  O      -0.727731     -2.142596     -0.084251
  O       3.140308      0.322062      0.032411
  O       3.936276     -0.361259      2.481327
  C       1.992347      1.698946      2.030635
  C      -2.012395     -1.716071     -2.611820
  C      -2.007339     -3.226941     -2.921179
  C      -0.732214     -1.043010     -3.148924
  C      -3.271191     -1.026951     -3.176946
  C       0.689420      1.787225      1.221853
  C       1.711404      1.703978      3.545066
  C       2.935052      2.852064      1.645665
  H      -3.486384     -2.235025      0.625193
  H       3.615335     -0.461681     -0.340558
  H      -1.121373     -3.727220     -2.481064
  H      -1.970708     -3.370602     -4.020645
  H      -2.917801     -3.726911     -2.537465
  H       0.178883     -1.482840     -2.695665
  H      -0.728579      0.044703     -2.941818
  H      -0.679156     -1.186519     -4.247581
  H      -4.199198     -1.506265     -2.809098
  H      -3.260417     -1.098820     -4.284419
  H      -3.299081      0.047046     -2.903251
  H      -0.178241      1.048924      1.719276
  H       0.852568      1.838471      0.127765
  H       0.079545      2.679962      1.495333
  H       1.023136      0.884574      3.836515
  H       1.257091      2.671382      3.849395
  H       2.652672      1.560719      4.111839
  H       3.142848      2.862877      0.558836
  H       3.902401      2.739361      2.176115
  H       2.494396      3.829228      1.938745
  Si      4.683154     -3.154457     -0.297017
  C       5.979284     -2.609254      0.958532
  C       3.211041     -3.979445      0.550187
  C       5.428523     -4.248922     -1.652736
  H       5.533258     -1.865259      1.652509
  H       6.863119     -2.153270      0.468040
  H       6.331122     -3.477617      1.553220
  H       2.437151     -4.294176     -0.180372
  H       2.735652     -3.269812      1.258883
  H       3.534681     -4.877968      1.116177
  H       4.666294     -4.537823     -2.405471
  H       5.844031     -5.181221     -1.216008
  H       6.251907     -3.727838     -2.183457
  H       4.147713     -1.907926     -1.003658
51
Coordinates from ORCA-job my_molecule E -1977.867715229352
  Pt     -0.153243     -0.333909      0.740072
  O       1.520984     -0.978074      1.657855
  O      -1.990190     -0.000360     -0.287303
  P       2.766537      0.044943      1.596973
  P      -2.023135     -1.498969     -0.783424
  O      -3.395411     -2.265901     -0.349794
  O      -0.752597     -2.148567     -0.083876
  O       3.123169      0.301466      0.004805
  O       3.932815     -0.375913      2.451470
  C       1.989650      1.687360      2.012004
  C      -2.037532     -1.697227     -2.609405
  C      -2.034021     -3.204131     -2.936857
  C      -0.757578     -1.017988     -3.139396
  C      -3.296045     -1.000726     -3.167016
  C       0.678810      1.774243      1.215886
  C       1.725151      1.696445      3.529260
  C       2.924973      2.843532      1.616034
  H      -3.504014     -2.261302      0.623455
  H       3.611851     -0.478233     -0.358611
  H      -1.149545     -3.711731     -2.502565
  H      -1.998781     -3.335207     -4.038226
  H      -2.945944     -3.706870     -2.559644
  H       0.154969     -1.462077     -2.694030
  H      -0.754467      0.067343     -2.918735
  H      -0.705545     -1.147391     -4.240015
  H      -4.225535     -1.482866     -2.806158
  H      -3.283153     -1.059937     -4.275183
  H      -3.323492      0.070461     -2.881846
  H      -0.184294      1.037186      1.724014
  H       0.830701      1.826697      0.120080
  H       0.071103      2.666574      1.493873
  H       1.039966      0.879550      3.831581
  H       1.274509      2.664876      3.834748
  H       2.673537      1.555737      4.084801
  H       3.126969      2.853254      0.527794
  H       3.895427      2.739203      2.141819
  H       2.480124      3.818145      1.913005
  Si      4.724982     -3.161061     -0.278278
  C       6.003432     -2.610525      0.992015
  C       3.242665     -3.985181      0.552029
  C       5.485789     -4.260298     -1.621737
  H       5.540428     -1.871445      1.679938
  H       6.887873     -2.144595      0.513217
  H       6.356147     -3.475578      1.589974
  H       2.486134     -4.316077     -0.189482
  H       2.747392     -3.272688      1.243896
  H       3.561614     -4.874674      1.134745
  H       4.734089     -4.545677     -2.386656
  H       5.889806     -5.194176     -1.177876
  H       6.319604     -3.743016     -2.140074
  H       4.199254     -1.917180     -0.997345
51
Coordinates from ORCA-job my_molecule E -1977.867733539222
  Pt     -0.163912     -0.339668      0.738709
  O       1.514384     -0.985966      1.647621
  O      -2.006074     -0.001531     -0.277502
  P       2.760966      0.035225      1.583187
  P      -2.040850     -1.497788     -0.781316
  O      -3.412407     -2.267042     -0.350624
  O      -0.770163     -2.152160     -0.085944
  O       3.115035      0.287160     -0.010227
  O       3.927567     -0.387839      2.436766
  C       1.988444      1.679267      1.999672
  C      -2.056558     -1.684985     -2.608134
  C      -2.049506     -3.189711     -2.946752
  C      -0.779265     -0.998867     -3.135309
  C      -3.317132     -0.987519     -3.159621
  C       0.673172      1.766782      1.210817
  C       1.732958      1.690147      3.518332
  C       2.922121      2.834967      1.597109
  H      -3.518460     -2.269589      0.622956
  H       3.613828     -0.488354     -0.368739
  H      -1.163622     -3.698638     -2.516131
  H      -2.014374     -3.312588     -4.048842
  H      -2.960298     -3.696974     -2.572785
  H       0.135692     -1.443571     -2.696171
  H      -0.779199      0.084701     -2.905558
  H      -0.729101     -1.119134     -4.237094
  H      -4.245549     -1.474353     -2.802188
  H      -3.304393     -1.038350     -4.268414
  H      -3.346715      0.081313     -2.866626
  H      -0.188139      1.030764      1.723750
  H       0.819077      1.820375      0.114206
  H       0.067109      2.659250      1.492842
  H       1.048122      0.874659      3.825991
  H       1.285299      2.659229      3.824816
  H       2.684525      1.549817      4.067813
  H       3.119429      2.843228      0.507864
  H       3.894951      2.732621      2.118422
  H       2.478521      3.810077      1.894507
  Si      4.754005     -3.164544     -0.265490
  C       6.019734     -2.611248      1.015877
  C       3.264016     -3.987760      0.551093
  C       5.526220     -4.266592     -1.600415
  H       5.545304     -1.875919      1.700472
  H       6.905559     -2.138846      0.544998
  H       6.372347     -3.475646      1.615901
  H       2.520771     -4.329826     -0.197896
  H       2.754071     -3.272633      1.229187
  H       3.579629     -4.869428      1.146969
  H       4.782171     -4.548486     -2.374070
  H       5.920798     -5.202456     -1.152062
  H       6.368734     -3.752943     -2.108670
  H       4.237089     -1.921165     -0.991487
51
Coordinates from ORCA-job my_molecule E -1977.867749448602
  Pt     -0.174506     -0.344154      0.736588
  O       1.505804     -0.994083      1.639732
  O      -2.020815     -0.000307     -0.270601
  P       2.754369      0.024157      1.572103
  P      -2.059082     -1.494626     -0.779274
  O      -3.429503     -2.264890     -0.348112
  O      -0.787650     -2.153490     -0.088955
  O       3.107530      0.270027     -0.022670
  O       3.920350     -0.400924      2.425543
  C       1.987279      1.670705      1.987832
  C      -2.077884     -1.672516     -2.607066
  C      -2.069389     -3.175334     -2.955171
  C      -0.803025     -0.980879     -3.133722
  C      -3.340694     -0.974255     -3.152432
  C       0.668632      1.759660      1.205528
  C       1.738751      1.684110      3.507782
  C       2.920575      2.824350      1.579450
  H      -3.531658     -2.273844      0.625982
  H       3.612870     -0.502969     -0.377165
  H      -1.183278     -3.685518     -2.527380
  H      -2.034809     -3.291572     -4.058594
  H      -2.979326     -3.685233     -2.582960
  H       0.114559     -1.427031     -2.701835
  H      -0.804497      0.101496     -2.895798
  H      -0.756759     -1.092881     -4.236911
  H      -4.267958     -1.465320     -2.797289
  H      -3.328982     -1.017602     -4.261669
  H      -3.372162      0.092601     -2.852834
  H      -0.191273      1.025644      1.722956
  H       0.808296      1.813520      0.108064
  H       0.065159      2.653054      1.490422
  H       1.053253      0.870373      3.819905
  H       1.293711      2.654468      3.814204
  H       2.692180      1.543957      4.052928
  H       3.114421      2.829731      0.489365
  H       3.895239      2.723377      2.097440
  H       2.478937      3.801081      1.873847
  Si      4.787414     -3.167265     -0.253235
  C       6.037731     -2.610651      1.041375
  C       3.286568     -3.989753      0.545038
  C       5.573098     -4.273141     -1.577468
  H       5.549837     -1.882477      1.724207
  H       6.922822     -2.127781      0.579711
  H       6.392587     -3.475321      1.640011
  H       2.560128     -4.344763     -0.215015
  H       2.757756     -3.272543      1.206456
  H       3.597480     -4.862208      1.157170
  H       4.838629     -4.550061     -2.361102
  H       5.955723     -5.211572     -1.124116
  H       6.425502     -3.765523     -2.072944
  H       4.281991     -1.924356     -0.987507
51
Coordinates from ORCA-job my_molecule E -1977.867761882429
  Pt     -0.176602     -0.346658      0.736192
  O       1.503532     -0.998469      1.638822
  O      -2.023991      0.000155     -0.268598
  P       2.752733      0.019285      1.569983
  P      -2.063649     -1.493291     -0.779174
  O      -3.433249     -2.264091     -0.346995
  O      -0.791190     -2.154104     -0.091943
  O       3.105812      0.263401     -0.025124
  O       3.918569     -0.405454      2.423882
  C       1.986758      1.666360      1.984677
  C      -2.084307     -1.667818     -2.607253
  C      -2.073872     -3.170329     -2.958405
  C      -0.811309     -0.973440     -3.135041
  C      -3.348627     -0.970632     -3.150020
  C       0.666503      1.755482      1.205367
  C       1.740363      1.679881      3.505214
  C       2.919892      2.818893      1.573884
  H      -3.534686     -2.272218      0.627293
  H       3.611387     -0.509546     -0.379755
  H      -1.186979     -3.679455     -2.530625
  H      -2.038012     -3.284117     -4.061786
  H      -2.982914     -3.682383     -2.587110
  H       0.107909     -1.422344     -2.709968
  H      -0.811850      0.107635     -2.891496
  H      -0.769876     -1.079608     -4.238967
  H      -4.274714     -1.463225     -2.794370
  H      -3.338571     -1.012551     -4.259442
  H      -3.380836      0.095654     -2.849134
  H      -0.192640      1.021001      1.723227
  H       0.803288      1.810428      0.107604
  H       0.063474      2.648618      1.492698
  H       1.055633      0.865280      3.818021
  H       1.294521      2.649697      3.811880
  H       2.694124      1.541233      4.049519
  H       3.112687      2.822122      0.483511
  H       3.895522      2.718784      2.090279
  H       2.479121      3.797028      1.863745
  Si      4.797926     -3.166090     -0.249517
  C       6.045177     -2.606323      1.046930
  C       3.292235     -3.984035      0.543492
  C       5.584759     -4.279599     -1.567155
  H       5.553108     -1.881167      1.730334
  H       6.928227     -2.118579      0.585079
  H       6.403864     -3.471018      1.644322
  H       2.573378     -4.344912     -0.219841
  H       2.756251     -3.264509      1.195986
  H       3.600779     -4.851300      1.163764
  H       4.852854     -4.553262     -2.354346
  H       5.958227     -5.219862     -1.109767
  H       6.444402     -3.779312     -2.057899
  H       4.300794     -1.923768     -0.990168
51
Coordinates from ORCA-job my_molecule E -1977.867774018815
  Pt     -0.175185     -0.345786      0.735370
  O       1.502559     -0.998951      1.640766
  O      -2.021536      0.001508     -0.271257
  P       2.752788      0.018007      1.572924
  P      -2.061267     -1.492052     -0.780864
  O      -3.430088     -2.262929     -0.346252
  O      -0.787619     -2.152451     -0.095356
  O       3.107370      0.263997     -0.021591
  O       3.917984     -0.406858      2.427595
  C       1.986887      1.665481      1.986798
  C      -2.084303     -1.667760     -2.608706
  C      -2.070453     -3.170535     -2.957617
  C      -0.814019     -0.971286     -3.139905
  C      -3.351450     -0.974756     -3.150173
  C       0.667012      1.755772      1.207009
  C       1.738763      1.678447      3.507339
  C       2.921192      2.816620      1.576867
  H      -3.531618     -2.266686      0.628084
  H       3.612417     -0.508609     -0.377885
  H      -1.181406     -3.676057     -2.530136
  H      -2.035033     -3.285682     -4.060878
  H      -2.977337     -3.684608     -2.583949
  H       0.106793     -1.420332     -2.718585
  H      -0.814331      0.109323     -2.895877
  H      -0.776917     -1.076587     -4.243788
  H      -4.275388     -1.468928     -2.790820
  H      -3.343972     -1.019261     -4.259367
  H      -3.386066      0.092143     -2.851715
  H      -0.192781      1.020821      1.723006
  H       0.803759      1.811894      0.109220
  H       0.064128      2.648660      1.495248
  H       1.054872      0.862397      3.818427
  H       1.291438      2.647690      3.814273
  H       2.691437      1.540352      4.053144
  H       3.114523      2.818440      0.486686
  H       3.896764      2.715454      2.093751
  H       2.481406      3.795992      1.863064
  Si      4.798427     -3.163916     -0.250107
  C       6.048081     -2.603155      1.044156
  C       3.289360     -3.977370      0.541668
  C       5.581684     -4.284804     -1.563781
  H       5.557897     -1.877293      1.727720
  H       6.929789     -2.116170      0.578912
  H       6.408010     -3.467474      1.640973
  H       2.572636     -4.337496     -0.224407
  H       2.752553     -3.257192      1.192765
  H       3.595190     -4.845309      1.162493
  H       4.849532     -4.557246     -2.350893
  H       5.949747     -5.225721     -1.103447
  H       6.444595     -3.790575     -2.054368
  H       4.307109     -1.921696     -0.994723
51
Coordinates from ORCA-job my_molecule E -1977.867783144873
  Pt     -0.177662     -0.341629      0.735224
  O       1.497009     -0.998035      1.643657
  O      -2.022030      0.007321     -0.274848
  P       2.749628      0.015903      1.575266
  P      -2.063087     -1.486810     -0.782273
  O      -3.432824     -2.255688     -0.346028
  O      -0.790387     -2.147557     -0.095815
  O       3.104466      0.262712     -0.019028
  O       3.914918     -0.409576      2.429201
  C       1.986884      1.664964      1.988835
  C      -2.087341     -1.667226     -2.609820
  C      -2.070991     -3.171241     -2.952583
  C      -0.818457     -0.970670     -3.144334
  C      -3.356065     -0.978665     -3.152988
  C       0.667570      1.758825      1.208497
  C       1.736615      1.677963      3.509178
  C       2.925037      2.812734      1.579368
  H      -3.535201     -2.255667      0.628145
  H       3.608905     -0.510173     -0.375908
  H      -1.180310     -3.672648     -2.524082
  H      -2.035975     -3.290893     -4.055398
  H      -2.976112     -3.686129     -2.575974
  H       0.102999     -1.419830     -2.724018
  H      -0.817741      0.110267     -2.902713
  H      -0.784227     -1.077995     -4.248016
  H      -4.278533     -1.471533     -2.788664
  H      -3.350806     -1.030095     -4.261797
  H      -3.391515      0.090049     -2.860917
  H      -0.194769      1.025394      1.723028
  H       0.804407      1.815602      0.110754
  H       0.066789      2.653205      1.496854
  H       1.052503      0.861530      3.818811
  H       1.288927      2.647223      3.816161
  H       2.688467      1.538731      4.056962
  H       3.118333      2.812818      0.489202
  H       3.900323      2.707827      2.095914
  H       2.488613      3.794129      1.863440
  Si      4.803033     -3.163122     -0.250575
  C       6.051544     -2.602164      1.045140
  C       3.292015     -3.977638      0.536142
  C       5.588242     -4.285473     -1.561898
  H       5.560804     -1.875826      1.727603
  H       6.933512     -2.116133      0.579523
  H       6.410801     -3.466115      1.642662
  H       2.577572     -4.333371     -0.233895
  H       2.754891     -3.260524      1.190147
  H       3.595399     -4.850066      1.151824
  H       4.858180     -4.558067     -2.351244
  H       5.954142     -5.226418     -1.099940
  H       6.453362     -3.791939     -2.050055
  H       4.314076     -1.920815     -0.996917
51
Coordinates from ORCA-job my_molecule E -1977.867790056463
  Pt     -0.180948     -0.342204      0.736705
  O       1.493854     -1.000014      1.643709
  O      -2.025076      0.008750     -0.273480
  P       2.746965      0.012620      1.572337
  P      -2.066409     -1.484549     -0.782839
  O      -3.437236     -2.252749     -0.348355
  O      -0.794581     -2.146835     -0.096357
  O       3.098951      0.258725     -0.022822
  O       3.914845     -0.411786      2.423332
  C       1.985729      1.662505      1.987528
  C      -2.090347     -1.663914     -2.610552
  C      -2.070714     -3.167743     -2.952607
  C      -0.822473     -0.965571     -3.145013
  C      -3.360575     -0.977824     -3.153482
  C       0.664702      1.756864      1.210217
  C       1.738781      1.676452      3.508365
  C       2.923709      2.809295      1.575347
  H      -3.540939     -2.252014      0.625616
  H       3.607608     -0.512209     -0.377720
  H      -1.178200     -3.666838     -2.524907
  H      -2.035778     -3.287803     -4.055242
  H      -2.974383     -3.684788     -2.575365
  H       0.099296     -1.416212     -2.727092
  H      -0.821070      0.114816     -2.901778
  H      -0.790059     -1.071065     -4.248819
  H      -4.281963     -1.470694     -2.786306
  H      -3.356683     -1.032177     -4.262018
  H      -3.397305      0.091619     -2.864058
  H      -0.196201      1.022723      1.725893
  H       0.798735      1.814234      0.112169
  H       0.064262      2.650830      1.500360
  H       1.057146      0.858890      3.819690
  H       1.290465      2.645150      3.816362
  H       2.691910      1.538205      4.054380
  H       3.114221      2.807393      0.484844
  H       3.900198      2.703687      2.090206
  H       2.488675      3.791242      1.859190
  Si      4.809355     -3.162419     -0.247563
  C       6.057974     -2.601116      1.048025
  C       3.295723     -3.975281      0.536432
  C       5.594458     -4.288712     -1.555670
  H       5.567744     -1.873447      1.728999
  H       6.939799     -2.116854      0.581143
  H       6.416650     -3.464238      1.646255
  H       2.581679     -4.326239     -0.236491
  H       2.759978     -3.259899      1.193398
  H       3.595884     -4.852042      1.147713
  H       4.865442     -4.562017     -2.345844
  H       5.957930     -5.229227     -1.091039
  H       6.461032     -3.797434     -2.043529
  H       4.323170     -1.920618     -0.997456
51
Coordinates from ORCA-job my_molecule E -1977.867797439158
  Pt     -0.186063     -0.342024      0.736768
  O       1.488943     -1.001996      1.642142
  O      -2.030100      0.010855     -0.272912
  P       2.743194      0.008621      1.568878
  P      -2.072225     -1.481867     -0.783923
  O      -3.444165     -2.249020     -0.350503
  O      -0.801129     -2.145403     -0.097628
  O       3.093842      0.253335     -0.026848
  O       3.912628     -0.416455      2.417640
  C       1.984954      1.659897      1.985520
  C      -2.096688     -1.660281     -2.612016
  C      -2.072534     -3.163789     -2.953938
  C      -0.830964     -0.958113     -3.146555
  C      -3.369427     -0.978029     -3.153692
  C       0.662716      1.756183      1.210438
  C       1.741013      1.674920      3.506575
  C       2.924584      2.804646      1.570583
  H      -3.547485     -2.250253      0.623446
  H       3.609311     -0.514454     -0.378434
  H      -1.177669     -3.659880     -2.528160
  H      -2.039320     -3.284318     -4.056853
  H      -2.973862     -3.683827     -2.575151
  H       0.092021     -1.407981     -2.730310
  H      -0.831409      0.121864     -2.901534
  H      -0.799536     -1.061829     -4.250545
  H      -4.288779     -1.472567     -2.783847
  H      -3.367383     -1.034346     -4.262010
  H      -3.408608      0.091842     -2.865872
  H      -0.197729      1.022510      1.727824
  H       0.794898      1.813670      0.112076
  H       0.063473      2.650267      1.501798
  H       1.059781      0.857907      3.819805
  H       1.294175      2.643946      3.815478
  H       2.695310      1.535409      4.050459
  H       3.112776      2.800488      0.479756
  H       3.901599      2.696726      2.083785
  H       2.492346      3.787593      1.855416
  Si      4.818910     -3.162444     -0.243340
  C       6.065883     -2.602427      1.054457
  C       3.302681     -3.973635      0.536743
  C       5.606236     -4.290492     -1.548722
  H       5.575531     -1.872742      1.733153
  H       6.949672     -2.121031      0.588353
  H       6.421711     -3.465056      1.655024
  H       2.588659     -4.319097     -0.238444
  H       2.768628     -3.259662      1.196548
  H       3.599290     -4.854602      1.143569
  H       4.879088     -4.564443     -2.340606
  H       5.967919     -5.230627     -1.081974
  H       6.474093     -3.799977     -2.035487
  H       4.335139     -1.920547     -0.995120
51
Coordinates from ORCA-job my_molecule E -1977.867803703783
  Pt     -0.195943     -0.342834      0.736927
  O       1.479535     -1.005990      1.639726
  O      -2.040234      0.014520     -0.270206
  P       2.735758      0.001354      1.561971
  P      -2.085264     -1.477328     -0.784169
  O      -3.459757     -2.241537     -0.353235
  O      -0.816333     -2.144616     -0.097747
  O       3.083430      0.241227     -0.034975
  O       3.907454     -0.425035      2.407353
  C       1.983681      1.655192      1.979798
  C      -2.109280     -1.653375     -2.612744
  C      -2.081364     -3.156444     -2.956506
  C      -0.844931     -0.947852     -3.146061
  C      -3.383660     -0.973508     -3.153144
  C       0.659156      1.754170      1.208734
  C       1.745722      1.672670      3.501509
  C       2.925817      2.796626      1.559902
  H      -3.561706     -2.248379      0.620812
  H       3.607457     -0.522807     -0.381388
  H      -1.184481     -3.650769     -2.532805
  H      -2.049531     -3.275966     -4.059492
  H      -2.980807     -3.679492     -2.577438
  H       0.078766     -1.397901     -2.731384
  H      -0.846727      0.131695     -2.897869
  H      -0.813807     -1.048733     -4.250587
  H      -4.301519     -1.469102     -2.781353
  H      -3.383324     -1.031046     -4.261498
  H      -3.424150      0.096546     -2.866250
  H      -0.201054      1.021993      1.729327
  H       0.788399      1.811608      0.110046
  H       0.062462      2.649485      1.501957
  H       1.063829      0.857725      3.819084
  H       1.302515      2.643121      3.811089
  H       2.702190      1.531300      4.041283
  H       3.110502      2.789247      0.468575
  H       3.903809      2.686030      2.070651
  H       2.497798      3.781047      1.846241
  Si      4.838100     -3.163494     -0.235695
  C       6.078272     -2.604769      1.068969
  C       3.318000     -3.975864      0.535429
  C       5.633508     -4.290021     -1.537577
  H       5.583982     -1.875543      1.745347
  H       6.964520     -2.122887      0.607725
  H       6.431321     -3.467363      1.671268
  H       2.605851     -4.315883     -0.244136
  H       2.782861     -3.264535      1.197302
  H       3.610539     -4.860778      1.138547
  H       4.911300     -4.564467     -2.333682
  H       5.993517     -5.229818     -1.068856
  H       6.503129     -3.798349     -2.019968
  H       4.356623     -1.921604     -0.988995
51
Coordinates from ORCA-job my_molecule E -1977.867807847623
  Pt     -0.200742     -0.345641      0.737234
  O       1.475431     -1.010125      1.638724
  O      -2.045504      0.014310     -0.267787
  P       2.732139     -0.003766      1.557149
  P      -2.091792     -1.476545     -0.784344
  O      -3.466904     -2.240342     -0.354861
  O      -0.823166     -2.145837     -0.099187
  O       3.076866      0.232259     -0.040979
  O       3.905969     -0.430310      2.399824
  C       1.982374      1.650921      1.975438
  C      -2.116388     -1.648228     -2.613630
  C      -2.087263     -3.150321     -2.961665
  C      -0.852989     -0.939985     -3.145875
  C      -3.391967     -0.968586     -3.151190
  C       0.656271      1.750175      1.207474
  C       1.748627      1.669623      3.497606
  C       2.924626      2.791149      1.552098
  H      -3.566590     -2.253573      0.619395
  H       3.606860     -0.529151     -0.383916
  H      -1.189499     -3.644863     -2.540428
  H      -2.057139     -3.267029     -4.065245
  H      -2.985644     -3.675211     -2.582736
  H       0.071416     -1.391715     -2.734723
  H      -0.854863      0.138510     -2.892378
  H      -0.823302     -1.035773     -4.251010
  H      -4.308713     -1.465684     -2.778892
  H      -3.393267     -1.024353     -4.259647
  H      -3.433193      0.100914     -2.862502
  H      -0.202578      1.018102      1.730862
  H       0.783145      1.807436      0.108464
  H       0.060395      2.645446      1.501921
  H       1.066398      0.856008      3.818138
  H       1.307189      2.640696      3.807490
  H       2.706730      1.527754      4.034457
  H       3.108008      2.781347      0.460601
  H       3.902967      2.680603      2.061847
  H       2.497801      3.776232      1.838240
  Si      4.849814     -3.163066     -0.230126
  C       6.088050     -2.604154      1.076121
  C       3.326855     -3.971760      0.538818
  C       5.646970     -4.292952     -1.528253
  H       5.592621     -1.874673      1.751701
  H       6.974634     -2.122001      0.615700
  H       6.441009     -3.466442      1.679423
  H       2.614064     -4.308430     -0.241374
  H       2.792878     -3.259904      1.200948
  H       3.616433     -4.857836      1.141535
  H       4.926473     -4.567320     -2.325940
  H       6.003854     -5.232613     -1.056850
  H       6.518803     -3.803951     -2.009362
  H       4.371764     -1.921880     -0.986496
51
Coordinates from ORCA-job my_molecule E -1977.867812044786
  Pt     -0.202193     -0.347896      0.736930
  O       1.473611     -1.012409      1.639256
  O      -2.046747      0.013197     -0.267312
  P       2.730572     -0.006260      1.555253
  P      -2.093931     -1.477307     -0.784985
  O      -3.469335     -2.240782     -0.356084
  O      -0.825385     -2.147737     -0.100742
  O       3.073356      0.228051     -0.043500
  O       3.905644     -0.433357      2.396180
  C       1.981777      1.648718      1.973576
  C      -2.118965     -1.646170     -2.614474
  C      -2.089902     -3.147736     -2.965628
  C      -0.856054     -0.936943     -3.146214
  C      -3.395105     -0.966016     -3.149902
  C       0.655020      1.747918      1.206644
  C       1.750227      1.667758      3.496176
  C       2.924008      2.788674      1.549295
  H      -3.567273     -2.258255      0.618345
  H       3.606132     -0.531777     -0.385399
  H      -1.191503     -3.642872     -2.546205
  H      -2.061204     -3.262047     -4.069305
  H      -2.987674     -3.673682     -2.586606
  H       0.068466     -1.390137     -2.737223
  H      -0.857312      0.140678     -2.889026
  H      -0.827290     -1.029310     -4.251590
  H      -4.311207     -1.464040     -2.777316
  H      -3.397724     -1.020205     -4.258478
  H      -3.436353      0.102978     -2.859640
  H      -0.203452      1.015648      1.730630
  H       0.781418      1.805588      0.107623
  H       0.059349      2.643118      1.501935
  H       1.067422      0.855091      3.818067
  H       1.310243      2.639378      3.806234
  H       2.708972      1.525808      4.031294
  H       3.107754      2.778177      0.457902
  H       3.902226      2.678631      2.059590
  H       2.497354      3.773932      1.835088
  Si      4.854144     -3.162294     -0.227756
  C       6.092959     -2.602769      1.077676
  C       3.330109     -3.967804      0.542574
  C       5.650558     -4.294986     -1.523790
  H       5.598462     -1.872681      1.753284
  H       6.979599     -2.120701      0.616707
  H       6.446165     -3.464730      1.681438
  H       2.614129     -4.300817     -0.236405
  H       2.799470     -3.255026      1.206429
  H       3.618147     -4.855029      1.144289
  H       4.930037     -4.570026     -2.320988
  H       6.006392     -5.234178     -1.050612
  H       6.522943     -3.808002     -2.005644
  H       4.377877     -1.921890     -0.985783
51
Coordinates from ORCA-job my_molecule E -1977.867815461696
  Pt     -0.204362     -0.348303      0.735925
  O       1.469511     -1.013647      1.641280
  O      -2.047884      0.014197     -0.268824
  P       2.727870     -0.009107      1.554627
  P      -2.096871     -1.476726     -0.785434
  O      -3.472626     -2.239183     -0.356177
  O      -0.828883     -2.148075     -0.101192
  O       3.069011      0.223490     -0.044724
  O       3.903423     -0.437624      2.394190
  C       1.981140      1.646713      1.971806
  C      -2.122702     -1.644542     -2.614879
  C      -2.096216     -3.145884     -2.967973
  C      -0.859422     -0.936416     -3.147047
  C      -3.398531     -0.962561     -3.148754
  C       0.654856      1.747367      1.204490
  C       1.749340      1.666154      3.494560
  C       2.924859      2.785459      1.548111
  H      -3.568447     -2.260814      0.618423
  H       3.602254     -0.536250     -0.386350
  H      -1.198003     -3.642639     -2.550015
  H      -2.069435     -3.258559     -4.071819
  H      -2.994024     -3.671010     -2.588183
  H       0.064752     -1.391619     -2.739382
  H      -0.858629      0.140602     -2.887416
  H      -0.831680     -1.026587     -4.252599
  H      -4.314656     -1.460167     -2.775762
  H      -3.402296     -1.015802     -4.257405
  H      -3.438560      0.106170     -2.857529
  H      -0.205206      1.016698      1.728236
  H       0.781859      1.804794      0.105501
  H       0.060619      2.643725      1.499329
  H       1.064259      0.855429      3.816579
  H       1.311303      2.638980      3.803806
  H       2.707848      1.523086      4.029833
  H       3.110721      2.774808      0.457041
  H       3.902061      2.675177      2.060058
  H       2.498757      3.771460      1.832473
  Si      4.860412     -3.162109     -0.226048
  C       6.098314     -2.601719      1.079789
  C       3.335965     -3.966842      0.544507
  C       5.658093     -4.295201     -1.520642
  H       5.603258     -1.872163      1.755688
  H       6.984693     -2.118395      0.619472
  H       6.452246     -3.463596      1.683558
  H       2.616645     -4.295537     -0.233374
  H       2.808705     -3.254245      1.211397
  H       3.623128     -4.855888      1.143896
  H       4.938513     -4.570957     -2.318355
  H       6.013819     -5.234013     -1.046566
  H       6.531045     -3.808442     -2.001628
  H       4.385087     -1.922217     -0.984685
51
Coordinates from ORCA-job my_molecule E -1977.867818849541
  Pt     -0.204604     -0.349215      0.735321
  O       1.467664     -1.014516      1.643298
  O      -2.047009      0.013842     -0.270728
  P       2.726770     -0.011022      1.554462
  P      -2.097026     -1.477382     -0.786409
  O      -3.472707     -2.239650     -0.356819
  O      -0.829370     -2.149064     -0.102006
  O       3.065927      0.221483     -0.045450
  O       3.903141     -0.440149      2.392427
  C       1.980600      1.644911      1.971273
  C      -2.123566     -1.644064     -2.615768
  C      -2.100054     -3.145270     -2.970545
  C      -0.859699     -0.937183     -3.148052
  C      -3.398856     -0.959791     -3.148295
  C       0.654543      1.746103      1.203732
  C       1.748207      1.664333      3.494240
  C       2.924507      2.783713      1.548775
  H      -3.567805     -2.263424      0.617807
  H       3.598929     -0.538273     -0.387638
  H      -1.202170     -3.643717     -2.553931
  H      -2.074948     -3.256406     -4.074429
  H      -2.998136     -3.669511     -2.590171
  H       0.063951     -1.395137     -2.742308
  H      -0.856006      0.139040     -2.885399
  H      -0.833367     -1.024517     -4.253734
  H      -4.315293     -1.456544     -2.775085
  H      -3.403524     -1.012232     -4.256949
  H      -3.437129      0.108749     -2.856155
  H      -0.206384      1.016078      1.726527
  H       0.781771      1.803626      0.104857
  H       0.060977      2.643122      1.498485
  H       1.061855      0.854588      3.815717
  H       1.311130      2.637779      3.802924
  H       2.706349      1.520916      4.030169
  H       3.112484      2.773635      0.457980
  H       3.900858      2.674395      2.062495
  H       2.497736      3.769924      1.831389
  Si      4.862744     -3.161171     -0.225314
  C       6.102997     -2.599573      1.077855
  C       3.338780     -3.963258      0.549297
  C       5.657930     -4.296870     -1.518749
  H       5.609474     -1.869515      1.754263
  H       6.988505     -2.116446      0.615647
  H       6.458099     -3.461049      1.681464
  H       2.613529     -4.286213     -0.225529
  H       2.818377     -3.250262      1.221142
  H       3.625220     -4.855150      1.144772
  H       4.937394     -4.573844     -2.315197
  H       6.013753     -5.235046     -1.043427
  H       6.530901     -3.811483     -2.001039
  H       4.388482     -1.921824     -0.985376
51
Coordinates from ORCA-job my_molecule E -1977.867822750766
  Pt     -0.204833     -0.349203      0.734399
  O       1.466819     -1.014650      1.642954
  O      -2.046949      0.013579     -0.271994
  P       2.726491     -0.012134      1.553803
  P      -2.097052     -1.477963     -0.786969
  O      -3.472531     -2.240454     -0.357265
  O      -0.829505     -2.149316     -0.102204
  O       3.065132      0.221810     -0.046184
  O       3.902788     -0.442000      2.391332
  C       1.980456      1.643902      1.970825
  C      -2.123942     -1.644199     -2.616142
  C      -2.101556     -3.145087     -2.971856
  C      -0.859972     -0.937565     -3.148318
  C      -3.399135     -0.958711     -3.147784
  C       0.654810      1.745964      1.202693
  C       1.746579      1.662992      3.493679
  C       2.924529      2.782949      1.549907
  H      -3.568042     -2.263718      0.617294
  H       3.598946     -0.537203     -0.388965
  H      -1.203487     -3.644320     -2.556474
  H      -2.077560     -3.255338     -4.075819
  H      -2.999590     -3.668990     -2.590959
  H       0.063590     -1.396344     -2.743262
  H      -0.855226      0.138162     -2.884278
  H      -0.834154     -1.023552     -4.254015
  H      -4.315762     -1.455443     -2.774875
  H      -3.403859     -1.010138     -4.256404
  H      -3.436829      0.109589     -2.854514
  H      -0.207062      1.016728      1.724590
  H       0.782275      1.803261      0.103793
  H       0.061844      2.643412      1.497179
  H       1.059340      0.853689      3.813869
  H       1.310115      2.636776      3.802119
  H       2.703978      1.518630      4.030745
  H       3.113653      2.774118      0.459256
  H       3.900393      2.673770      2.064602
  H       2.497239      3.769114      1.831856
  Si      4.863600     -3.160972     -0.224676
  C       6.105866     -2.599007      1.076552
  C       3.340622     -3.961828      0.553246
  C       5.656897     -4.297500     -1.518303
  H       5.613641     -1.867698      1.752462
  H       6.991416     -2.117668      0.612871
  H       6.460536     -3.460129      1.680770
  H       2.610768     -4.280417     -0.219107
  H       2.825956     -3.248889      1.229667
  H       3.626912     -4.856376      1.144735
  H       4.935372     -4.575692     -2.313520
  H       6.013870     -5.235128     -1.042787
  H       6.529104     -3.811937     -2.001854
  H       4.389442     -1.921411     -0.984858
51
Coordinates from ORCA-job my_molecule E -1977.867827464579
  Pt     -0.207938     -0.347979      0.732582
  O       1.463078     -1.014955      1.640406
  O      -2.049886      0.015478     -0.273797
  P       2.724364     -0.015155      1.551855
  P      -2.101184     -1.476479     -0.787874
  O      -3.477062     -2.238003     -0.357642
  O      -0.834478     -2.148214     -0.102238
  O       3.063589      0.220355     -0.048001
  O       3.899604     -0.446900      2.389644
  C       1.980564      1.641890      1.969493
  C      -2.128406     -1.643451     -2.616822
  C      -2.106481     -3.144315     -2.972253
  C      -0.864482     -0.936640     -3.148800
  C      -3.403442     -0.957250     -3.148411
  C       0.655213      1.746424      1.200776
  C       1.744796      1.661252      3.492076
  C       2.925984      2.780296      1.549956
  H      -3.573902     -2.258689      0.616762
  H       3.599468     -0.537310     -0.390644
  H      -1.208062     -3.643569     -2.557863
  H      -2.083532     -3.254860     -4.076195
  H      -3.004311     -3.668151     -2.590617
  H       0.059274     -1.395234     -2.743794
  H      -0.859429      0.138996     -2.884269
  H      -0.838847     -1.022169     -4.254534
  H      -4.320408     -1.453874     -2.776191
  H      -3.407591     -1.008113     -4.257000
  H      -3.440533      0.110966     -2.854411
  H      -0.208591      1.019239      1.721805
  H       0.782675      1.803111      0.101838
  H       0.064106      2.645272      1.494967
  H       1.055817      0.852990      3.810771
  H       1.310105      2.635928      3.800127
  H       2.700971      1.514474      4.030810
  H       3.115399      2.772716      0.459229
  H       3.901544      2.670182      2.064906
  H       2.499289      3.766772      1.831557
  Si      4.869850     -3.161365     -0.222269
  C       6.112329     -2.600242      1.079260
  C       3.347858     -3.962779      0.556932
  C       5.663383     -4.296206     -1.516982
  H       5.619791     -1.868382      1.754082
  H       6.998897     -2.120609      0.615943
  H       6.465211     -3.461477      1.684037
  H       2.613580     -4.275860     -0.213538
  H       2.839290     -3.251290      1.239581
  H       3.634063     -4.861319      1.142439
  H       4.941986     -4.575419     -2.312061
  H       6.022199     -5.233492     -1.042151
  H       6.534586     -3.808512     -2.000294
  H       4.395636     -1.920609     -0.981375
51
Coordinates from ORCA-job my_molecule E -1977.867831185225
  Pt     -0.211469     -0.348245      0.731122
  O       1.460182     -1.017017      1.636272
  O      -2.054372      0.016595     -0.273281
  P       2.722431     -0.019021      1.547956
  P      -2.106462     -1.475072     -0.788301
  O      -3.482809     -2.235995     -0.358402
  O      -0.840211     -2.147837     -0.102846
  O       3.061823      0.217085     -0.051839
  O       3.897144     -0.452142      2.385713
  C       1.980455      1.638721      1.966793
  C      -2.133793     -1.641142     -2.617293
  C      -2.110838     -3.141542     -2.973782
  C      -0.870341     -0.932877     -3.148612
  C      -3.409132     -0.954863     -3.148345
  C       0.654716      1.744838      1.198764
  C       1.744406      1.658163      3.489155
  C       2.926345      2.776687      1.547096
  H      -3.580366     -2.255253      0.615927
  H       3.602000     -0.538087     -0.393198
  H      -1.211697     -3.640519     -2.560605
  H      -2.088472     -3.251526     -4.077878
  H      -3.008124     -3.666247     -2.592149
  H       0.054112     -1.390884     -2.744486
  H      -0.866093      0.142533     -2.882910
  H      -0.845035     -1.017137     -4.254560
  H      -4.326100     -1.452480     -2.777369
  H      -3.412568     -1.003970     -4.256991
  H      -3.446708      0.112918     -2.852655
  H      -0.209688      1.018835      1.720391
  H       0.781319      1.801075      0.099680
  H       0.064990      2.644411      1.493328
  H       1.054552      0.850440      3.807318
  H       1.310841      2.633259      3.797350
  H       2.700065      1.509574      4.028483
  H       3.114738      2.769568      0.456152
  H       3.902279      2.665835      2.061094
  H       2.500156      3.763232      1.829101
  Si      4.877574     -3.161261     -0.218222
  C       6.120102     -2.600989      1.083701
  C       3.355653     -3.961759      0.561861
  C       5.671002     -4.295959     -1.513291
  H       5.627060     -1.868202      1.757127
  H       7.007692     -2.123243      0.620711
  H       6.471139     -3.462249      1.689472
  H       2.618451     -4.271059     -0.207300
  H       2.851314     -3.251079      1.248508
  H       3.641539     -4.862810      1.143646
  H       4.949669     -4.575592     -2.308357
  H       6.030372     -5.233048     -1.038519
  H       6.541820     -3.807518     -1.996592
  H       4.404271     -1.919680     -0.977130
51
Coordinates from ORCA-job my_molecule E -1977.867835879318
  Pt     -0.216185     -0.348706      0.729074
  O       1.456499     -1.020041      1.630216
  O      -2.060649      0.018163     -0.272266
  P       2.719941     -0.023881      1.542900
  P      -2.113937     -1.472813     -0.789017
  O      -3.490929     -2.232721     -0.359192
  O      -0.848022     -2.147315     -0.104484
  O       3.060126      0.212684     -0.056622
  O       3.893728     -0.459190      2.380822
  C       1.980462      1.634715      1.963658
  C      -2.141360     -1.637964     -2.618227
  C      -2.116741     -3.138056     -2.975310
  C      -0.878430     -0.928079     -3.148777
  C      -3.416847     -0.952011     -3.149316
  C       0.654093      1.742690      1.196462
  C       1.744780      1.654053      3.485804
  C       2.926980      2.772026      1.543243
  H      -3.589099     -2.249754      0.615120
  H       3.605796     -0.539267     -0.396183
  H      -1.216893     -3.636219     -2.562840
  H      -2.094537     -3.248030     -4.079492
  H      -3.013432     -3.664045     -2.593790
  H       0.046852     -1.384781     -2.745255
  H      -0.875864      0.147370     -2.882713
  H      -0.853133     -1.011743     -4.254837
  H      -4.333915     -1.450978     -2.780337
  H      -3.418947     -0.998892     -4.258089
  H      -3.455369      0.115224     -2.851736
  H      -0.210865      1.017929      1.719167
  H       0.779802      1.798747      0.097274
  H       0.065867      2.642972      1.491729
  H       1.054067      0.846803      3.803640
  H       1.312610      2.629503      3.794619
  H       2.699906      1.503423      4.025273
  H       3.113368      2.765062      0.451955
  H       3.903739      2.659942      2.055417
  H       2.501770      3.758556      1.826596
  Si      4.887908     -3.160810     -0.212815
  C       6.130260     -2.601927      1.089908
  C       3.366020     -3.960278      0.568115
  C       5.680984     -4.295238     -1.508652
  H       5.636356     -1.868375      1.761760
  H       7.019327     -2.125900      0.627950
  H       6.478834     -3.463386      1.696771
  H       2.626120     -4.266172     -0.199766
  H       2.865450     -3.250738      1.258621
  H       3.652060     -4.863537      1.146475
  H       4.959651     -4.574800     -2.303690
  H       6.040850     -5.232282     -1.034160
  H       6.551262     -3.806053     -1.992128
  H       4.415624     -1.918412     -0.971067
51
Coordinates from ORCA-job my_molecule E -1977.867840490016
  Pt     -0.221699     -0.349067      0.726639
  O       1.451535     -1.023760      1.624156
  O      -2.067804      0.020996     -0.271336
  P       2.716494     -0.029501      1.537527
  P      -2.122949     -1.469278     -0.789751
  O      -3.501087     -2.227322     -0.360017
  O      -0.857665     -2.146314     -0.106351
  O       3.057337      0.206939     -0.061662
  O       3.889422     -0.467784      2.375266
  C       1.980162      1.630081      1.960290
  C      -2.150154     -1.634177     -2.619104
  C      -2.124995     -3.134187     -2.976009
  C      -0.887032     -0.924294     -3.149396
  C      -3.425065     -0.947964     -3.151042
  C       0.653389      1.740368      1.193841
  C       1.745129      1.648865      3.482266
  C       2.927910      2.766196      1.539075
  H      -3.599273     -2.242345      0.614372
  H       3.607899     -0.542176     -0.399375
  H      -1.224974     -3.632038     -2.563491
  H      -2.102569     -3.244622     -4.080218
  H      -3.021545     -3.660439     -2.594605
  H       0.038651     -1.380124     -2.745907
  H      -0.885447      0.151544     -2.884396
  H      -0.861693     -1.008686     -4.255549
  H      -4.342736     -1.447509     -2.784185
  H      -3.425484     -0.992953     -4.260010
  H      -3.464163      0.118852     -2.852118
  H      -0.212348      1.016959      1.717719
  H       0.778712      1.796629      0.094585
  H       0.066938      2.641528      1.489864
  H       1.053364      0.842216      3.799859
  H       1.314283      2.624660      3.791939
  H       2.699856      1.496323      4.021695
  H       3.112369      2.759095      0.447503
  H       3.905510      2.652160      2.049258
  H       2.504322      3.752879      1.824247
  Si      4.900281     -3.159747     -0.206890
  C       6.141992     -2.601914      1.096823
  C       3.378668     -3.958988      0.574679
  C       5.693139     -4.293733     -1.503638
  H       5.646585     -1.868201      1.767423
  H       7.032201     -2.126406      0.636547
  H       6.488651     -3.463569      1.704611
  H       2.636334     -4.261728     -0.192098
  H       2.880921     -3.251290      1.269044
  H       3.665591     -4.864184      1.149646
  H       4.971879     -4.572907     -2.298775
  H       6.053542     -5.230767     -1.029556
  H       6.562903     -3.803830     -1.987289
  H       4.428644     -1.917019     -0.964297
51
Coordinates from ORCA-job my_molecule E -1977.867845040772
  Pt     -0.226158     -0.349811      0.724007
  O       1.447217     -1.027732      1.618584
  O      -2.073749      0.023322     -0.271100
  P       2.713444     -0.034636      1.532676
  P      -2.130692     -1.466122     -0.791070
  O      -3.509659     -2.222591     -0.361090
  O      -0.865663     -2.145613     -0.109319
  O       3.054654      0.202191     -0.066165
  O       3.885946     -0.476143      2.369445
  C       1.979453      1.625398      1.957787
  C      -2.157879     -1.630713     -2.620657
  C      -2.134070     -3.130922     -2.976989
  C      -0.893742     -0.922482     -3.150936
  C      -3.431401     -0.943132     -3.153774
  C       0.652472      1.737575      1.191832
  C       1.745296      1.642732      3.479779
  C       2.928222      2.760680      1.536444
  H      -3.607723     -2.235745      0.613405
  H       3.608779     -0.544899     -0.402578
  H      -1.234740     -3.629278     -2.563692
  H      -2.111190     -3.241935     -4.081156
  H      -3.031177     -3.656348     -2.595675
  H       0.031612     -1.378686     -2.747380
  H      -0.891777      0.153748     -2.887412
  H      -0.868461     -1.007960     -4.256973
  H      -4.350216     -1.442274     -2.789157
  H      -3.430049     -0.986409     -4.262930
  H      -3.470159      0.123322     -2.853769
  H      -0.213744      1.014918      1.716499
  H       0.777738      1.794705      0.092652
  H       0.067192      2.639284      1.488661
  H       1.052775      0.836358      3.796920
  H       1.315250      2.618482      3.790776
  H       2.699885      1.489002      4.018848
  H       3.111375      2.753631      0.444724
  H       3.906488      2.644838      2.045046
  H       2.506070      3.747403      1.823626
  Si      4.911413     -3.157608     -0.201324
  C       6.154725     -2.600016      1.100891
  C       3.390939     -3.955558      0.583854
  C       5.700922     -4.293163     -1.499013
  H       5.659109     -1.865879      1.770883
  H       7.045217     -2.124730      0.640830
  H       6.500646     -3.461482      1.709467
  H       2.644510     -4.254598     -0.180371
  H       2.897460     -3.249522      1.282764
  H       3.679332     -4.862786      1.154984
  H       4.978187     -4.571811     -2.292896
  H       6.061599     -5.230142     -1.025043
  H       6.570053     -3.804135     -1.984653
  H       4.440199     -1.915259     -0.958452
51
Coordinates from ORCA-job my_molecule E -1977.867849002223
  Pt     -0.228585     -0.350192      0.721507
  O       1.444483     -1.030517      1.614501
  O      -2.077188      0.025151     -0.271729
  P       2.711469     -0.037775      1.529421
  P      -2.135373     -1.463856     -0.792431
  O      -3.514870     -2.219249     -0.362218
  O      -0.870400     -2.144974     -0.112023
  O       3.053005      0.200437     -0.068945
  O       3.883815     -0.482205      2.365025
  C       1.978534      1.622187      1.956472
  C      -2.162613     -1.628640     -2.621997
  C      -2.141518     -3.129132     -2.977488
  C      -0.897005     -0.923390     -3.152729
  C      -3.434513     -0.939045     -3.156154
  C       0.651820      1.735832      1.190517
  C       1.744960      1.637462      3.478639
  C       2.928228      2.757041      1.536220
  H      -3.612946     -2.230839      0.612343
  H       3.608439     -0.545827     -0.405153
  H      -1.243341     -3.628812     -2.563142
  H      -2.118104     -3.240567     -4.081573
  H      -3.039683     -3.652604     -2.596130
  H       0.027384     -1.380534     -2.748111
  H      -0.893663      0.153312     -2.891604
  H      -0.871494     -1.011046     -4.258532
  H      -4.354639     -1.437013     -2.793030
  H      -3.431844     -0.981423     -4.265435
  H      -3.472297      0.127258     -2.855657
  H      -0.214721      1.013298      1.715120
  H       0.777584      1.794168      0.091431
  H       0.067093      2.637676      1.487937
  H       1.052212      0.830984      3.795043
  H       1.315048      2.612886      3.791096
  H       2.699717      1.483340      4.017159
  H       3.111116      2.750759      0.444537
  H       3.906713      2.639351      2.044205
  H       2.507362      3.743765      1.825357
  Si      4.918389     -3.155425     -0.197563
  C       6.164161     -2.597093      1.101913
  C       3.399852     -3.952928      0.592042
  C       5.703676     -4.292901     -1.496231
  H       5.669144     -1.862277      1.771637
  H       7.054281     -2.121946      0.641117
  H       6.510297     -3.457916      1.711307
  H       2.649649     -4.249332     -0.169525
  H       2.909909     -3.248265      1.294713
  H       3.690131     -4.861682      1.159789
  H       4.978742     -4.571212     -2.288199
  H       6.064765     -5.229810     -1.022479
  H       6.572075     -3.805208     -1.984569
  H       4.446676     -1.913803     -0.954587
51
Coordinates from ORCA-job my_molecule E -1977.867852898482
  Pt     -0.230904     -0.349909      0.718807
  O       1.441430     -1.032610      1.610846
  O      -2.079911      0.027333     -0.273556
  P       2.709274     -0.040409      1.526910
  P      -2.139626     -1.461509     -0.794201
  O      -3.519486     -2.215790     -0.363407
  O      -0.874748     -2.143864     -0.114788
  O       3.051544      0.199712     -0.070928
  O       3.881360     -0.487945      2.361264
  C       1.977416      1.619526      1.955562
  C      -2.167319     -1.626993     -2.623703
  C      -2.150224     -3.127993     -2.977918
  C      -0.899806     -0.925662     -3.155022
  C      -3.437312     -0.934776     -3.158815
  C       0.651163      1.734959      1.189421
  C       1.744402      1.632697      3.478080
  C       2.928623      2.753716      1.537171
  H      -3.618025     -2.225934      0.611128
  H       3.606843     -0.546752     -0.407266
  H      -1.253805     -3.629606     -2.562119
  H      -2.126179     -3.240053     -4.081862
  H      -3.049988     -3.648606     -2.596466
  H       0.023013     -1.384277     -2.748462
  H      -0.894291      0.151545     -2.896674
  H      -0.873629     -1.016135     -4.260426
  H      -4.358919     -1.430638     -2.796485
  H      -3.433789     -0.977262     -4.268145
  H      -3.473123      0.131620     -2.858534
  H      -0.215862      1.012669      1.713449
  H       0.777406      1.794460      0.090470
  H       0.066983      2.637106      1.487167
  H       1.051358      0.826300      3.793813
  H       1.314870      2.607875      3.792016
  H       2.699641      1.478124      4.015708
  H       3.111879      2.748580      0.445601
  H       3.906860      2.633711      2.045222
  H       2.509572      3.740756      1.828024
  Si      4.925227     -3.153366     -0.193998
  C       6.173453     -2.593690      1.102494
  C       3.409205     -3.951841      0.599726
  C       5.706386     -4.292272     -1.493840
  H       5.678947     -1.858517      1.772157
  H       7.062805     -2.118159      0.640692
  H       6.520561     -3.453611      1.712547
  H       2.655789     -4.246138     -0.159528
  H       2.922022     -3.248869      1.305902
  H       3.701626     -4.862175      1.163851
  H       4.979079     -4.570086     -2.283866
  H       6.067746     -5.229355     -1.020657
  H       6.574202     -3.806012     -1.984719
  H       4.452196     -1.912406     -0.950833
51
Coordinates from ORCA-job my_molecule E -1977.867856435300
  Pt     -0.232510     -0.349928      0.715999
  O       1.439528     -1.034634      1.606618
  O      -2.081777      0.028848     -0.275705
  P       2.707765     -0.042726      1.524184
  P      -2.142695     -1.459936     -0.796321
  O      -3.522853     -2.213387     -0.365289
  O      -0.877891     -2.143105     -0.117623
  O       3.050763      0.200283     -0.073050
  O       3.879692     -0.493065      2.357279
  C       1.976402      1.616835      1.954834
  C      -2.170924     -1.625871     -2.625681
  C      -2.158294     -3.127165     -2.979298
  C      -0.901317     -0.928592     -3.157260
  C      -3.439059     -0.930512     -3.161141
  C       0.650483      1.733955      1.188812
  C       1.744033      1.627517      3.477762
  C       2.928822      2.750818      1.538935
  H      -3.622399     -2.222318      0.609127
  H       3.605589     -0.546409     -0.409948
  H      -1.263820     -3.631382     -2.562375
  H      -2.133588     -3.239370     -4.083177
  H      -3.059962     -3.644573     -2.598127
  H       0.019664     -1.388996     -2.748428
  H      -0.893230      0.148995     -2.901108
  H      -0.874166     -1.021593     -4.262373
  H      -4.362092     -1.423984     -2.799079
  H      -3.435238     -0.973333     -4.270460
  H      -3.472305      0.136021     -2.861012
  H      -0.216552      1.011328      1.711926
  H       0.776876      1.794654      0.089923
  H       0.066636      2.636097      1.487177
  H       1.051095      0.820930      3.792727
  H       1.314745      2.602274      3.793475
  H       2.700068      1.472393      4.014155
  H       3.112614      2.747562      0.447468
  H       3.906593      2.628523      2.047397
  H       2.511400      3.738073      1.831522
  Si      4.930199     -3.150966     -0.190348
  C       6.182159     -2.588988      1.101536
  C       3.417452     -3.950113      0.609045
  C       5.706130     -4.292061     -1.491391
  H       5.689091     -1.852501      1.770796
  H       7.070410     -2.114267      0.637071
  H       6.530654     -3.447429      1.712811
  H       2.660259     -4.242339     -0.147242
  H       2.933882     -3.248351      1.318831
  H       3.712134     -4.862051      1.169345
  H       4.975462     -4.569831     -2.278460
  H       6.067853     -5.229211     -1.018645
  H       6.573063     -3.807852     -1.985938
  H       4.455091     -1.910801     -0.947468
51
Coordinates from ORCA-job my_molecule E -1977.867859643452
  Pt     -0.235766     -0.349613      0.713561
  O       1.436037     -1.036544      1.602646
  O      -2.084896      0.030964     -0.277598
  P       2.705206     -0.046013      1.521242
  P      -2.147657     -1.457853     -0.798096
  O      -3.528344     -2.209979     -0.366864
  O      -0.883310     -2.142050     -0.119642
  O       3.049156      0.198635     -0.075614
  O       3.876529     -0.498827      2.353849
  C       1.975648      1.614068      1.953027
  C      -2.176711     -1.623901     -2.627383
  C      -2.167646     -3.125283     -2.980991
  C      -0.905444     -0.929629     -3.158835
  C      -3.443485     -0.925819     -3.162517
  C       0.649736      1.733350      1.187459
  C       1.744144      1.623723      3.476309
  C       2.929773      2.747109      1.538577
  H      -3.628700     -2.218756      0.607419
  H       3.604229     -0.548066     -0.412320
  H      -1.274778     -3.631879     -2.563500
  H      -2.142469     -3.237424     -4.084836
  H      -3.070957     -3.640217     -2.600323
  H       0.013973     -1.391276     -2.747722
  H      -0.895531      0.148185     -2.903921
  H      -0.876938     -1.024385     -4.263731
  H      -4.367448     -1.417151     -2.799954
  H      -3.440116     -0.969278     -4.271780
  H      -3.474151      0.140888     -2.862661
  H      -0.217709      1.011362      1.710204
  H       0.775680      1.794266      0.088526
  H       0.066907      2.635999      1.486162
  H       1.050938      0.817547      3.791289
  H       1.316025      2.598600      3.793144
  H       2.700927      1.467379      4.011281
  H       3.113619      2.745159      0.447101
  H       3.907048      2.622485      2.047368
  H       2.514381      3.734945      1.832132
  Si      4.937954     -3.149795     -0.185691
  C       6.190838     -2.585676      1.104336
  C       3.427594     -3.951661      0.615414
  C       5.712598     -4.290621     -1.487786
  H       5.697355     -1.848927      1.772864
  H       7.078400     -2.110918      0.638661
  H       6.540476     -3.442925      1.716500
  H       2.669451     -4.243349     -0.140134
  H       2.944681     -3.251530      1.327227
  H       3.724139     -4.864569      1.173111
  H       4.980438     -4.568145     -2.273668
  H       6.074373     -5.228173     -1.015866
  H       6.579178     -3.807046     -1.983578
  H       4.460558     -1.909915     -0.942588
51
Coordinates from ORCA-job my_molecule E -1977.867863159732
  Pt     -0.238673     -0.350445      0.710504
  O       1.433617     -1.039552      1.596863
  O      -2.087616      0.032266     -0.279921
  P       2.703243     -0.050091      1.517128
  P      -2.152302     -1.456404     -0.800938
  O      -3.533707     -2.207046     -0.369816
  O      -0.888429     -2.141799     -0.122867
  O       3.047980      0.197319     -0.079228
  O       3.874027     -0.505260      2.349231
  C       1.975117      1.609949      1.951473
  C      -2.182317     -1.621985     -2.630210
  C      -2.178574     -3.123239     -2.984625
  C      -0.908376     -0.931974     -3.160889
  C      -3.446966     -0.919421     -3.164564
  C       0.648861      1.731380      1.186848
  C       1.744634      1.617595      3.475058
  C       2.930299      2.742803      1.539003
  H      -3.635158     -2.216080      0.604292
  H       3.603010     -0.549279     -0.416324
  H      -1.288215     -3.633785     -2.566618
  H      -2.152583     -3.234947     -4.088534
  H      -3.084495     -3.634701     -2.605451
  H       0.008793     -1.395939     -2.747203
  H      -0.895446      0.145981     -2.906366
  H      -0.878022     -1.027878     -4.265731
  H      -4.372238     -1.407458     -2.800993
  H      -3.444750     -0.963594     -4.273739
  H      -3.473331      0.147488     -2.864890
  H      -0.218288      1.009158      1.708937
  H       0.774049      1.792825      0.087855
  H       0.066868      2.634187      1.486618
  H       1.051724      0.811174      3.789690
  H       1.317219      2.592135      3.793748
  H       2.702361      1.459857      4.008404
  H       3.113968      2.743044      0.447420
  H       3.907044      2.616118      2.048023
  H       2.516352      3.730850      1.833904
  Si      4.944888     -3.147282     -0.179739
  C       6.201892     -2.579053      1.104510
  C       3.438641     -3.950306      0.627585
  C       5.714965     -4.289923     -1.483196
  H       5.709775     -1.840458      1.771922
  H       7.087886     -2.105987      0.634213
  H       6.553777     -3.434102      1.718426
  H       2.677528     -4.241409     -0.125099
  H       2.958873     -3.250925      1.342164
  H       3.738021     -4.863927      1.182567
  H       4.978987     -4.567808     -2.265524
  H       6.077042     -5.227592     -1.011733
  H       6.580306     -3.808445     -1.983156
  H       4.463674     -1.908565     -0.937224
51
Coordinates from ORCA-job my_molecule E -1977.867865814357
  Pt     -0.242541     -0.351032      0.708830
  O       1.429851     -1.042092      1.593694
  O      -2.091203      0.034023     -0.280701
  P       2.700545     -0.054374      1.513827
  P      -2.158020     -1.454465     -0.802288
  O      -3.540334     -2.203395     -0.371280
  O      -0.894913     -2.141482     -0.124481
  O       3.045375      0.192944     -0.082543
  O       3.870769     -0.510857      2.346065
  C       1.974787      1.606618      1.949040
  C      -2.188885     -1.619112     -2.631644
  C      -2.188108     -3.120063     -2.987106
  C      -0.913447     -0.931396     -3.161680
  C      -3.452309     -0.913669     -3.164997
  C       0.648094      1.729849      1.185154
  C       1.745014      1.614270      3.472651
  C       2.930932      2.738636      1.536370
  H      -3.641401     -2.214057      0.602833
  H       3.601829     -0.552874     -0.418943
  H      -1.299047     -3.633098     -2.569330
  H      -2.161922     -3.231245     -4.091088
  H      -3.095455     -3.629851     -2.608956
  H       0.002565     -1.396520     -2.746668
  H      -0.899070      0.146544     -2.906870
  H      -0.881811     -1.027349     -4.266543
  H      -4.378148     -1.399655     -2.800254
  H      -3.451430     -0.958156     -4.274113
  H      -3.475862      0.153325     -2.865391
  H      -0.219537      1.008589      1.707641
  H       0.772629      1.790809      0.086048
  H       0.067392      2.633283      1.485315
  H       1.051972      0.808067      3.787597
  H       1.318501      2.588981      3.791850
  H       2.702943      1.455412      4.005232
  H       3.113835      2.739400      0.444625
  H       3.907651      2.610846      2.045051
  H       2.517963      3.726970      1.831605
  Si      4.953682     -3.146832     -0.174439
  C       6.210589     -2.576078      1.108772
  C       3.449109     -3.952301      0.633337
  C       5.724584     -4.288463     -1.478525
  H       5.717409     -1.837440      1.775236
  H       7.095888     -2.102876      0.637182
  H       6.563666     -3.430069      1.723432
  H       2.688579     -4.244585     -0.119436
  H       2.968578     -3.253865      1.348308
  H       3.750248     -4.865504      1.188050
  H       4.988130     -4.566416     -2.260386
  H       6.086781     -5.226344     -1.007591
  H       6.589510     -3.806775     -1.978899
  H       4.469974     -1.908807     -0.931781
51
Coordinates from ORCA-job my_molecule E -1977.867869277272
  Pt     -0.245104     -0.353462      0.706376
  O       1.427948     -1.046045      1.589113
  O      -2.093268      0.034353     -0.282245
  P       2.699043     -0.059154      1.509644
  P      -2.162291     -1.453624     -0.805211
  O      -3.545660     -2.200674     -0.374359
  O      -0.899743     -2.142588     -0.128359
  O       3.043225      0.189464     -0.086662
  O       3.869104     -0.516513      2.341731
  C       1.974540      1.601737      1.947754
  C      -2.194404     -1.616376     -2.634811
  C      -2.200057     -3.116835     -2.992059
  C      -0.915703     -0.933672     -3.163613
  C      -3.455019     -0.904922     -3.166672
  C       0.647282      1.726316      1.184599
  C       1.744997      1.607630      3.471140
  C       2.930232      2.734405      1.535679
  H      -3.645827     -2.213862      0.599829
  H       3.600343     -0.555593     -0.423494
  H      -1.313861     -3.634869     -2.574358
  H      -2.173321     -3.227117     -4.096185
  H      -3.110367     -3.623040     -2.616043
  H      -0.002011     -1.401865     -2.746981
  H      -0.897650      0.144186     -2.907973
  H      -0.882229     -1.029075     -4.268567
  H      -4.382225     -1.386521     -2.799805
  H      -3.456678     -0.949916     -4.275687
  H      -3.472783      0.162223     -2.867291
  H      -0.220096      1.004771      1.706933
  H       0.771503      1.787463      0.085497
  H       0.067219      2.629783      1.485892
  H       1.052852      0.800170      3.785252
  H       1.317697      2.581496      3.791766
  H       2.702887      1.448318      4.003567
  H       3.112199      2.736839      0.443695
  H       3.907172      2.606537      2.043624
  H       2.516618      3.722115      1.832045
  Si      4.960534     -3.144729     -0.168058
  C       6.222896     -2.568357      1.107392
  C       3.460424     -3.949772      0.648017
  C       5.726547     -4.288901     -1.473161
  H       5.731945     -1.827297      1.772726
  H       7.105875     -2.097246      0.629127
  H       6.579059     -3.419802      1.723851
  H       2.697237     -4.244084     -0.101107
  H       2.982845     -3.250374      1.363883
  H       3.765163     -4.861413      1.203399
  H       4.985979     -4.567995     -2.250736
  H       6.089797     -5.226266     -1.002049
  H       6.589332     -3.809009     -1.978838
  H       4.471734     -1.909369     -0.926399
51
Coordinates from ORCA-job my_molecule E -1977.867871499969
  Pt     -0.246805     -0.354411      0.705671
  O       1.426034     -1.047779      1.588454
  O      -2.094693      0.035173     -0.282403
  P       2.697728     -0.061524      1.507966
  P      -2.165055     -1.452565     -0.805928
  O      -3.549124     -2.198453     -0.375056
  O      -0.902994     -2.142929     -0.129656
  O       3.040897      0.186401     -0.088571
  O       3.867973     -0.519016      2.339791
  C       1.974146      1.599701      1.946641
  C      -2.197739     -1.614269     -2.635632
  C      -2.205947     -3.114513     -2.993551
  C      -0.917942     -0.933517     -3.164204
  C      -3.457263     -0.900449     -3.166788
  C       0.646810      1.724807      1.183513
  C       1.744361      1.605400      3.469806
  C       2.929567      2.732429      1.534026
  H      -3.647825     -2.213540      0.599286
  H       3.599355     -0.557755     -0.425030
  H      -1.320647     -3.634365     -2.576127
  H      -2.179416     -3.224359     -4.097730
  H      -3.117153     -3.619419     -2.617949
  H      -0.004929     -1.402793     -2.747332
  H      -0.898534      0.144312     -2.908537
  H      -0.884030     -1.028626     -4.269168
  H      -4.384953     -1.380140     -2.798697
  H      -3.460280     -0.945731     -4.275760
  H      -3.472749      0.166805     -2.867728
  H      -0.221097      1.003795      1.706171
  H       0.771283      1.785823      0.084426
  H       0.067279      2.628557      1.484939
  H       1.052549      0.797351      3.783531
  H       1.316308      2.578955      3.790464
  H       2.701755      1.446527      4.002892
  H       3.110902      2.734986      0.441948
  H       3.907044      2.604918      2.041122
  H       2.515430      3.719779      1.830854
  Si      4.965423     -3.144994     -0.165230
  C       6.228583     -2.566475      1.108503
  C       3.466559     -3.950775      0.652401
  C       5.731566     -4.289031     -1.470441
  H       5.737685     -1.825047      1.773457
  H       7.110722     -2.095259      0.628707
  H       6.585804     -3.417132      1.725446
  H       2.703680     -4.247239     -0.096172
  H       2.988412     -3.250951      1.367450
  H       3.772743     -4.860952      1.209393
  H       4.990679     -4.568792     -2.247417
  H       6.095824     -5.225946     -0.999271
  H       6.593477     -3.808521     -1.976990
  H       4.474528     -1.910985     -0.923679
51
Coordinates from ORCA-job my_molecule E -1977.867874058638
  Pt     -0.246441     -0.356271      0.704631
  O       1.426373     -1.049604      1.587603
  O      -2.093939      0.034624     -0.283290
  P       2.697897     -0.062646      1.506617
  P      -2.165033     -1.452745     -0.807554
  O      -3.549565     -2.197928     -0.376544
  O      -0.903006     -2.144199     -0.132400
  O       3.039420      0.186212     -0.090065
  O       3.869018     -0.519988      2.337321
  C       1.973440      1.597704      1.947186
  C      -2.198328     -1.613005     -2.637434
  C      -2.211314     -3.113063     -2.996083
  C      -0.916497     -0.935867     -3.165622
  C      -3.455789     -0.895071     -3.167853
  C       0.646397      1.722625      1.183517
  C       1.742527      1.601412      3.469992
  C       2.927379      2.731951      1.535355
  H      -3.646639     -2.214655      0.597986
  H       3.598536     -0.557142     -0.427197
  H      -1.327828     -3.635985     -2.578567
  H      -2.184807     -3.222266     -4.100288
  H      -3.124219     -3.615280     -2.621032
  H      -0.004845     -1.407534     -2.748528
  H      -0.894207      0.141901     -2.910205
  H      -0.882150     -1.030666     -4.270519
  H      -4.384617     -1.371181     -2.798013
  H      -3.460705     -0.941108     -4.276729
  H      -3.467283      0.172418     -2.869563
  H      -0.221679      1.001135      1.705723
  H       0.771760      1.784437      0.084609
  H       0.066427      2.626043      1.485322
  H       1.051894      0.791469      3.781943
  H       1.311873      2.573686      3.791280
  H       2.699119      1.444176      4.004605
  H       3.108340      2.735806      0.443229
  H       3.905722      2.605495      2.041196
  H       2.511474      3.718084      1.833832
  Si      4.966441     -3.144749     -0.163131
  C       6.235325     -2.562063      1.103210
  C       3.471243     -3.948887      0.662822
  C       5.727756     -4.291493     -1.468759
  H       5.747827     -1.818145      1.767899
  H       7.115409     -2.092576      0.617875
  H       6.594817     -3.410785      1.721512
  H       2.705734     -4.248338     -0.081817
  H       2.995619     -3.246634      1.377087
  H       3.780094     -4.856658      1.222285
  H       4.983772     -4.573327     -2.242005
  H       6.094924     -5.226931     -0.996989
  H       6.586962     -3.811261     -1.980220
  H       4.471303     -1.913660     -0.922420
51
Coordinates from ORCA-job my_molecule E -1977.867875771565
  Pt     -0.246734     -0.356601      0.704128
  O       1.425721     -1.050182      1.587521
  O      -2.093951      0.035254     -0.283893
  P       2.697395     -0.063106      1.506103
  P      -2.165656     -1.452089     -0.808125
  O      -3.550603     -2.196609     -0.376974
  O      -0.903902     -2.144269     -0.133301
  O       3.038074      0.186127     -0.090656
  O       3.869060     -0.520834      2.335847
  C       1.972796      1.596938      1.947215
  C      -2.199013     -1.612112     -2.637990
  C      -2.213938     -3.112236     -2.996556
  C      -0.916567     -0.936347     -3.166264
  C      -3.455725     -0.892772     -3.168353
  C       0.646147      1.722064      1.183115
  C       1.741194      1.599824      3.469920
  C       2.926411      2.731641      1.535946
  H      -3.647033     -2.213487      0.597632
  H       3.598019     -0.556607     -0.427795
  H      -1.331095     -3.636102     -2.578840
  H      -2.187585     -3.221316     -4.100741
  H      -3.127360     -3.613178     -2.621193
  H      -0.005346     -1.408987     -2.749273
  H      -0.893021      0.141472     -2.911517
  H      -0.882407     -1.031411     -4.271101
  H      -4.385107     -1.367097     -2.797543
  H      -3.461444     -0.939801     -4.277160
  H      -3.465614      0.175015     -2.871019
  H      -0.222529      1.000824      1.705042
  H       0.772047      1.784348      0.084291
  H       0.066213      2.625546      1.484903
  H       1.050879      0.789205      3.780975
  H       1.309396      2.571658      3.791222
  H       2.697342      1.443546      4.005422
  H       3.107194      2.736172      0.443822
  H       3.905332      2.605190      2.040891
  H       2.510241      3.717326      1.835614
  Si      4.967692     -3.145541     -0.162202
  C       6.238602     -2.560785      1.101259
  C       3.474415     -3.950127      0.666832
  C       5.728149     -4.292472     -1.468052
  H       5.752363     -1.815975      1.765895
  H       7.117754     -2.091583      0.614043
  H       6.599128     -3.408546      1.720249
  H       2.708350     -4.251822     -0.076374
  H       2.998863     -3.246689      1.379985
  H       3.784558     -4.856438      1.227901
  H       4.983547     -4.575967     -2.240089
  H       6.098003     -5.226785     -0.996170
  H       6.585694     -3.810915     -1.981147
  H       4.469979     -1.915894     -0.921635
51
Coordinates from ORCA-job my_molecule E -1977.867878324663
  Pt     -0.247441     -0.357074      0.702938
  O       1.424770     -1.051332      1.586092
  O      -2.094118      0.036152     -0.285615
  P       2.696509     -0.064083      1.505064
  P      -2.166700     -1.451195     -0.809690
  O      -3.552216     -2.194692     -0.378380
  O      -0.905310     -2.144228     -0.135161
  O       3.036567      0.186944     -0.091610
  O       3.868823     -0.523171      2.333117
  C       1.971723      1.595329      1.947613
  C      -2.199995     -1.611077     -2.639558
  C      -2.218531     -3.111275     -2.998131
  C      -0.916174     -0.937923     -3.167669
  C      -3.455182     -0.888974     -3.169976
  C       0.645727      1.721206      1.182888
  C       1.739085      1.596399      3.470271
  C       2.925288      2.730719      1.538201
  H      -3.648674     -2.210681      0.596234
  H       3.597182     -0.555187     -0.429102
  H      -1.337174     -3.637132     -2.579738
  H      -2.191889     -3.220113     -4.102250
  H      -3.133243     -3.609676     -2.622692
  H      -0.005992     -1.412836     -2.750856
  H      -0.889988      0.139881     -2.913570
  H      -0.882348     -1.033263     -4.272447
  H      -4.385771     -1.359885     -2.797735
  H      -3.461979     -0.937918     -4.278645
  H      -3.461914      0.179335     -2.874361
  H      -0.223784      1.000216      1.703989
  H       0.772112      1.784454      0.084176
  H       0.065804      2.624716      1.484831
  H       1.049020      0.784991      3.779788
  H       1.306111      2.567605      3.791991
  H       2.694858      1.440899      4.006609
  H       3.105971      2.737062      0.446085
  H       3.904809      2.603376      2.042013
  H       2.509370      3.715843      1.840151
  Si      4.968898     -3.146313     -0.160242
  C       6.244952     -2.556989      1.096116
  C       3.480341     -3.951463      0.676575
  C       5.726274     -4.294181     -1.466964
  H       5.761708     -1.810097      1.760612
  H       7.121992     -2.089008      0.604059
  H       6.608077     -3.402487      1.716638
  H       2.712118     -4.256797     -0.062973
  H       3.006189     -3.245713      1.388387
  H       3.793282     -4.855445      1.239747
  H       4.979453     -4.581169     -2.235587
  H       6.101510     -5.226313     -0.995001
  H       6.580224     -3.810682     -1.984323
  H       4.465607     -1.919289     -0.920101
51
Coordinates from ORCA-job my_molecule E -1977.867881549383
  Pt     -0.250361     -0.357514      0.701122
  O       1.421635     -1.053728      1.582937
  O      -2.096279      0.038374     -0.287852
  P       2.693918     -0.067254      1.502621
  P      -2.170788     -1.448938     -0.811884
  O      -3.557454     -2.190419     -0.380660
  O      -0.910367     -2.143682     -0.137336
  O       3.033684      0.185886     -0.093854
  O       3.866597     -0.529035      2.328725
  C       1.970404      1.591949      1.946979
  C      -2.203796     -1.608792     -2.641728
  C      -2.226755     -3.108985     -3.000568
  C      -0.918120     -0.938932     -3.169399
  C      -3.456928     -0.883147     -3.172412
  C       0.644899      1.719696      1.182102
  C       1.737278      1.591396      3.469716
  C       2.924943      2.727251      1.539659
  H      -3.654824     -2.204574      0.593865
  H       3.595396     -0.555473     -0.431377
  H      -1.347456     -3.637502     -2.581237
  H      -2.199422     -3.217566     -4.104662
  H      -3.143284     -3.604209     -2.625513
  H      -0.009332     -1.417148     -2.753183
  H      -0.888317      0.138735     -2.915308
  H      -0.885008     -1.034163     -4.274230
  H      -4.389152     -1.349812     -2.798777
  H      -3.464640     -0.934429     -4.280930
  H      -3.459668      0.185782     -2.878852
  H      -0.225871      0.999601      1.702472
  H       0.771214      1.783863      0.083422
  H       0.065804      2.623614      1.484472
  H       1.046815      0.779981      3.778126
  H       1.304464      2.562508      3.791937
  H       2.693016      1.435566      4.006131
  H       3.105093      2.735829      0.447474
  H       3.904921      2.597594      2.042170
  H       2.510697      3.712271      1.844307
  Si      4.973467     -3.147103     -0.155975
  C       6.254953     -2.551085      1.091887
  C       3.491482     -3.954523      0.689961
  C       5.728646     -4.295026     -1.463958
  H       5.774257     -1.802298      1.756064
  H       7.129079     -2.083939      0.594009
  H       6.622109     -3.393437      1.714244
  H       2.721160     -4.264849     -0.045394
  H       3.018265     -3.246474      1.400137
  H       3.808500     -4.855505      1.255504
  H       4.979638     -4.586948     -2.228591
  H       6.111182     -5.224291     -0.992119
  H       6.577870     -3.808262     -1.986095
  H       4.462365     -1.923387     -0.916342
51
Coordinates from ORCA-job my_molecule E -1977.867885697547
  Pt     -0.254779     -0.358201      0.698988
  O       1.416998     -1.057308      1.578953
  O      -2.099845      0.041143     -0.290371
  P       2.690217     -0.072449      1.499652
  P      -2.176803     -1.446056     -0.814591
  O      -3.564817     -2.185099     -0.383567
  O      -0.917628     -2.142898     -0.139922
  O       3.030406      0.182570     -0.096574
  O       3.862694     -0.537593      2.324207
  C       1.969158      1.587214      1.945726
  C      -2.209651     -1.605605     -2.644451
  C      -2.236843     -3.105547     -3.004128
  C      -0.922065     -0.938976     -3.171660
  C      -3.460673     -0.876195     -3.175219
  C       0.643865      1.717479      1.181049
  C       1.736014      1.585764      3.468628
  C       2.925608      2.721548      1.540151
  H      -3.663365     -2.197319      0.590837
  H       3.593119     -0.558187     -0.433815
  H      -1.359671     -3.637004     -2.584061
  H      -2.208556     -3.213630     -4.108223
  H      -3.155327     -3.597896     -2.630088
  H      -0.014600     -1.421206     -2.757094
  H      -0.888177      0.138287     -2.916185
  H      -0.890463     -1.032958     -4.276737
  H      -4.394530     -1.338853     -2.800580
  H      -3.469032     -0.929223     -4.283634
  H      -3.459473      0.193162     -2.883199
  H      -0.228207      0.998586      1.700975
  H       0.769640      1.782315      0.082331
  H       0.066091      2.622033      1.484031
  H       1.044421      0.775274      3.776612
  H       1.304883      2.557371      3.791288
  H       2.691949      1.428270      4.004426
  H       3.105002      2.732151      0.447832
  H       3.905631      2.588587      2.041719
  H       2.514049      3.706956      1.847089
  Si      4.980052     -3.147572     -0.150204
  C       6.267030     -2.543215      1.088175
  C       3.505735     -3.957723      0.705993
  C       5.733637     -4.295434     -1.459342
  H       5.788379     -1.792897      1.752034
  H       7.137515     -2.076549      0.583561
  H       6.639594     -3.381885      1.712284
  H       2.733550     -4.274404     -0.024722
  H       3.033109     -3.247105      1.414010
  H       3.827793     -4.854790      1.274743
  H       4.982504     -4.593224     -2.219590
  H       6.124121     -5.221422     -0.987458
  H       6.577595     -3.805090     -1.986626
  H       4.460078     -1.927729     -0.911445
51
Coordinates from ORCA-job my_molecule E -1977.867891782138
  Pt     -0.261786     -0.359475      0.696123
  O       1.409472     -1.063196      1.573401
  O      -2.105547      0.045200     -0.293580
  P       2.684374     -0.081223      1.495123
  P      -2.186362     -1.441627     -0.818485
  O      -3.576472     -2.176942     -0.388010
  O      -0.929204     -2.141926     -0.143548
  O       3.025006      0.175637     -0.100793
  O       3.856253     -0.551033      2.318102
  C       1.967771      1.579564      1.943566
  C      -2.219063     -1.600519     -2.648421
  C      -2.252459     -3.099955     -3.009407
  C      -0.928454     -0.939049     -3.174973
  C      -3.466680     -0.865406     -3.179444
  C       0.642387      1.713630      1.179615
  C       1.735295      1.577669      3.466617
  C       2.927452      2.711734      1.539500
  H      -3.676689     -2.186837      0.586225
  H       3.588570     -0.564674     -0.437712
  H      -1.378464     -3.635881     -2.588487
  H      -2.222808     -3.207512     -4.113609
  H      -3.173882     -3.588400     -2.637409
  H      -0.023028     -1.427560     -2.763431
  H      -0.888309      0.137351     -2.916329
  H      -0.899403     -1.030250     -4.280444
  H      -4.402899     -1.323010     -2.804395
  H      -3.475204     -0.919580     -4.287827
  H      -3.460157      0.204195     -2.888483
  H      -0.231297      0.996422      1.699304
  H       0.767320      1.779041      0.080820
  H       0.066853      2.619187      1.483689
  H       1.041515      0.769248      3.774770
  H       1.307740      2.550515      3.789848
  H       2.691590      1.416729      4.001086
  H       3.105406      2.724552      0.446950
  H       3.907169      2.573859      2.040159
  H       2.520071      3.698083      1.848877
  Si      4.990316     -3.147468     -0.141499
  C       6.283811     -2.530389      1.083967
  C       3.527112     -3.961923      0.729028
  C       5.742863     -4.294983     -1.451839
  H       5.806826     -1.778812      1.747462
  H       7.148774     -2.063486      0.570111
  H       6.664853     -3.363867      1.709915
  H       2.752585     -4.287943      0.004931
  H       3.055153     -3.248260      1.434412
  H       3.857161     -4.853052      1.302334
  H       4.989192     -4.601463     -2.206002
  H       6.144215     -5.216192     -0.979582
  H       6.579353     -3.799655     -1.986214
  H       4.457641     -1.933601     -0.904200
51
Coordinates from ORCA-job my_molecule E -1977.867899181826
  Pt     -0.269092     -0.360533      0.693062
  O       1.400627     -1.069586      1.569280
  O      -2.111163      0.049961     -0.297520
  P       2.677809     -0.091270      1.491691
  P      -2.196300     -1.436486     -0.822843
  O      -3.588530     -2.167761     -0.392483
  O      -0.941246     -2.140530     -0.147758
  O       3.019309      0.166254     -0.104023
  O       3.848479     -0.565564      2.313973
  C       1.966543      1.571445      1.941789
  C      -2.229579     -1.594994     -2.652818
  C      -2.269559     -3.093853     -3.014729
  C      -0.935878     -0.939508     -3.179716
  C      -3.473601     -0.853857     -3.183936
  C       0.641189      1.709710      1.178212
  C       1.734584      1.570021      3.464880
  C       2.930382      2.700421      1.538513
  H      -3.689474     -2.176254      0.581694
  H       3.582418     -0.574528     -0.440605
  H      -1.398683     -3.634459     -2.593311
  H      -2.238836     -3.201171     -4.118985
  H      -3.193944     -3.578428     -2.644827
  H      -0.032415     -1.434814     -2.772145
  H      -0.888749      0.135895     -2.917390
  H      -0.910508     -1.027403     -4.285682
  H      -4.412114     -1.306999     -2.809181
  H      -3.481794     -0.907833     -4.292407
  H      -3.462066      0.215609     -2.892936
  H      -0.234166      0.994316      1.697670
  H       0.765908      1.775382      0.079396
  H       0.068195      2.616484      1.483191
  H       1.037793      0.764507      3.773528
  H       1.311601      2.544575      3.788414
  H       2.690850      1.404662      3.998273
  H       3.107223      2.714513      0.445747
  H       3.909220      2.557294      2.039111
  H       2.527543      3.688123      1.849305
  Si      5.001370     -3.146997     -0.133003
  C       6.300347     -2.515730      1.079536
  C       3.550048     -3.966267      0.752426
  C       5.753961     -4.294180     -1.443803
  H       5.823940     -1.763982      1.743124
  H       7.158919     -2.047200      0.556427
  H       6.691302     -3.343940      1.706479
  H       2.773814     -4.303502      0.035395
  H       3.078036     -3.249724      1.454822
  H       3.889648     -4.850104      1.331313
  H       4.998221     -4.610060     -2.191874
  H       6.166101     -5.210175     -0.970602
  H       6.582791     -3.793930     -1.985350
  H       4.455458     -1.940083     -0.897509
51
Coordinates from ORCA-job my_molecule E -1977.867908555929
  Pt     -0.276870     -0.361881      0.689489
  O       1.390277     -1.077209      1.565618
  O      -2.117098      0.055299     -0.301816
  P       2.670420     -0.103229      1.487977
  P      -2.207100     -1.430472     -0.827957
  O      -3.601569     -2.157443     -0.397690
  O      -0.954367     -2.138988     -0.153099
  O       3.012206      0.154086     -0.107663
  O       3.839805     -0.581819      2.309889
  C       1.965268      1.561839      1.939725
  C      -2.241662     -1.588091     -2.658013
  C      -2.289493     -3.086286     -3.020724
  C      -0.944605     -0.939791     -3.185901
  C      -3.481570     -0.839986     -3.188796
  C       0.639844      1.704740      1.176663
  C       1.734227      1.561232      3.462728
  C       2.933831      2.686795      1.536449
  H      -3.702493     -2.165851      0.576518
  H       3.575038     -0.587234     -0.443650
  H      -1.421954     -3.632162     -2.599324
  H      -2.258389     -3.193517     -4.125177
  H      -3.216994     -3.566527     -2.652767
  H      -0.043376     -1.443006     -2.783631
  H      -0.889342      0.134100     -2.918688
  H      -0.923983     -1.023034     -4.292260
  H      -4.422500     -1.289348     -2.815543
  H      -3.488775     -0.891673     -4.297512
  H      -3.465041      0.228807     -2.895883
  H      -0.236980      0.990912      1.695986
  H       0.764821      1.770616      0.077908
  H       0.069640      2.612810      1.482762
  H       1.033662      0.759289      3.772062
  H       1.316592      2.537828      3.786721
  H       2.690155      1.390546      3.995237
  H       3.109295      2.701478      0.443498
  H       3.911605      2.538186      2.037203
  H       2.535842      3.676095      1.848295
  Si      5.013901     -3.146032     -0.123655
  C       6.317879     -2.497662      1.074547
  C       3.576456     -3.970919      0.779062
  C       5.767149     -4.293449     -1.433866
  H       5.841275     -1.746332      1.738313
  H       7.168773     -2.026275      0.541368
  H       6.720579     -3.319888      1.702011
  H       2.798317     -4.321573      0.070738
  H       3.104506     -3.251710      1.478652
  H       3.928198     -4.845878      1.364145
  H       5.009323     -4.620707     -2.174756
  H       6.191144     -5.203003     -0.958728
  H       6.587160     -3.788242     -1.984015
  H       4.452903     -1.947976     -0.890635
51
Coordinates from ORCA-job my_molecule E -1977.867918624837
  Pt     -0.280918     -0.361720      0.686396
  O       1.382348     -1.081820      1.566057
  O      -2.118934      0.059936     -0.307163
  P       2.665169     -0.111359      1.488293
  P      -2.212402     -1.425554     -0.832828
  O      -3.608251     -2.149351     -0.401652
  O      -0.961128     -2.136944     -0.158168
  O       3.007401      0.145079     -0.107370
  O       3.833181     -0.592417      2.310876
  C       1.964445      1.555838      1.940529
  C      -2.249054     -1.583769     -2.662761
  C      -2.303245     -3.081738     -3.024514
  C      -0.949851     -0.941827     -3.193365
  C      -3.486099     -0.830629     -3.192945
  C       0.639754      1.702475      1.176523
  C       1.732884      1.555969      3.463228
  C       2.937227      2.677230      1.537421
  H      -3.707871     -2.158592      0.572726
  H       3.568368     -0.597583     -0.443333
  H      -1.437597     -3.631148     -2.603703
  H      -2.273026     -3.189776     -4.128943
  H      -3.232661     -3.558471     -2.656634
  H      -0.050055     -1.451127     -2.795895
  H      -0.887699      0.130969     -2.923040
  H      -0.934256     -1.021824     -4.299992
  H      -4.428587     -1.278194     -2.821501
  H      -3.492128     -0.879170     -4.301941
  H      -3.466484      0.237264     -2.897330
  H      -0.238151      0.989369      1.694740
  H       0.766617      1.768486      0.078009
  H       0.071333      2.611443      1.482987
  H       1.028509      0.757240      3.772223
  H       1.319514      2.534237      3.787555
  H       2.687508      1.380585      3.996408
  H       3.112728      2.691483      0.444483
  H       3.913711      2.524627      2.039295
  H       2.542616      3.667823      1.849412
  Si      5.019943     -3.145558     -0.119239
  C       6.327780     -2.482028      1.066534
  C       3.595265     -3.975337      0.799478
  C       5.773603     -4.293848     -1.428048
  H       5.851110     -1.731459      1.731048
  H       7.171536     -2.007416      0.524888
  H       6.740957     -3.299386      1.693732
  H       2.814987     -4.338146      0.099847
  H       3.123991     -3.254316      1.497537
  H       3.959018     -4.842230      1.389330
  H       5.013770     -4.631950     -2.161900
  H       6.208128     -5.197059     -0.950403
  H       6.585434     -3.784851     -1.986762
  H       4.445493     -1.955987     -0.888314
51
Coordinates from ORCA-job my_molecule E -1977.867930162288
  Pt     -0.285164     -0.361338      0.682145
  O       1.373522     -1.086847      1.565577
  O      -2.121513      0.065073     -0.312605
  P       2.659587     -0.120210      1.487078
  P      -2.218491     -1.419887     -0.838306
  O      -3.615591     -2.140786     -0.406245
  O      -0.968591     -2.134476     -0.164465
  O       3.001436      0.135076     -0.108709
  O       3.826563     -0.603597      2.309930
  C       1.963372      1.548986      1.940253
  C      -2.257981     -1.578033     -2.668129
  C      -2.319358     -3.075888     -3.028853
  C      -0.957023     -0.942459     -3.201777
  C      -3.492434     -0.819573     -3.196539
  C       0.639414      1.699983      1.175670
  C       1.731657      1.548739      3.462688
  C       2.940102      2.666965      1.537297
  H      -3.713298     -2.152722      0.568327
  H       3.563216     -0.607572     -0.443484
  H      -1.455334     -3.628788     -2.609358
  H      -2.291400     -3.184620     -4.133377
  H      -3.250298     -3.548546     -2.659595
  H      -0.058749     -1.457610     -2.808940
  H      -0.888121      0.129027     -2.928558
  H      -0.946122     -1.019078     -4.308387
  H      -4.436279     -1.266277     -2.827541
  H      -3.497503     -0.863306     -4.305874
  H      -3.469831      0.247005     -2.896505
  H      -0.239348      0.987361      1.692645
  H       0.768190      1.766422      0.077456
  H       0.072939      2.609967      1.482687
  H       1.023335      0.752989      3.770627
  H       1.322094      2.528354      3.788251
  H       2.684766      1.368659      3.996848
  H       3.115657      2.680580      0.444474
  H       3.915852      2.510894      2.039582
  H       2.548500      3.658580      1.850046
  Si      5.028502     -3.145141     -0.113566
  C       6.339069     -2.464981      1.059783
  C       3.617768     -3.981061      0.821661
  C       5.782530     -4.295220     -1.419915
  H       5.861279     -1.715116      1.724240
  H       7.175436     -1.986353      0.510209
  H       6.762613     -3.276772      1.687320
  H       2.834513     -4.355493      0.131687
  H       3.147898     -3.259855      1.520319
  H       3.995231     -4.840636      1.413819
  H       5.020292     -4.645220     -2.145638
  H       6.227848     -5.191253     -0.938902
  H       6.585648     -3.783345     -1.988523
  H       4.439531     -1.965133     -0.885016
51
Coordinates from ORCA-job my_molecule E -1977.867942343735
  Pt     -0.287279     -0.359241      0.677111
  O       1.365725     -1.089368      1.566839
  O      -2.120999      0.070708     -0.320996
  P       2.654923     -0.126301      1.489214
  P      -2.221073     -1.414413     -0.844971
  O      -3.619172     -2.132179     -0.410871
  O      -0.972092     -2.130944     -0.171543
  O       2.997887      0.128588     -0.106505
  O       3.820276     -0.611966      2.313071
  C       1.962415      1.544615      1.942973
  C      -2.263949     -1.574589     -2.674448
  C      -2.333211     -3.072787     -3.032608
  C      -0.961467     -0.946090     -3.212224
  C      -3.496130     -0.810931     -3.200751
  C       0.640441      1.700535      1.176089
  C       1.728364      1.542635      3.465029
  C       2.943011      2.659975      1.542216
  H      -3.714940     -2.145727      0.563875
  H       3.558645     -0.615134     -0.440583
  H      -1.470540     -3.628811     -2.614256
  H      -2.308187     -3.183009     -4.136883
  H      -3.265453     -3.540226     -2.660140
  H      -0.064823     -1.466679     -2.822665
  H      -0.885336      0.124739     -2.938648
  H      -0.954878     -1.021584     -4.318835
  H      -4.441215     -1.255918     -2.832914
  H      -3.501400     -0.851237     -4.310278
  H      -3.469700      0.254626     -2.897408
  H      -0.239624      0.988348      1.689938
  H       0.772336      1.767649      0.078304
  H       0.075497      2.611500      1.482911
  H       1.015888      0.749333      3.769813
  H       1.321649      2.523112      3.792225
  H       2.679012      1.358039      4.001628
  H       3.120461      2.673283      0.449732
  H       3.918043      2.501064      2.045308
  H       2.553526      3.652218      1.855889
  Si      5.032538     -3.145673     -0.110681
  C       6.347228     -2.447333      1.047458
  C       3.638772     -3.988704      0.843877
  C       5.784846     -4.298190     -1.415084
  H       5.869235     -1.697816      1.712207
  H       7.174872     -1.964456      0.488544
  H       6.782240     -3.252659      1.675549
  H       2.850992     -4.374684      0.165600
  H       3.171542     -3.267945      1.544648
  H       4.032039     -4.841388      1.436052
  H       5.018526     -4.661522     -2.129989
  H       6.243062     -5.185905     -0.930912
  H       6.577357     -3.783768     -1.996318
  H       4.426049     -1.976320     -0.883776
51
Coordinates from ORCA-job my_molecule E -1977.867955544848
  Pt     -0.289963     -0.357581      0.672845
  O       1.359483     -1.091470      1.565364
  O      -2.122278      0.075438     -0.326572
  P       2.651239     -0.131434      1.488542
  P      -2.224895     -1.409797     -0.849734
  O      -3.623983     -2.124971     -0.414583
  O      -0.976870     -2.127923     -0.176563
  O       2.995006      0.123248     -0.107028
  O       3.815535     -0.619371      2.312605
  C       1.961947      1.540540      1.943021
  C      -2.269958     -1.571030     -2.679041
  C      -2.345075     -3.069584     -3.035922
  C      -0.966577     -0.946905     -3.218805
  C      -3.500833     -0.803580     -3.202998
  C       0.641147      1.700874      1.175297
  C       1.726719      1.536120      3.465040
  C       2.944718      2.654626      1.544290
  H      -3.719382     -2.139488      0.560134
  H       3.557296     -0.620257     -0.439370
  H      -1.483315     -3.627704     -2.618540
  H      -2.322807     -3.180543     -4.140122
  H      -3.277916     -3.532791     -2.660076
  H      -0.071414     -1.471159     -2.830551
  H      -0.885597      0.123441     -2.945413
  H      -0.961515     -1.021991     -4.325289
  H      -4.446695     -1.247046     -2.835348
  H      -3.507456     -0.841944     -4.312584
  H      -3.470928      0.261393     -2.897505
  H      -0.240204      0.989581      1.686883
  H       0.774005      1.768418      0.077654
  H       0.077882      2.612993      1.482028
  H       1.011357      0.744252      3.767020
  H       1.321971      2.516993      3.794274
  H       2.675969      1.348106      4.002804
  H       3.123767      2.667823      0.452126
  H       3.919984      2.494458      2.046990
  H       2.556338      3.647084      1.858896
  Si      5.038484     -3.146194     -0.106625
  C       6.353857     -2.433361      1.041815
  C       3.657542     -3.997007      0.859739
  C       5.790534     -4.300433     -1.409328
  H       5.873222     -1.684757      1.705719
  H       7.175028     -1.945902      0.477515
  H       6.797115     -3.232865      1.671415
  H       2.865887     -4.388582      0.189113
  H       3.192240     -3.279417      1.565001
  H       4.062595     -4.847433      1.447442
  H       5.021077     -4.673834     -2.115791
  H       6.258252     -5.181810     -0.922731
  H       6.575287     -3.784804     -2.000035
  H       4.418110     -1.984955     -0.881206
51
Coordinates from ORCA-job my_molecule E -1977.867975542577
  Pt     -0.296523     -0.354320      0.664860
  O       1.346091     -1.096027      1.563003
  O      -2.123491      0.085803     -0.341048
  P       2.642550     -0.142200      1.489983
  P      -2.232686     -1.400389     -0.860652
  O      -3.635500     -2.107245     -0.424050
  O      -0.988023     -2.122142     -0.185370
  O       2.989458      0.114345     -0.104779
  O       3.803847     -0.637126      2.314290
  C       1.960448      1.531703      1.946853
  C      -2.279151     -1.566861     -2.689459
  C      -2.372542     -3.065746     -3.042854
  C      -0.969319     -0.959113     -3.230980
  C      -3.502120     -0.786162     -3.212530
  C       0.643220      1.701844      1.175551
  C       1.720048      1.521544      3.468465
  C       2.948524      2.643605      1.555425
  H      -3.733062     -2.117992      0.550391
  H       3.547704     -0.632498     -0.436974
  H      -1.517074     -3.632565     -2.624036
  H      -2.352212     -3.179319     -4.146563
  H      -3.310296     -3.515406     -2.663434
  H      -0.080840     -1.495860     -2.843349
  H      -0.872528      0.110273     -2.958976
  H      -0.965873     -1.034822     -4.337557
  H      -4.452501     -1.218174     -2.843015
  H      -3.511707     -0.826432     -4.321936
  H      -3.458505      0.278837     -2.908241
  H      -0.242867      0.994066      1.680740
  H       0.778680      1.770310      0.078261
  H       0.083927      2.616646      1.481559
  H       0.998608      0.732530      3.763418
  H       1.319744      2.503213      3.801469
  H       2.666090      1.325721      4.008917
  H       3.132333      2.658802      0.464032
  H       3.923148      2.479539      2.058776
  H       2.562498      3.636442      1.871978
  Si      5.046545     -3.145880     -0.098950
  C       6.370432     -2.399872      1.018214
  C       3.699478     -4.010811      0.901388
  C       5.790902     -4.303820     -1.402823
  H       5.888431     -1.651997      1.681998
  H       7.174094     -1.904993      0.435762
  H       6.835596     -3.184852      1.650041
  H       2.894994     -4.412070      0.251796
  H       3.244225     -3.297920      1.617911
  H       4.130405     -4.856909      1.477150
  H       5.011506     -4.699258     -2.086258
  H       6.283309     -5.170967     -0.914964
  H       6.554471     -3.784745     -2.017856
  H       4.391447     -2.003266     -0.873765
51
Coordinates from ORCA-job my_molecule E -1977.868000129075
  Pt     -0.308872     -0.356447      0.655190
  O       1.329999     -1.108700      1.550720
  O      -2.134346      0.095390     -0.348156
  P       2.631787     -0.162957      1.480278
  P      -2.253074     -1.389517     -0.869524
  O      -3.658792     -2.088902     -0.430260
  O      -1.010647     -2.118534     -0.198089
  O       2.983572      0.093459     -0.113512
  O       3.789496     -0.666534      2.304761
  C       1.959444      1.514106      1.938832
  C      -2.305572     -1.552419     -2.698730
  C      -2.406247     -3.050264     -3.055269
  C      -0.995125     -0.948277     -3.242837
  C      -3.527401     -0.765465     -3.215478
  C       0.643002      1.692982      1.168322
  C       1.718989      1.502581      3.460665
  C       2.953014      2.621661      1.549389
  H      -3.754742     -2.099893      0.544303
  H       3.550137     -0.649827     -0.439685
  H      -1.551823     -3.621128     -2.640027
  H      -2.389829     -3.161481     -4.159214
  H      -3.344532     -3.496632     -2.673268
  H      -0.107871     -1.491112     -2.860910
  H      -0.891318      0.119702     -2.967514
  H      -0.996216     -1.020101     -4.349769
  H      -4.478310     -1.194915     -2.844345
  H      -3.541192     -0.802457     -4.324897
  H      -3.478186      0.298516     -2.908181
  H      -0.246587      0.989895      1.672988
  H       0.777361      1.761422      0.070822
  H       0.089192      2.610937      1.474933
  H       0.992777      0.717344      3.753833
  H       1.324915      2.486145      3.795731
  H       2.663939      1.299699      4.000571
  H       3.136946      2.637462      0.457938
  H       3.927458      2.451884      2.051342
  H       2.572394      3.616050      1.867442
  Si      5.076903     -3.145656     -0.078912
  C       6.400216     -2.372745      1.020617
  C       3.750419     -4.019703      0.940398
  C       5.823816     -4.307401     -1.378404
  H       5.911868     -1.626212      1.681156
  H       7.192646     -1.871953      0.428064
  H       6.880329     -3.145276      1.656546
  H       2.943539     -4.434522      0.302315
  H       3.294905     -3.307652      1.657561
  H       4.197958     -4.857664      1.515600
  H       5.042089     -4.719284     -2.049571
  H       6.331210     -5.163672     -0.886539
  H       6.575429     -3.786288     -2.006379
  H       4.400862     -2.018180     -0.859036
51
Coordinates from ORCA-job my_molecule E -1977.868049981864
  Pt     -0.326646     -0.355609      0.641102
  O       1.304635     -1.124079      1.536851
  O      -2.143943      0.115090     -0.367560
  P       2.614917     -0.192672      1.477960
  P      -2.280561     -1.370394     -0.885714
  O      -3.693422     -2.051634     -0.440522
  O      -1.043661     -2.109393     -0.215464
  O       2.983970      0.064115     -0.112135
  O       3.762209     -0.712305      2.308094
  C       1.959338      1.490211      1.934919
  C      -2.339442     -1.535966     -2.715065
  C      -2.453348     -3.032794     -3.072570
  C      -1.025322     -0.942378     -3.262138
  C      -3.556693     -0.738372     -3.226827
  C       0.648277      1.684622      1.158878
  C       1.709623      1.478316      3.455773
  C       2.964662      2.590160      1.554533
  H      -3.790276     -2.051287      0.533943
  H       3.551414     -0.681402     -0.431966
  H      -1.602121     -3.610310     -2.659985
  H      -2.441499     -3.143932     -4.176591
  H      -3.393481     -3.471975     -2.686977
  H      -0.142469     -1.498766     -2.888774
  H      -0.905436      0.123331     -2.983034
  H      -1.032994     -1.010005     -4.369896
  H      -4.509633     -1.156761     -2.848280
  H      -3.579244     -0.779766     -4.335672
  H      -3.494528      0.326486     -2.924188
  H      -0.253097      0.993783      1.658122
  H       0.784229      1.750886      0.061298
  H       0.104638      2.609493      1.462863
  H       0.972213      0.701313      3.742298
  H       1.328522      2.466589      3.791214
  H       2.649797      1.260079      3.998673
  H       3.154926      2.607414      0.463977
  H       3.935749      2.410420      2.059742
  H       2.591696      3.587826      1.870771
  Si      5.109573     -3.149608     -0.053749
  C       6.433911     -2.320374      1.003002
  C       3.834010     -4.045315      1.008462
  C       5.858873     -4.311307     -1.353955
  H       5.935054     -1.581015      1.663605
  H       7.197291     -1.803917      0.386471
  H       6.951688     -3.066279      1.641004
  H       3.017833     -4.482434      0.397144
  H       3.383079     -3.335957      1.731429
  H       4.316129     -4.869606      1.575500
  H       5.071108     -4.759811     -1.994002
  H       6.406874     -5.142450     -0.862033
  H       6.576525     -3.779856     -2.012126
  H       4.380985     -2.054937     -0.836595
51
Coordinates from ORCA-job my_molecule E -1977.868084857081
  Pt     -0.342152     -0.360897      0.628466
  O       1.283964     -1.144336      1.521060
  O      -2.156006      0.127513     -0.377203
  P       2.600901     -0.223087      1.465799
  P      -2.306870     -1.355630     -0.898227
  O      -3.724058     -2.025872     -0.449733
  O      -1.073929     -2.105971     -0.233407
  O       2.976240      0.033546     -0.122415
  O       3.743355     -0.753156      2.296624
  C       1.957051      1.463399      1.925351
  C      -2.374016     -1.515193     -2.728078
  C      -2.500588     -3.009598     -3.090042
  C      -1.057366     -0.930252     -3.278756
  C      -3.586935     -0.706715     -3.232708
  C       0.647869      1.667881      1.148338
  C       1.705413      1.451138      3.445770
  C       2.970669      2.556730      1.548131
  H      -3.817222     -2.026691      0.525139
  H       3.552859     -0.707841     -0.435528
  H      -1.652639     -3.595057     -2.682295
  H      -2.493157     -3.117435     -4.194678
  H      -3.442965     -3.443751     -2.703935
  H      -0.177549     -1.496910     -2.914773
  H      -0.926026      0.132392     -2.993189
  H      -1.072302     -0.990597     -4.386804
  H      -4.541393     -1.119272     -2.851676
  H      -3.614164     -0.744055     -4.341647
  H      -3.515698      0.356580     -2.926947
  H      -0.259191      0.983148      1.647493
  H       0.785141      1.734178      0.050943
  H       0.110900      2.596416      1.453015
  H       0.961669      0.679572      3.730464
  H       1.332300      2.441983      3.782356
  H       2.643379      1.223882      3.989070
  H       3.161301      2.575914      0.457620
  H       3.939480      2.367976      2.054007
  H       2.604750      3.556209      1.866616
  Si      5.147796     -3.149009     -0.025804
  C       6.473871     -2.279820      0.996176
  C       3.906661     -4.050276      1.071594
  C       5.896996     -4.316796     -1.321037
  H       5.970785     -1.541168      1.654157
  H       7.217607     -1.758416      0.360166
  H       7.016019     -3.006352      1.636230
  H       3.088202     -4.511327      0.481562
  H       3.456951     -3.336214      1.790671
  H       4.412954     -4.856287      1.643751
  H       5.106423     -4.790022     -1.939421
  H       6.469144     -5.129809     -0.826378
  H       6.592439     -3.782781     -2.000511
  H       4.387069     -2.080397     -0.813566
51
Coordinates from ORCA-job my_molecule E -1977.868029647113
  Pt     -0.333450     -0.362709      0.628412
  O       1.292849     -1.150984      1.525080
  O      -2.136446      0.139101     -0.384276
  P       2.610279     -0.232435      1.486076
  P      -2.306581     -1.345507     -0.897630
  O      -3.726583     -2.001333     -0.434231
  O      -1.074454     -2.102869     -0.238329
  O       3.014167      0.016878     -0.094021
  O       3.738745     -0.761910      2.337223
  C       1.964888      1.457436      1.926818
  C      -2.386774     -1.507167     -2.727389
  C      -2.497556     -2.999424     -3.089917
  C      -1.075731     -0.913512     -3.287241
  C      -3.607084     -0.712132     -3.232351
  C       0.664488      1.653520      1.130224
  C       1.691302      1.467293      3.442102
  C       2.988845      2.542996      1.554137
  H      -3.806974     -1.988351      0.542197
  H       3.574244     -0.734757     -0.409896
  H      -1.641388     -3.577775     -2.690278
  H      -2.494834     -3.107635     -4.195957
  H      -3.433808     -3.454119     -2.709795
  H      -0.187687     -1.474841     -2.938351
  H      -0.950841      0.148735     -2.994808
  H      -1.103575     -0.969401     -4.396075
  H      -4.554095     -1.123936     -2.833116
  H      -3.644349     -0.765596     -4.340467
  H      -3.544054      0.355779     -2.945430
  H      -0.260116      0.982757      1.633195
  H       0.816799      1.710288      0.034611
  H       0.129008      2.586076      1.424079
  H       0.941405      0.703692      3.730510
  H       1.324482      2.465364      3.758473
  H       2.623134      1.236860      3.996043
  H       3.193575      2.557846      0.465654
  H       3.940730      2.351003      2.085846
  H       2.620416      3.546685      1.854071
  Si      5.138108     -3.169586     -0.023586
  C       6.438141     -2.253924      0.990537
  C       3.916917     -4.091312      1.077624
  C       5.926110     -4.310432     -1.322464
  H       5.915821     -1.542639      1.663568
  H       7.152217     -1.698860      0.348557
  H       7.024183     -2.962099      1.612490
  H       3.129563     -4.593351      0.479979
  H       3.425389     -3.372424      1.764842
  H       4.434715     -4.859268      1.688737
  H       5.151672     -4.810581     -1.938586
  H       6.531319     -5.102545     -0.833681
  H       6.595047     -3.747680     -2.004252
  H       4.343756     -2.133747     -0.817148
51
Coordinates from ORCA-job my_molecule E -1977.868152840857
  Pt     -0.346547     -0.356247      0.610201
  O       1.264719     -1.157471      1.516382
  O      -2.147115      0.153613     -0.406070
  P       2.591343     -0.250134      1.479752
  P      -2.322940     -1.330534     -0.916558
  O      -3.744190     -1.980303     -0.449195
  O      -1.093094     -2.092598     -0.259193
  O       2.995335      0.001402     -0.101450
  O       3.716493     -0.790660      2.328075
  C       1.958491      1.443547      1.928435
  C      -2.410967     -1.497112     -2.745059
  C      -2.542900     -2.991475     -3.099890
  C      -1.098281     -0.918674     -3.313701
  C      -3.626409     -0.688776     -3.242799
  C       0.661735      1.657983      1.132598
  C       1.685506      1.441026      3.444507
  C       2.989779      2.524150      1.562042
  H      -3.823026     -1.973406      0.527195
  H       3.565077     -0.746935     -0.409135
  H      -1.691075     -3.577002     -2.700650
  H      -2.547311     -3.103171     -4.204502
  H      -3.482017     -3.427521     -2.706757
  H      -0.215241     -1.489145     -2.964783
  H      -0.959173      0.143214     -3.027948
  H      -1.130949     -0.977734     -4.421665
  H      -4.577125     -1.097168     -2.848445
  H      -3.664226     -0.732225     -4.351325
  H      -3.551906      0.376120     -2.944967
  H      -0.261407      0.986363      1.626088
  H       0.816282      1.719625      0.037172
  H       0.131707      2.592921      1.429342
  H       0.927912      0.680867      3.722622
  H       1.322664      2.438285      3.771635
  H       2.612686      1.201808      4.001201
  H       3.195370      2.540078      0.474159
  H       3.945629      2.324853      2.086584
  H       2.629410      3.528430      1.871367
  Si      5.172701     -3.163908     -0.007268
  C       6.484815     -2.229935      0.974948
  C       3.984959     -4.087698      1.129497
  C       5.941091     -4.320317     -1.301635
  H       5.968765     -1.510696      1.644191
  H       7.188538     -1.680028      0.317392
  H       7.077118     -2.928818      1.601481
  H       3.181057     -4.597386      0.560663
  H       3.515275     -3.371020      1.833081
  H       4.529726     -4.853919      1.720350
  H       5.156253     -4.834686     -1.893584
  H       6.558044     -5.101358     -0.809660
  H       6.596056     -3.768187     -2.006289
  H       4.357296     -2.140572     -0.796625
51
Coordinates from ORCA-job my_molecule E -1977.868181590619
  Pt     -0.355605     -0.355020      0.594610
  O       1.247781     -1.170459      1.502055
  O      -2.154263      0.168780     -0.417895
  P       2.582618     -0.274253      1.467942
  P      -2.343669     -1.314691     -0.925801
  O      -3.765757     -1.955402     -0.448067
  O      -1.115016     -2.085216     -0.276312
  O       2.990621     -0.024738     -0.112370
  O       3.702923     -0.824481      2.316586
  C       1.963162      1.424264      1.918868
  C      -2.446248     -1.482543     -2.752841
  C      -2.578010     -2.977781     -3.104669
  C      -1.140117     -0.901617     -3.332980
  C      -3.667630     -0.677596     -3.241387
  C       0.669575      1.651383      1.121780
  C       1.688669      1.421347      3.434584
  C       3.004427      2.496265      1.554990
  H      -3.834091     -1.954421      0.529135
  H       3.568680     -0.768671     -0.414926
  H      -1.720249     -3.560497     -2.713890
  H      -2.593807     -3.090133     -4.209036
  H      -3.511776     -3.415462     -2.701147
  H      -0.252366     -1.468300     -2.988753
  H      -1.003030      0.161261     -3.050731
  H      -1.180914     -0.963253     -4.440410
  H      -4.614114     -1.089401     -2.840647
  H      -3.712419     -0.720345     -4.349668
  H      -3.594585      0.387320     -2.942990
  H      -0.259388      0.985950      1.614171
  H       0.827708      1.714167      0.027025
  H       0.147118      2.590074      1.420154
  H       0.924432      0.666994      3.710372
  H       1.332310      2.420691      3.762764
  H       2.612731      1.175131      3.993132
  H       3.212827      2.510497      0.467844
  H       3.957581      2.289136      2.081860
  H       2.651647      3.503204      1.864929
  Si      5.209666     -3.161134      0.009963
  C       6.502008     -2.208090      1.000134
  C       4.021023     -4.089773      1.141875
  C       6.002037     -4.318989     -1.268007
  H       5.971218     -1.493246      1.662524
  H       7.204380     -1.650733      0.347598
  H       7.097314     -2.898044      1.633556
  H       3.223611     -4.606146      0.570101
  H       3.544669     -3.374359      1.842142
  H       4.568099     -4.851154      1.736767
  H       5.227753     -4.845211     -1.863400
  H       6.621661     -5.090206     -0.764348
  H       6.657840     -3.765916     -1.971142
  H       4.392896     -2.151717     -0.794232
51
Coordinates from ORCA-job my_molecule E -1977.868202633304
  Pt     -0.371638     -0.339541      0.565733
  O       1.208546     -1.181344      1.488046
  O      -2.158019      0.208480     -0.455518
  P       2.560698     -0.310595      1.469156
  P      -2.376911     -1.277754     -0.944905
  O      -3.803770     -1.890819     -0.444655
  O      -1.155580     -2.062180     -0.299350
  O       2.990856     -0.067749     -0.106176
  O       3.661886     -0.880177      2.330410
  C       1.970833      1.400240      1.914410
  C      -2.500548     -1.466495     -2.767297
  C      -2.647271     -2.965480     -3.098910
  C      -1.196550     -0.901641     -3.366926
  C      -3.721478     -0.659433     -3.253671
  C       0.692726      1.655344      1.101827
  C       1.677585      1.401485      3.426574
  C       3.039034      2.450186      1.564033
  H      -3.855804     -1.891115      0.533488
  H       3.563750     -0.817575     -0.403631
  H      -1.788851     -3.549431     -2.711409
  H      -2.677319     -3.090307     -4.201493
  H      -3.578956     -3.390907     -2.678646
  H      -0.309084     -1.469248     -3.020841
  H      -1.052194      0.163944     -3.100528
  H      -1.246543     -0.978122     -4.472679
  H      -4.666398     -1.059417     -2.837885
  H      -3.777308     -0.716829     -4.360954
  H      -3.638276      0.408848     -2.969842
  H      -0.256577      1.011271      1.585331
  H       0.866699      1.714960      0.009310
  H       0.188055      2.605958      1.394063
  H       0.894368      0.662685      3.691923
  H       1.335406      2.407598      3.750473
  H       2.589064      1.138776      3.997985
  H       3.262725      2.459631      0.480021
  H       3.980942      2.225025      2.103882
  H       2.702530      3.464140      1.869674
  Si      5.260504     -3.165416      0.031180
  C       6.511690     -2.162571      1.024935
  C       4.101655     -4.131191      1.162639
  C       6.098414     -4.298113     -1.239458
  H       5.950797     -1.474833      1.691395
  H       7.189125     -1.570609      0.376735
  H       7.136049     -2.830700      1.654003
  H       3.322801     -4.674380      0.589049
  H       3.604180     -3.427879      1.860924
  H       4.672074     -4.873528      1.759525
  H       5.344163     -4.855267     -1.832525
  H       6.746245     -5.043107     -0.732177
  H       6.732829     -3.724202     -1.945743
  H       4.408780     -2.193149     -0.779693
51
Coordinates from ORCA-job my_molecule E -1977.868236513571
  Pt     -0.387470     -0.340877      0.548787
  O       1.181003     -1.205130      1.471333
  O      -2.167508      0.232850     -0.469868
  P       2.543963     -0.351043      1.452551
  P      -2.410507     -1.251046     -0.954989
  O      -3.841846     -1.844754     -0.444313
  O      -1.197014     -2.052501     -0.315328
  O       2.976914     -0.117160     -0.122857
  O       3.639474     -0.929992      2.314985
  C       1.974039      1.367195      1.897206
  C      -2.549399     -1.441300     -2.775517
  C      -2.713588     -2.939950     -3.102050
  C      -1.244315     -0.890716     -3.385749
  C      -3.765709     -0.623931     -3.256116
  C       0.700944      1.637701      1.082139
  C       1.678392      1.372006      3.408867
  C       3.056323      2.403365      1.548664
  H      -3.883543     -1.853888      0.534228
  H       3.550055     -0.869831     -0.414616
  H      -1.858531     -3.531994     -2.719060
  H      -2.752328     -3.066733     -4.203950
  H      -3.646698     -3.354507     -2.674507
  H      -0.359959     -1.463504     -3.040959
  H      -1.091075      0.174946     -3.125111
  H      -1.300844     -0.972049     -4.490801
  H      -4.711352     -1.012022     -2.831049
  H      -3.830066     -0.686599     -4.362871
  H      -3.669796      0.444847     -2.978233
  H      -0.257204      1.006076      1.565665
  H       0.878936      1.695309     -0.009814
  H       0.207986      2.594980      1.373199
  H       0.887568      0.640932      3.673918
  H       1.343886      2.381524      3.730822
  H       2.586552      1.102965      3.982442
  H       3.282164      2.410389      0.465168
  H       3.993981      2.167110      2.091085
  H       2.732127      3.421583      1.854096
  Si      5.314326     -3.163372      0.059831
  C       6.529559     -2.117913      1.053769
  C       4.174166     -4.149575      1.192949
  C       6.190670     -4.283749     -1.195276
  H       5.944082     -1.446253      1.715359
  H       7.190199     -1.506247      0.406609
  H       7.172348     -2.764812      1.686479
  H       3.415374     -4.719343      0.618600
  H       3.654830     -3.451092      1.880318
  H       4.759069     -4.870240      1.802164
  H       5.455100     -4.864430     -1.789240
  H       6.854262     -5.007802     -0.678242
  H       6.814361     -3.698528     -1.902109
  H       4.442034     -2.223429     -0.766803
51
Coordinates from ORCA-job my_molecule E -1977.868264470427
  Pt     -0.393713     -0.348348      0.542725
  O       1.171482     -1.225389      1.460043
  O      -2.169986      0.243336     -0.473639
  P       2.537248     -0.376708      1.441824
  P      -2.427917     -1.236542     -0.960204
  O      -3.861115     -1.820548     -0.444155
  O      -1.218251     -2.049882     -0.326735
  O       2.972906     -0.149329     -0.133780
  O       3.630244     -0.956606      2.306986
  C       1.970645      1.344137      1.883486
  C      -2.577447     -1.418880     -2.781126
  C      -2.750362     -2.915673     -3.110659
  C      -1.272835     -0.872020     -3.397099
  C      -3.792391     -0.594346     -3.253574
  C       0.698373      1.615028      1.067262
  C       1.673888      1.352981      3.394699
  C       3.055137      2.377210      1.534047
  H      -3.897621     -1.833064      0.534570
  H       3.550407     -0.901574     -0.419631
  H      -1.897378     -3.513555     -2.732329
  H      -2.793737     -3.039804     -4.212823
  H      -3.684359     -3.326519     -2.680401
  H      -0.389086     -1.446558     -3.057369
  H      -1.116427      0.193004     -3.135733
  H      -1.334788     -0.952118     -4.501906
  H      -4.737669     -0.976813     -2.822284
  H      -3.864149     -0.657012     -4.359682
  H      -3.689328      0.474118     -2.977129
  H      -0.259826      0.987160      1.553939
  H       0.875281      1.668851     -0.025172
  H       0.207202      2.573754      1.355404
  H       0.883651      0.621762      3.661486
  H       1.339040      2.362939      3.713513
  H       2.581905      1.085578      3.968680
  H       3.279314      2.383468      0.449956
  H       3.992069      2.137982      2.076120
  H       2.735068      3.396696      1.838689
  Si      5.347354     -3.168346      0.083543
  C       6.547824     -2.089167      1.059483
  C       4.229877     -4.163092      1.232336
  C       6.239366     -4.284295     -1.165093
  H       5.953491     -1.423658      1.719148
  H       7.191267     -1.471021      0.401246
  H       7.208323     -2.717255      1.692976
  H       3.488693     -4.761938      0.666116
  H       3.690969     -3.463067      1.902574
  H       4.828372     -4.857563      1.858584
  H       5.512352     -4.883319     -1.751423
  H       6.918782     -4.991710     -0.645329
  H       6.849001     -3.692788     -1.878987
  H       4.454785     -2.252027     -0.751361
51
Coordinates from ORCA-job my_molecule E -1977.868277627189
  Pt     -0.394406     -0.344256      0.535145
  O       1.166645     -1.225079      1.454982
  O      -2.168004      0.250441     -0.484031
  P       2.534618     -0.380357      1.445855
  P      -2.430943     -1.229955     -0.966325
  O      -3.863830     -1.809249     -0.443713
  O      -1.220841     -2.044274     -0.334959
  O       2.981810     -0.152221     -0.126548
  O       3.620005     -0.964921      2.317584
  C       1.971319      1.341983      1.885206
  C      -2.586629     -1.416322     -2.786291
  C      -2.754502     -2.914256     -3.112523
  C      -1.286587     -0.864522     -3.407712
  C      -3.806795     -0.597440     -3.255412
  C       0.703300      1.617052      1.063704
  C       1.667544      1.351794      3.395004
  C       3.060216      2.372018      1.540788
  H      -3.896541     -1.818196      0.535206
  H       3.563284     -0.902217     -0.408889
  H      -1.897264     -3.507730     -2.736991
  H      -2.802535     -3.040724     -4.214264
  H      -3.684771     -3.328316     -2.677118
  H      -0.398921     -1.434751     -3.070652
  H      -1.133768      0.201505     -3.148345
  H      -1.352437     -0.946630     -4.512152
  H      -4.748893     -0.982926     -2.819763
  H      -3.882912     -0.662284     -4.360953
  H      -3.706859      0.471980     -2.981413
  H      -0.258315      0.992481      1.547701
  H       0.883969      1.669399     -0.028224
  H       0.214232      2.577500      1.349528
  H       0.873975      0.622902      3.657762
  H       1.334857      2.362797      3.712471
  H       2.571896      1.080849      3.973089
  H       3.289267      2.377202      0.457726
  H       3.994217      2.129733      2.086646
  H       2.741925      3.392514      1.843793
  Si      5.353486     -3.173670      0.088316
  C       6.552068     -2.084537      1.055893
  C       4.247772     -4.173116      1.244163
  C       6.247305     -4.285898     -1.162654
  H       5.957159     -1.422961      1.719035
  H       7.186614     -1.462315      0.392834
  H       7.221398     -2.706466      1.686212
  H       3.508585     -4.778697      0.682236
  H       3.706218     -3.473791      1.913128
  H       4.852855     -4.861606      1.870554
  H       5.521302     -4.892645     -1.742267
  H       6.935950     -4.986106     -0.645261
  H       6.847342     -3.691576     -1.882201
  H       4.450553     -2.264671     -0.744089
51
Coordinates from ORCA-job my_molecule E -1977.868284314743
  Pt     -0.389942     -0.339634      0.536056
  O       1.173783     -1.216182      1.453812
  O      -2.165528      0.248649     -0.483220
  P       2.539906     -0.368332      1.451212
  P      -2.423982     -1.233350     -0.963358
  O      -3.856104     -1.814860     -0.440932
  O      -1.212282     -2.043556     -0.329956
  O       2.993671     -0.138538     -0.119187
  O       3.621292     -0.951847      2.328366
  C       1.973805      1.353301      1.888554
  C      -2.576721     -1.424227     -2.782896
  C      -2.733832     -2.923678     -3.106889
  C      -1.279890     -0.863134     -3.402574
  C      -3.802343     -0.614582     -3.254057
  C       0.706269      1.626727      1.065416
  C       1.667728      1.363324      3.398148
  C       3.061355      2.385263      1.545196
  H      -3.889258     -1.822975      0.537945
  H       3.577042     -0.886960     -0.400866
  H      -1.872695     -3.510832     -2.730446
  H      -2.781921     -3.052920     -4.208213
  H      -3.660959     -3.342530     -2.669459
  H      -0.388156     -1.424730     -3.060883
  H      -1.136765      0.204711     -3.145689
  H      -1.341666     -0.949227     -4.506853
  H      -4.741889     -1.003911     -2.816241
  H      -3.879765     -0.684234     -4.358990
  H      -3.708544      0.456505     -2.984351
  H      -0.254624      1.001290      1.549759
  H       0.886930      1.678480     -0.026501
  H       0.215924      2.587086      1.349484
  H       0.876813      0.631536      3.660354
  H       1.331361      2.373560      3.714497
  H       2.572722      1.095565      3.977046
  H       3.293133      2.388312      0.462765
  H       3.995323      2.145673      2.092565
  H       2.740467      3.405521      1.846310
  Si      5.339267     -3.178879      0.079788
  C       6.536564     -2.099101      1.059447
  C       4.223709     -4.182019      1.222480
  C       6.236485     -4.284479     -1.174757
  H       5.940899     -1.440629      1.725269
  H       7.173612     -1.473689      0.401717
  H       7.203271     -2.725011      1.688709
  H       3.482724     -4.777870      0.651733
  H       3.681760     -3.484272      1.893210
  H       4.820411     -4.879778      1.846203
  H       5.511981     -4.886369     -1.761075
  H       6.922279     -4.988787     -0.659058
  H       6.840140     -3.686267     -1.887739
  H       4.442175     -2.260645     -0.750040
51
Coordinates from ORCA-job my_molecule E -1977.868291973364
  Pt     -0.395742     -0.339959      0.528594
  O       1.163516     -1.224804      1.445983
  O      -2.168989      0.256713     -0.489985
  P       2.533470     -0.383179      1.446177
  P      -2.435522     -1.224324     -0.968574
  O      -3.868906     -1.799199     -0.442200
  O      -1.226367     -2.039916     -0.337368
  O       2.991098     -0.154815     -0.123356
  O       3.610573     -0.972230      2.325090
  C       1.975168      1.340908      1.884199
  C      -2.593755     -1.415802     -2.787532
  C      -2.756531     -2.915092     -3.109698
  C      -1.296886     -0.859139     -3.411071
  C      -3.818078     -0.602736     -3.256115
  C       0.710185      1.621118      1.059499
  C       1.667122      1.351029      3.393399
  C       3.068232      2.367773      1.543116
  H      -3.898842     -1.809319      0.536743
  H       3.575737     -0.903185     -0.402657
  H      -1.896257     -3.504763     -2.735162
  H      -2.808397     -3.045294     -4.210652
  H      -3.683709     -3.330420     -2.668938
  H      -0.405851     -1.422361     -3.069944
  H      -1.150617      0.208849     -3.156138
  H      -1.361166     -0.946965     -4.515145
  H      -4.757703     -0.988616     -2.815397
  H      -3.898717     -0.673214     -4.360782
  H      -3.720263      0.468335     -2.987755
  H      -0.254031      1.000068      1.542995
  H       0.892657      1.672173     -0.032144
  H       0.224171      2.583812      1.343077
  H       0.873064      0.622087      3.654133
  H       1.334055      2.362268      3.710034
  H       2.570456      1.079558      3.973151
  H       3.302018      2.369791      0.461121
  H       4.000125      2.123649      2.091950
  H       2.751763      3.389465      1.844136
  Si      5.356808     -3.177913      0.089856
  C       6.544344     -2.081568      1.062893
  C       4.251406     -4.184458      1.239311
  C       6.263798     -4.281475     -1.159189
  H       5.942572     -1.427781      1.727661
  H       7.172727     -1.451140      0.401529
  H       7.219432     -2.697538      1.692933
  H       3.512210     -4.786985      0.673308
  H       3.707778     -3.486731      1.908717
  H       4.854299     -4.875887      1.864121
  H       5.544702     -4.893673     -1.741532
  H       6.956980     -4.976114     -0.640228
  H       6.860894     -3.681126     -1.876005
  H       4.450903     -2.272409     -0.744344
51
Coordinates from ORCA-job my_molecule E -1977.868305204568
  Pt     -0.403583     -0.343030      0.522236
  O       1.151055     -1.239092      1.437148
  O      -2.174444      0.265914     -0.493990
  P       2.525319     -0.403924      1.438377
  P      -2.451179     -1.212911     -0.972680
  O      -3.887241     -1.779665     -0.445009
  O      -1.247322     -2.037213     -0.342578
  O       2.984758     -0.179033     -0.131156
  O       3.597954     -0.998026      2.319273
  C       1.976062      1.323280      1.876953
  C      -2.613454     -1.403024     -2.791552
  C      -2.789045     -2.901430     -3.111766
  C      -1.313292     -0.857298     -3.417805
  C      -3.831764     -0.580440     -3.258969
  C       0.712589      1.610187      1.052268
  C       1.668843      1.333802      3.386311
  C       3.074614      2.344209      1.535750
  H      -3.915393     -1.794361      0.533890
  H       3.568101     -0.929569     -0.408276
  H      -1.933624     -3.498368     -2.737294
  H      -2.843646     -3.032927     -4.212324
  H      -3.719129     -3.307900     -2.668860
  H      -0.425959     -1.424998     -3.074787
  H      -1.160068      0.210586     -3.165743
  H      -1.378675     -0.947960     -4.521680
  H      -4.774096     -0.958190     -2.816897
  H      -3.914452     -0.650864     -4.363564
  H      -3.725177      0.490057     -2.991588
  H      -0.253540      0.993160      1.536352
  H       0.895782      1.659564     -0.039306
  H       0.231000      2.575325      1.334967
  H       0.873639      0.606173      3.647784
  H       1.337504      2.345453      3.703484
  H       2.572435      1.060698      3.964840
  H       3.308988      2.343487      0.453928
  H       4.005009      2.095861      2.085198
  H       2.763457      3.367833      1.835926
  Si      5.377943     -3.177298      0.101592
  C       6.548572     -2.054606      1.064953
  C       4.286455     -4.188220      1.260637
  C       6.303201     -4.276353     -1.137224
  H       5.937009     -1.409114      1.728681
  H       7.161619     -1.415779      0.397075
  H       7.238030     -2.654026      1.695280
  H       3.552077     -4.802950      0.701793
  H       3.737537     -3.489604      1.924975
  H       4.897593     -4.867491      1.890683
  H       5.595298     -4.904405     -1.716444
  H       7.006389     -4.955816     -0.611578
  H       6.892102     -3.671400     -1.857122
  H       4.460077     -2.290836     -0.740350
51
Coordinates from ORCA-job my_molecule E -1977.868310577889
  Pt     -0.403195     -0.342710      0.524103
  O       1.151742     -1.238214      1.439041
  O      -2.173734      0.265894     -0.492933
  P       2.525761     -0.402378      1.441287
  P      -2.450101     -1.213006     -0.971447
  O      -3.886971     -1.779268     -0.445714
  O      -1.247256     -2.037392     -0.339360
  O       2.986495     -0.177699     -0.127936
  O       3.596857     -0.996423      2.323889
  C       1.976110      1.325035      1.878714
  C      -2.609838     -1.404301     -2.790598
  C      -2.786691     -2.902859     -3.109274
  C      -1.308041     -0.861066     -3.415578
  C      -3.826346     -0.580612     -3.260545
  C       0.712580      1.611151      1.053784
  C       1.669160      1.336062      3.388129
  C       3.074325      2.346066      1.536725
  H      -3.917288     -1.791812      0.533155
  H       3.567211     -0.929974     -0.405907
  H      -1.932639     -3.500514     -2.732673
  H      -2.839903     -3.035945     -4.209697
  H      -3.717889     -3.307615     -2.667120
  H      -0.421814     -1.428779     -3.069655
  H      -1.154250      0.207229     -3.165507
  H      -1.371376     -0.954127     -4.519369
  H      -4.769885     -0.956606     -2.819532
  H      -3.907630     -0.651780     -4.365181
  H      -3.718804      0.489985     -2.994036
  H      -0.252898      0.993775      1.538042
  H       0.895911      1.659232     -0.037815
  H       0.230544      2.576358      1.335330
  H       0.875439      0.607047      3.650319
  H       1.336251      2.347296      3.705064
  H       2.573520      1.064363      3.966180
  H       3.308996      2.343830      0.454971
  H       4.004703      2.098702      2.086718
  H       2.762602      3.369926      1.835357
  Si      5.372834     -3.179079      0.097914
  C       6.541657     -2.053685      1.060530
  C       4.282520     -4.191084      1.257118
  C       6.301538     -4.275336     -1.140564
  H       5.929481     -1.410653      1.726074
  H       7.150662     -1.412442      0.391169
  H       7.234851     -2.650792      1.688922
  H       3.547773     -4.805970      0.698854
  H       3.733376     -3.492562      1.921479
  H       4.894031     -4.869922      1.887224
  H       5.596543     -4.905651     -1.720783
  H       7.006367     -4.952591     -0.614198
  H       6.889271     -3.668048     -1.859384
  H       4.453371     -2.293586     -0.743474
51
Coordinates from ORCA-job my_molecule E -1977.868317763496
  Pt     -0.404198     -0.342484      0.527671
  O       1.149987     -1.237557      1.444553
  O      -2.172703      0.266968     -0.492211
  P       2.524402     -0.402007      1.448859
  P      -2.449421     -1.211938     -0.970671
  O      -3.888828     -1.775639     -0.449419
  O      -1.249383     -2.037304     -0.334341
  O       2.988709     -0.178029     -0.119391
  O       3.591838     -0.997239      2.334732
  C       1.975114      1.326286      1.883501
  C      -2.603572     -1.405564     -2.790464
  C      -2.784912     -2.904197     -3.106111
  C      -1.297440     -0.869638     -3.412483
  C      -3.815186     -0.578093     -3.265887
  C       0.712029      1.611672      1.057567
  C       1.668060      1.338512      3.392932
  C       3.073452      2.346780      1.540226
  H      -3.924993     -1.780961      0.529344
  H       3.564071     -0.933955     -0.398583
  H      -1.934394     -3.504027     -2.724877
  H      -2.834727     -3.040208     -4.206405
  H      -3.719021     -3.304733     -2.666358
  H      -0.414726     -1.439799     -3.061563
  H      -1.139807      0.198874     -3.166174
  H      -1.357034     -0.966742     -4.516032
  H      -4.761638     -0.949735     -2.827436
  H      -3.893238     -0.650366     -4.370609
  H      -3.704403      0.492513     -3.000690
  H      -0.253240      0.994553      1.541400
  H       0.896455      1.656875     -0.033989
  H       0.230134      2.577626      1.336545
  H       0.876710      0.607213      3.656020
  H       1.332569      2.349080      3.709544
  H       2.573275      1.068758      3.970663
  H       3.308751      2.341865      0.458660
  H       4.003585      2.100743      2.091421
  H       2.760964      3.371267      1.835620
  Si      5.363712     -3.182469      0.091797
  C       6.532034     -2.047092      1.043983
  C       4.282995     -4.195354      1.258953
  C       6.295858     -4.274924     -1.146981
  H       5.920915     -1.407597      1.713979
  H       7.128708     -1.402370      0.366776
  H       7.236558     -2.636638      1.666920
  H       3.546173     -4.813657      0.706992
  H       3.735690     -3.496537      1.924732
  H       4.899879     -4.870678      1.887505
  H       5.596038     -4.913113     -1.724579
  H       7.007409     -4.944544     -0.619838
  H       6.877084     -3.663980     -1.867768
  H       4.435641     -2.302952     -0.746226
51
Coordinates from ORCA-job my_molecule E -1977.868320852474
  Pt     -0.404516     -0.342547      0.530132
  O       1.150023     -1.235976      1.447945
  O      -2.172831      0.265757     -0.490414
  P       2.524373     -0.400261      1.451864
  P      -2.448206     -1.213228     -0.969536
  O      -3.888230     -1.777291     -0.450609
  O      -1.248453     -2.037918     -0.331813
  O       2.988900     -0.176416     -0.116316
  O       3.591682     -0.995564      2.337820
  C       1.974455      1.328020      1.885681
  C      -2.599347     -1.406979     -2.789707
  C      -2.781599     -2.905504     -3.105344
  C      -1.291294     -0.873187     -3.409515
  C      -3.809191     -0.578350     -3.267435
  C       0.711105      1.612398      1.059968
  C       1.667992      1.340469      3.395245
  C       3.071969      2.349003      1.541474
  H      -3.927508     -1.779252      0.528053
  H       3.562714     -0.933191     -0.396223
  H      -1.932199     -3.505798     -2.722379
  H      -2.829158     -3.041524     -4.205756
  H      -3.716905     -3.305398     -2.667538
  H      -0.410010     -1.444081     -3.056059
  H      -1.132727      0.195512     -3.164796
  H      -1.348419     -0.971877     -4.513070
  H      -4.756769     -0.949403     -2.830957
  H      -3.885009     -0.650175     -4.372312
  H      -3.697903      0.492052     -3.001606
  H      -0.253890      0.995099      1.543885
  H       0.895674      1.656802     -0.031574
  H       0.229071      2.578453      1.338245
  H       0.877920      0.608010      3.658891
  H       1.331008      2.350539      3.712001
  H       2.573772      1.071947      3.972725
  H       3.306779      2.343814      0.459778
  H       4.002503      2.104047      2.092402
  H       2.758588      3.373393      1.836216
  Si      5.358456     -3.183250      0.088157
  C       6.528981     -2.046885      1.036868
  C       4.279218     -4.194847      1.257666
  C       6.290204     -4.276050     -1.150455
  H       5.919703     -1.406732      1.707851
  H       7.123048     -1.402474      0.357004
  H       7.235833     -2.635413      1.658053
  H       3.541486     -4.813830      0.707668
  H       3.733223     -3.495681      1.924097
  H       4.897204     -4.869789      1.885655
  H       5.591766     -4.915538     -1.728209
  H       7.002178     -4.944438     -0.622294
  H       6.871242     -3.664839     -1.871184
  H       4.429028     -2.304162     -0.748431
51
Coordinates from ORCA-job my_molecule E -1977.868325542961
  Pt     -0.407570     -0.342617      0.531986
  O       1.146143     -1.236035      1.451041
  O      -2.175374      0.266365     -0.488757
  P       2.521725     -0.402544      1.453705
  P      -2.450866     -1.212481     -0.968809
  O      -3.892270     -1.775348     -0.452656
  O      -1.252200     -2.037610     -0.329803
  O       2.986451     -0.180271     -0.114489
  O       3.588930     -0.998991      2.339083
  C       1.973450      1.326561      1.886351
  C      -2.598596     -1.406100     -2.789307
  C      -2.783305     -2.904272     -3.105654
  C      -1.287592     -0.875953     -3.405897
  C      -3.805562     -0.574930     -3.269796
  C       0.710150      1.611525      1.060975
  C       1.667836      1.339594      3.396165
  C       3.071317      2.346749      1.541116
  H      -3.935541     -1.773271      0.525827
  H       3.559653     -0.937568     -0.394039
  H      -1.935714     -3.505787     -2.720814
  H      -2.827863     -3.039371     -4.206380
  H      -3.720468     -3.302891     -2.670761
  H      -0.408769     -1.448570     -3.049041
  H      -1.127221      0.192812     -3.163282
  H      -1.341144     -0.976603     -4.509469
  H      -4.754817     -0.945108     -2.836352
  H      -3.878159     -0.645587     -4.374949
  H      -3.692975      0.494996     -3.002368
  H      -0.256043      0.995909      1.544913
  H       0.894970      1.654900     -0.030558
  H       0.229686      2.578534      1.338604
  H       0.878156      0.606995      3.660535
  H       1.330422      2.349526      3.713171
  H       2.573953      1.071541      3.973348
  H       3.305369      2.341776      0.459246
  H       4.002158      2.101852      2.091499
  H       2.758199      3.371289      1.835690
  Si      5.357180     -3.183886      0.086597
  C       6.528153     -2.042037      1.028655
  C       4.283266     -4.195170      1.260994
  C       6.290810     -4.276908     -1.150282
  H       5.919835     -1.401252      1.699955
  H       7.117176     -1.397619      0.344430
  H       7.239542     -2.626849      1.648179
  H       3.546583     -4.818559      0.714590
  H       3.737222     -3.496272      1.927577
  H       4.905075     -4.866844      1.888818
  H       5.596099     -4.920472     -1.727862
  H       7.004517     -4.941274     -0.619384
  H       6.870747     -3.665235     -1.871506
  H       4.423208     -2.309174     -0.749023
51
Coordinates from ORCA-job my_molecule E -1977.868329092168
  Pt     -0.411143     -0.342497      0.531922
  O       1.141530     -1.237445      1.450894
  O      -2.178816      0.268086     -0.488058
  P       2.518627     -0.406852      1.452254
  P      -2.455635     -1.210474     -0.968498
  O      -3.897997     -1.771641     -0.453412
  O      -1.257827     -2.036602     -0.329325
  O       2.983196     -0.186440     -0.116113
  O       3.586070     -1.004502      2.336774
  C       1.972926      1.323166      1.884480
  C      -2.601964     -1.403609     -2.789069
  C      -2.788252     -2.901390     -3.106635
  C      -1.289162     -0.875313     -3.403501
  C      -3.807226     -0.570673     -3.270851
  C       0.709890      1.609737      1.059391
  C       1.667794      1.336767      3.394409
  C       3.071834      2.342029      1.538963
  H      -3.942903     -1.768187      0.524978
  H       3.557913     -0.943003     -0.394381
  H      -1.941667     -3.503843     -2.721229
  H      -2.831123     -3.035097     -4.207628
  H      -3.726521     -3.299423     -2.673600
  H      -0.411780     -1.448493     -3.044084
  H      -1.128414      0.193671     -3.162259
  H      -1.340003     -0.977418     -4.507125
  H      -4.757490     -0.940772     -2.839604
  H      -3.877672     -0.640008     -4.376270
  H      -3.694011      0.498760     -3.001736
  H      -0.257842      0.996446      1.543684
  H       0.894558      1.652549     -0.032166
  H       0.231380      2.577751      1.336951
  H       0.877146      0.605353      3.659185
  H       1.331547      2.347111      3.711485
  H       2.573769      1.067890      3.971440
  H       3.305279      2.337785      0.456902
  H       4.002653      2.096052      2.088740
  H       2.760014      3.366772      1.834353
  Si      5.360874     -3.184000      0.088226
  C       6.529722     -2.036899      1.026716
  C       4.291330     -4.196617      1.265360
  C       6.297931     -4.276690     -1.146420
  H       5.920605     -1.396024      1.697154
  H       7.116064     -1.392181      0.340410
  H       7.243589     -2.618593      1.646295
  H       3.557377     -4.824603      0.720686
  H       3.743218     -3.498664      1.931104
  H       4.916353     -4.864676      1.893966
  H       5.606764     -4.923496     -1.724564
  H       7.012693     -4.937782     -0.612783
  H       6.877609     -3.664568     -1.867547
  H       4.423125     -2.313984     -0.748052
51
Coordinates from ORCA-job my_molecule E -1977.868333314270
  Pt     -0.416227     -0.341758      0.531346
  O       1.134964     -1.239734      1.449315
  O      -2.183988      0.271246     -0.487428
  P       2.514152     -0.413193      1.448876
  P      -2.463028     -1.207035     -0.967767
  O      -3.906854     -1.765408     -0.453848
  O      -1.266812     -2.034781     -0.327926
  O       2.978227     -0.195424     -0.119861
  O       3.581886     -1.012313      2.332320
  C       1.972759      1.318243      1.880862
  C      -2.607404     -1.400288     -2.788238
  C      -2.795274     -2.897706     -3.106954
  C      -1.292484     -0.873714     -3.399737
  C      -3.810616     -0.565553     -3.272195
  C       0.710072      1.607863      1.056244
  C       1.668226      1.332742      3.390953
  C       3.073759      2.334782      1.535214
  H      -3.952866     -1.761705      0.524473
  H       3.555522     -0.950626     -0.396254
  H      -1.950059     -3.501248     -2.720500
  H      -2.836111     -3.030181     -4.208210
  H      -3.734920     -3.294806     -2.676074
  H      -0.416666     -1.447012     -3.036771
  H      -1.132074      0.195570     -3.159705
  H      -1.339715     -0.977517     -4.503414
  H      -4.762237     -0.935593     -2.843931
  H      -3.878181     -0.633563     -4.377953
  H      -3.696994      0.503383     -3.001296
  H      -0.259865      0.998051      1.541199
  H       0.894036      1.650308     -0.035447
  H       0.234515      2.577235      1.334295
  H       0.875357      0.603910      3.656218
  H       1.335019      2.344136      3.707954
  H       2.573758      1.061724      3.967622
  H       3.306577      2.331461      0.452978
  H       4.004343      2.086458      2.084229
  H       2.764592      3.359967      1.832071
  Si      5.367107     -3.183662      0.090973
  C       6.530742     -2.030008      1.027824
  C       4.302355     -4.199984      1.269192
  C       6.310374     -4.274727     -1.140590
  H       5.918941     -1.389987      1.696702
  H       7.115146     -1.384382      0.340713
  H       7.246530     -2.608037      1.648713
  H       3.573063     -4.833409      0.724671
  H       3.749818     -3.504232      1.933517
  H       4.930898     -4.863520      1.899083
  H       5.624023     -4.924769     -1.720741
  H       7.025676     -4.932456     -0.603434
  H       6.890725     -3.661636     -1.860356
  H       4.425146     -2.319643     -0.747117
51
Coordinates from ORCA-job my_molecule E -1977.868337909689
  Pt     -0.421902     -0.341057      0.531316
  O       1.127730     -1.242716      1.447817
  O      -2.189367      0.274779     -0.486693
  P       2.509032     -0.420186      1.444906
  P      -2.471088     -1.203157     -0.966513
  O      -3.916900     -1.757903     -0.454357
  O      -1.277362     -2.033034     -0.324865
  O       2.971735     -0.205200     -0.124581
  O       3.577211     -1.020596      2.327163
  C       1.972640      1.312792      1.876867
  C      -2.612526     -1.397029     -2.786934
  C      -2.802763     -2.894077     -3.106138
  C      -1.294845     -0.873111     -3.395028
  C      -3.812691     -0.559735     -3.274171
  C       0.710136      1.605909      1.053025
  C       1.668949      1.328591      3.387092
  C       3.076124      2.326478      1.530814
  H      -3.963833     -1.754406      0.523923
  H       3.551191     -0.959297     -0.399443
  H      -1.959785     -3.499428     -2.717670
  H      -2.841177     -3.026202     -4.207514
  H      -3.744367     -3.289117     -2.677621
  H      -0.421081     -1.446932     -3.028037
  H      -1.134197      0.196359     -3.155710
  H      -1.338326     -0.978455     -4.498752
  H      -4.766377     -0.928660     -2.849494
  H      -3.876751     -0.626618     -4.380309
  H      -3.698109      0.508679     -3.001835
  H      -0.261577      0.999613      1.539046
  H       0.892787      1.648022     -0.038880
  H       0.237610      2.576581      1.331908
  H       0.873123      0.603192      3.652999
  H       1.340104      2.341505      3.703760
  H       2.573831      1.054418      3.963262
  H       3.308017      2.323655      0.448325
  H       4.006435      2.075071      2.078793
  H       2.770477      3.352304      1.829259
  Si      5.373448     -3.182699      0.093499
  C       6.530359     -2.021961      1.029681
  C       4.313884     -4.203998      1.272206
  C       6.323950     -4.271292     -1.134932
  H       5.915181     -1.383608      1.697036
  H       7.113399     -1.375147      0.342457
  H       7.247600     -2.596253      1.652394
  H       3.589611     -4.842628      0.727193
  H       3.755998     -3.510986      1.934859
  H       4.946076     -4.862645      1.903584
  H       5.642364     -4.924128     -1.717503
  H       7.039586     -4.926107     -0.594530
  H       6.905210     -3.656844     -1.852825
  H       4.427160     -2.325264     -0.747038
51
Coordinates from ORCA-job my_molecule E -1977.868343313970
  Pt     -0.429523     -0.340291      0.532482
  O       1.117561     -1.246970      1.448199
  O      -2.195377      0.279860     -0.486272
  P       2.501593     -0.429334      1.441686
  P      -2.481021     -1.197664     -0.964952
  O      -3.930298     -1.746559     -0.456126
  O      -1.291959     -2.030931     -0.319100
  O       2.962294     -0.218096     -0.128946
  O       3.569802     -1.031343      2.322921
  C       1.972174      1.305926      1.872915
  C      -2.617208     -1.393392     -2.785376
  C      -2.812013     -2.890025     -3.103709
  C      -1.295166     -0.874825     -3.388864
  C      -3.812036     -0.551774     -3.278296
  C       0.709909      1.603606      1.049992
  C       1.669510      1.324321      3.383300
  C       3.079377      2.315227      1.525654
  H      -3.978902     -1.742801      0.522096
  H       3.542826     -0.971862     -0.402446
  H      -1.973158     -3.498546     -2.711230
  H      -2.846991     -3.023388     -4.205025
  H      -3.756857     -3.280673     -2.678253
  H      -0.424874     -1.450721     -3.016918
  H      -1.132311      0.194448     -3.149797
  H      -1.334439     -0.981560     -4.492603
  H      -4.769211     -0.917348     -2.858459
  H      -3.871219     -0.618072     -4.384820
  H      -3.694968      0.516136     -3.005185
  H      -0.263697      1.001653      1.537413
  H       0.890858      1.645010     -0.042233
  H       0.241304      2.575983      1.329719
  H       0.869507      0.603881      3.650157
  H       1.347209      2.339567      3.699030
  H       2.573173      1.045433      3.959046
  H       3.309943      2.311822      0.442874
  H       4.009291      2.059512      2.072391
  H       2.778816      3.342232      1.825294
  Si      5.379976     -3.181407      0.095547
  C       6.527733     -2.010032      1.029455
  C       4.329658     -4.210070      1.276297
  C       6.339544     -4.265576     -1.130010
  H       5.908275     -1.374901      1.695982
  H       7.107477     -1.361168      0.341396
  H       7.248188     -2.578602      1.653808
  H       3.611502     -4.855792      0.731604
  H       3.764807     -3.520900      1.937087
  H       4.967803     -4.861446      1.909122
  H       5.663452     -4.922344     -1.714505
  H       7.056931     -4.916311     -0.586911
  H       6.920147     -3.648690     -1.846283
  H       4.426520     -2.333738     -0.747338
51
Coordinates from ORCA-job my_molecule E -1977.868347904057
  Pt     -0.436685     -0.340501      0.536253
  O       1.108499     -1.250534      1.452092
  O      -2.200055      0.283186     -0.484678
  P       2.494569     -0.436282      1.441103
  P      -2.488563     -1.193926     -0.962677
  O      -3.941862     -1.737179     -0.459254
  O      -1.304957     -2.030372     -0.310787
  O       2.952210     -0.228277     -0.130999
  O       3.563180     -1.039290      2.321125
  C       1.970919      1.300895      1.871136
  C      -2.617084     -1.391491     -2.783474
  C      -2.817569     -2.887561     -3.100483
  C      -1.289563     -0.879927     -3.381189
  C      -3.805050     -0.544393     -3.283443
  C       0.708350      1.601618      1.049512
  C       1.669818      1.322502      3.381727
  C       3.080938      2.306332      1.521407
  H      -3.993866     -1.731611      0.518819
  H       3.531851     -0.982817     -0.404374
  H      -1.984030     -3.500097     -2.702667
  H      -2.848116     -3.023020     -4.201621
  H      -3.766458     -3.272633     -2.678896
  H      -0.423810     -1.459431     -3.004281
  H      -1.122666      0.188659     -3.141509
  H      -1.324469     -0.987151     -4.484969
  H      -4.766566     -0.904819     -2.868910
  H      -3.858682     -0.610645     -4.390265
  H      -3.684248      0.523043     -3.010222
  H      -0.265982      1.002858      1.538612
  H       0.887363      1.642029     -0.043071
  H       0.242708      2.575332      1.329637
  H       0.866304      0.606516      3.649962
  H       1.353611      2.339967      3.696216
  H       2.572407      1.039354      3.957061
  H       3.309368      2.301397      0.438176
  H       4.010972      2.047231      2.066459
  H       2.784751      3.334502      1.821398
  Si      5.382116     -3.179981      0.094835
  C       6.523403     -1.999098      1.024625
  C       4.341681     -4.214479      1.279439
  C       6.347648     -4.260244     -1.129635
  H       5.901486     -1.366519      1.691239
  H       7.099556     -1.348956      0.334770
  H       7.247225     -2.562598      1.649677
  H       3.627240     -4.865902      0.736625
  H       3.772197     -3.528348      1.939443
  H       4.985884     -4.859541      1.912537
  H       5.674837     -4.919845     -1.714737
  H       7.067048     -4.908109     -0.585732
  H       6.926638     -3.641156     -1.845284
  H       4.421433     -2.341221     -0.748919
51
Coordinates from ORCA-job my_molecule E -1977.868351457517
  Pt     -0.442329     -0.341252      0.541343
  O       1.101401     -1.252673      1.458900
  O      -2.202832      0.284880     -0.482757
  P       2.488798     -0.440359      1.443942
  P      -2.492807     -1.191976     -0.960581
  O      -3.949886     -1.730858     -0.463211
  O      -1.314366     -2.030815     -0.302374
  O       2.943859     -0.235013     -0.129446
  O       3.557534     -1.043925      2.323202
  C       1.969136      1.298433      1.871879
  C      -2.613180     -1.391267     -2.781899
  C      -2.819251     -2.886787     -3.097406
  C      -1.280380     -0.886793     -3.373988
  C      -3.794394     -0.538934     -3.288701
  C       0.706124      1.600480      1.051325
  C       1.669622      1.323577      3.382699
  C       3.081062      2.300763      1.518908
  H      -4.006399     -1.722434      0.514622
  H       3.520722     -0.991454     -0.403477
  H      -1.990965     -3.503069     -2.694224
  H      -2.845364     -3.024604     -4.198321
  H      -3.772039     -3.266447     -2.679646
  H      -0.419198     -1.470567     -2.993126
  H      -1.108631      0.180820     -3.133304
  H      -1.311628     -0.993710     -4.477843
  H      -4.760006     -0.893739     -2.878708
  H      -3.843019     -0.605835     -4.395644
  H      -3.669449      0.528223     -3.016075
  H      -0.268337      1.003688      1.541714
  H       0.883853      1.639648     -0.041536
  H       0.242414      2.575207      1.331038
  H       0.863716      0.610954      3.652503
  H       1.357982      2.342811      3.695790
  H       2.571355      1.037473      3.957896
  H       3.307342      2.293466      0.435272
  H       4.011484      2.039796      2.062590
  H       2.787853      3.330028      1.817961
  Si      5.380387     -3.179214      0.091758
  C       6.518265     -1.990618      1.016039
  C       4.349397     -4.217280      1.281537
  C       6.348396     -4.256461     -1.133367
  H       5.895553     -1.359871      1.683663
  H       7.090087     -1.339493      0.323606
  H       7.245972     -2.549842      1.640451
  H       3.636730     -4.873503      0.742071
  H       3.777634     -3.533043      1.941591
  H       4.999280     -4.857117      1.914070
  H       5.676542     -4.917780     -1.717664
  H       7.069982     -4.902653     -0.590468
  H       6.924820     -3.635677     -1.849567
  H       4.413088     -2.347718     -0.751228
51
Coordinates from ORCA-job my_molecule E -1977.868354444331
  Pt     -0.446337     -0.342953      0.547394
  O       1.097217     -1.253595      1.466587
  O      -2.204619      0.283992     -0.479380
  P       2.484941     -0.441514      1.448168
  P      -2.494128     -1.192583     -0.958254
  O      -3.954220     -1.729256     -0.467503
  O      -1.319666     -2.032762     -0.294503
  O       2.937448     -0.237870     -0.126351
  O       3.554357     -1.044971      2.326497
  C       1.966762      1.298138      1.874009
  C      -2.606312     -1.392193     -2.780334
  C      -2.816821     -2.887027     -3.095647
  C      -1.268739     -0.893458     -3.366523
  C      -3.781602     -0.535232     -3.292870
  C       0.702879      1.599402      1.054646
  C       1.669162      1.326371      3.385084
  C       3.078963      2.298929      1.517382
  H      -4.016270     -1.717456      0.509971
  H       3.511374     -0.996196     -0.401458
  H      -1.993030     -3.506525     -2.687981
  H      -2.838441     -3.026070     -4.196477
  H      -3.773036     -3.262561     -2.681977
  H      -0.411766     -1.481316     -2.982483
  H      -1.092713      0.173097     -3.124328
  H      -1.296230     -0.999231     -4.470529
  H      -4.750684     -0.884991     -2.886666
  H      -3.825877     -0.602777     -4.399849
  H      -3.652832      0.531655     -3.020765
  H      -0.270997      1.003136      1.546187
  H       0.879561      1.637329     -0.038444
  H       0.239679      2.574589      1.333486
  H       0.862289      0.615592      3.656688
  H       1.359976      2.346669      3.697030
  H       2.570683      1.039034      3.960039
  H       3.302832      2.289408      0.433292
  H       4.010278      2.037910      2.059609
  H       2.786907      3.328885      1.815032
  Si      5.375908     -3.178898      0.087358
  C       6.514420     -1.985580      1.005091
  C       4.352201     -4.216938      1.283430
  C       6.342013     -4.255528     -1.139642
  H       5.892833     -1.354564      1.673452
  H       7.082876     -1.334918      0.309520
  H       7.245047     -2.542081      1.628491
  H       3.638452     -4.875918      0.748671
  H       3.781676     -3.532698      1.944548
  H       5.006387     -4.853927      1.914431
  H       5.668355     -4.916868     -1.721924
  H       7.065078     -4.901867     -0.599040
  H       6.915998     -3.634410     -1.857509
  H       4.403701     -2.351937     -0.753850
51
Coordinates from ORCA-job my_molecule E -1977.868357268982
  Pt     -0.449141     -0.344087      0.551867
  O       1.094081     -1.253762      1.472959
  O      -2.206084      0.283159     -0.476588
  P       2.482095     -0.442009      1.452717
  P      -2.494723     -1.193250     -0.956582
  O      -3.956872     -1.728831     -0.470965
  O      -1.322929     -2.034153     -0.289042
  O       2.933769     -0.240193     -0.122333
  O       3.551517     -1.045324      2.331019
  C       1.964773      1.298516      1.875987
  C      -2.600788     -1.392820     -2.779205
  C      -2.813231     -2.887241     -3.094963
  C      -1.260202     -0.896913     -3.360799
  C      -3.772620     -0.533493     -3.295627
  C       0.700502      1.598689      1.057089
  C       1.668495      1.329659      3.387237
  C       3.077168      2.298000      1.516251
  H      -4.023734     -1.714487      0.506142
  H       3.505968     -0.999705     -0.397616
  H      -1.991952     -3.508223     -2.684520
  H      -2.831432     -3.026522     -4.195828
  H      -3.771522     -3.260917     -2.684415
  H      -0.405852     -1.487153     -2.974570
  H      -1.082086      0.169013     -3.117520
  H      -1.284547     -1.001651     -4.464977
  H      -4.743717     -0.880389     -2.891799
  H      -3.813861     -0.601807     -4.402581
  H      -3.641770      0.533349     -3.024053
  H      -0.273371      1.002984      1.549398
  H       0.877009      1.635238     -0.036092
  H       0.237615      2.574377      1.334561
  H       0.861024      0.620274      3.660522
  H       1.360653      2.350711      3.698054
  H       2.569907      1.042038      3.962236
  H       3.299578      2.286233      0.431910
  H       4.009046      2.037644      2.057878
  H       2.785588      3.328611      1.812009
  Si      5.372237     -3.179718      0.083626
  C       6.511296     -1.982573      0.995999
  C       4.354191     -4.217020      1.285061
  C       6.336296     -4.255879     -1.145146
  H       5.890359     -1.351314      1.664752
  H       7.076370     -1.331793      0.297835
  H       7.244787     -2.536527      1.618327
  H       3.639846     -4.878910      0.754644
  H       3.784964     -3.532412      1.946935
  H       5.011807     -4.851545      1.915016
  H       5.660710     -4.916997     -1.725523
  H       7.060667     -4.902510     -0.606821
  H       6.907971     -3.634563     -1.864686
  H       4.396077     -2.356338     -0.755972
51
Coordinates from ORCA-job my_molecule E -1977.868360212452
  Pt     -0.451319     -0.345389      0.556680
  O       1.092782     -1.253237      1.478034
  O      -2.208567      0.280662     -0.471737
  P       2.480505     -0.441048      1.456239
  P      -2.494622     -1.195546     -0.953891
  O      -3.958197     -1.731949     -0.474012
  O      -1.324444     -2.036260     -0.283264
  O       2.931093     -0.240648     -0.119325
  O       3.550713     -1.043626      2.334081
  C       1.962812      1.299901      1.877526
  C      -2.594050     -1.393918     -2.777154
  C      -2.805753     -2.888001     -3.094961
  C      -1.251061     -0.898049     -3.353082
  C      -3.763780     -0.533843     -3.297152
  C       0.697717      1.598150      1.059494
  C       1.668433      1.333325      3.389036
  C       3.074386      2.299106      1.514676
  H      -4.030455     -1.715659      0.502650
  H       3.503290     -1.000125     -0.394604
  H      -1.985824     -3.509251     -2.682336
  H      -2.819895     -3.026105     -4.196045
  H      -3.765562     -3.261938     -2.688232
  H      -0.398537     -1.489142     -2.964244
  H      -1.073370      0.167582     -3.108391
  H      -1.270868     -1.001559     -4.457479
  H      -4.736246     -0.879746     -2.895823
  H      -3.801721     -0.602705     -4.404137
  H      -3.632688      0.533039     -3.025694
  H      -0.275872      1.002443      1.552900
  H       0.873641      1.633532     -0.033822
  H       0.234442      2.573955      1.335882
  H       0.860955      0.624781      3.664415
  H       1.361129      2.354807      3.699075
  H       2.570403      1.046259      3.963484
  H       3.295302      2.285643      0.430059
  H       4.007114      2.040313      2.055556
  H       2.782452      3.330068      1.808799
  Si      5.367654     -3.180510      0.079233
  C       6.508761     -1.982292      0.987848
  C       4.351594     -4.214764      1.284897
  C       6.327878     -4.258254     -1.150946
  H       5.888641     -1.349045      1.655462
  H       7.073153     -1.332807      0.287896
  H       7.242734     -2.535171      1.610553
  H       3.635001     -4.877222      0.758230
  H       3.785605     -3.528609      1.947916
  H       5.010499     -4.849282      1.913597
  H       5.648995     -4.917054     -1.730186
  H       7.051580     -4.907274     -0.614749
  H       6.899333     -3.637961     -1.871560
  H       4.390168     -2.358109     -0.759584
51
Coordinates from ORCA-job my_molecule E -1977.868362371006
  Pt     -0.453477     -0.345232      0.558137
  O       1.089884     -1.253600      1.479917
  O      -2.211185      0.281026     -0.469634
  P       2.478296     -0.442806      1.458113
  P      -2.496612     -1.195001     -0.952732
  O      -3.961090     -1.731155     -0.475680
  O      -1.327607     -2.036136     -0.280658
  O       2.929721     -0.244624     -0.117419
  O       3.547942     -1.045358      2.336768
  C       1.962001      1.299152      1.877380
  C      -2.592819     -1.392993     -2.776151
  C      -2.802218     -2.887192     -3.095203
  C      -1.249301     -0.895287     -3.349152
  C      -3.762686     -0.534166     -3.298093
  C       0.697177      1.597454      1.059120
  C       1.668209      1.334644      3.388926
  C       3.074322      2.296901      1.513039
  H      -4.036056     -1.714651      0.500747
  H       3.503603     -1.003285     -0.391250
  H      -1.981928     -3.507291     -2.681788
  H      -2.814183     -3.024232     -4.196469
  H      -3.762244     -3.262635     -2.690407
  H      -0.396932     -1.485565     -2.958745
  H      -1.073652      0.170607     -3.104050
  H      -1.266254     -0.998534     -4.453687
  H      -4.735246     -0.880969     -2.897877
  H      -3.798767     -0.603732     -4.405108
  H      -3.633058      0.532975     -3.026954
  H      -0.277264      1.003011      1.553189
  H       0.873360      1.631549     -0.034185
  H       0.234597      2.573890      1.334467
  H       0.859752      0.627773      3.665690
  H       1.362141      2.356830      3.698026
  H       2.570149      1.047409      3.963350
  H       3.295382      2.281750      0.428475
  H       4.006863      2.038508      2.054389
  H       2.783109      3.328527      1.805556
  Si      5.367669     -3.181892      0.077909
  C       6.506924     -1.980317      0.984351
  C       4.354322     -4.215387      1.286454
  C       6.327709     -4.259459     -1.152425
  H       5.885449     -1.347083      1.650735
  H       7.069616     -1.330453      0.283340
  H       7.242242     -2.530575      1.607791
  H       3.638262     -4.880367      0.762322
  H       3.788663     -3.528715      1.949247
  H       5.015026     -4.847809      1.915430
  H       5.647911     -4.918047     -1.730864
  H       7.052115     -4.908519     -0.617290
  H       6.898097     -3.639124     -1.873858
  H       4.387997     -2.362348     -0.761375
51
Coordinates from ORCA-job my_molecule E -1977.868363790775
  Pt     -0.453596     -0.344942      0.559962
  O       1.090839     -1.252407      1.480372
  O      -2.213154      0.279314     -0.466305
  P       2.478787     -0.441044      1.458138
  P      -2.496060     -1.196739     -0.950690
  O      -3.960484     -1.734928     -0.476052
  O      -1.326829     -2.036823     -0.277707
  O       2.929497     -0.243171     -0.117590
  O       3.549410     -1.042522      2.336437
  C       1.961698      1.300740      1.877454
  C      -2.589249     -1.393958     -2.774273
  C      -2.794911     -2.888400     -3.094874
  C      -1.245767     -0.893033     -3.344488
  C      -3.760108     -0.537434     -3.297889
  C       0.696366      1.598287      1.059652
  C       1.668734      1.336265      3.389142
  C       3.073185      2.299156      1.512628
  H      -4.037200     -1.719089      0.500242
  H       3.505369     -1.000361     -0.391227
  H      -1.973821     -3.506782     -2.680631
  H      -2.804581     -3.024252     -4.196323
  H      -3.754829     -3.266248     -2.692092
  H      -0.392914     -1.481481     -2.952431
  H      -1.073382      0.173299     -3.098919
  H      -1.259755     -0.996277     -4.449089
  H      -4.732403     -0.886351     -2.898891
  H      -3.794420     -0.607374     -4.404995
  H      -3.633261      0.529987     -3.026734
  H      -0.277747      1.003525      1.554447
  H       0.871970      1.632144     -0.033724
  H       0.233281      2.574454      1.335175
  H       0.860514      0.629465      3.666821
  H       1.362526      2.358441      3.698165
  H       2.571356      1.049704      3.962843
  H       3.294420      2.283837      0.428094
  H       4.005960      2.041833      2.054046
  H       2.781377      3.330727      1.804793
  Si      5.364918     -3.182159      0.075350
  C       6.505389     -1.982915      0.983113
  C       4.348487     -4.213205      1.283440
  C       6.322489     -4.261848     -1.155115
  H       5.883884     -1.347755      1.647631
  H       7.071065     -1.334864      0.282758
  H       7.238030     -2.534320      1.608645
  H       3.630672     -4.876188      0.759225
  H       3.784804     -3.525161      1.946500
  H       5.007457     -4.847449      1.912408
  H       5.640578     -4.917583     -1.734289
  H       7.044924     -4.913646     -0.620627
  H       6.894936     -3.642694     -1.875926
  H       4.387481     -2.360309     -0.764787
51
Coordinates from ORCA-job my_molecule E -1977.868364741247
  Pt     -0.455073     -0.343909      0.559449
  O       1.087897     -1.253214      1.480263
  O      -2.214452      0.281397     -0.466875
  P       2.476854     -0.443700      1.458207
  P      -2.498300     -1.194560     -0.950924
  O      -3.963290     -1.731548     -0.476733
  O      -1.330079     -2.035393     -0.277110
  O       2.928351     -0.247324     -0.117400
  O       3.546714     -1.045481      2.337334
  C       1.961802      1.298862      1.876914
  C      -2.590788     -1.392443     -2.774386
  C      -2.795210     -2.887194     -3.094570
  C      -1.247402     -0.890854     -3.344266
  C      -3.762038     -0.537095     -3.299102
  C       0.697189      1.597992      1.058420
  C       1.668234      1.335001      3.388489
  C       3.074684      2.295897      1.512640
  H      -4.039931     -1.716309      0.499585
  H       3.505588     -1.003893     -0.389902
  H      -1.973883     -3.504720     -2.679570
  H      -2.804103     -3.023286     -4.196007
  H      -3.755103     -3.265569     -2.692260
  H      -0.394376     -1.478652     -2.951555
  H      -1.075996      0.175758     -3.099082
  H      -1.260654     -0.994845     -4.448820
  H      -4.734172     -0.886775     -2.900430
  H      -3.795665     -0.607747     -4.406244
  H      -3.636566      0.530555     -3.028464
  H      -0.277716      1.004612      1.553379
  H       0.873195      1.630996     -0.034888
  H       0.235261      2.574809      1.333634
  H       0.858983      0.629398      3.666218
  H       1.363205      2.357710      3.696955
  H       2.570482      1.047675      3.962409
  H       3.297192      2.279710      0.428366
  H       4.006644      2.037867      2.055125
  H       2.783961      3.327992      1.804059
  Si      5.366510     -3.182860      0.076033
  C       6.504314     -1.979697      0.981729
  C       4.353688     -4.214847      1.286379
  C       6.325246     -4.261681     -1.154379
  H       5.881552     -1.345569      1.646054
  H       7.068000     -1.331134      0.280228
  H       7.238572     -2.528425      1.607655
  H       3.636995     -4.880220      0.763727
  H       3.789009     -3.526893      1.948736
  H       5.014736     -4.846263      1.915997
  H       5.644182     -4.919501     -1.732137
  H       7.050143     -4.911130     -0.620302
  H       6.895344     -3.641788     -1.876409
  H       4.386202     -2.364245     -0.764359
51
Coordinates from ORCA-job my_molecule E -1977.868365552471
  Pt     -0.454648     -0.343152      0.561007
  O       1.088762     -1.251705      1.481794
  O      -2.214609      0.280547     -0.465557
  P       2.477413     -0.441631      1.458873
  P      -2.496776     -1.195605     -0.949897
  O      -3.961777     -1.733876     -0.477156
  O      -1.328681     -2.035528     -0.274707
  O       2.927834     -0.245083     -0.116990
  O       3.548132     -1.042492      2.337605
  C       1.961749      1.300596      1.878102
  C      -2.587030     -1.393809     -2.773421
  C      -2.789758     -2.888848     -3.093469
  C      -1.243374     -0.891394     -3.341957
  C      -3.758397     -0.539776     -3.299906
  C       0.696903      1.599571      1.059703
  C       1.668159      1.336112      3.389736
  C       3.074140      2.298359      1.514318
  H      -4.038969     -1.719028      0.499139
  H       3.505138     -1.001363     -0.390132
  H      -1.968695     -3.505589     -2.676790
  H      -2.796730     -3.025291     -4.194884
  H      -3.750016     -3.267854     -2.692616
  H      -0.390395     -1.478536     -2.948071
  H      -1.073012      0.175435     -3.096917
  H      -1.255207     -0.996051     -4.446458
  H      -4.730633     -0.890326     -2.902228
  H      -3.790711     -0.611009     -4.407091
  H      -3.634576      0.528084     -3.029566
  H      -0.277466      1.005715      1.554879
  H       0.872684      1.632423     -0.033617
  H       0.234699      2.576169      1.335193
  H       0.859432      0.629906      3.667413
  H       1.362547      2.358614      3.698226
  H       2.570777      1.049338      3.963355
  H       3.297441      2.282088      0.430206
  H       4.005957      2.040996      2.057356
  H       2.782731      3.330357      1.805442
  Si      5.362601     -3.182825      0.073495
  C       6.502152     -1.981264      0.978916
  C       4.348977     -4.213494      1.284319
  C       6.318745     -4.263031     -1.157874
  H       5.880387     -1.346034      1.643118
  H       7.067296     -1.334184      0.277225
  H       7.235048     -2.531017      1.605467
  H       3.631027     -4.877753      0.761964
  H       3.785355     -3.524568      1.946602
  H       5.009451     -4.845347      1.914058
  H       5.636347     -4.919953     -1.735026
  H       7.043698     -4.913235     -0.624742
  H       6.888837     -3.643636     -1.880328
  H       4.382974     -2.362556     -0.766299
51
Coordinates from ORCA-job my_molecule E -1977.868366476266
  Pt     -0.455497     -0.342718      0.562599
  O       1.087221     -1.251443      1.484522
  O      -2.214543      0.281042     -0.465483
  P       2.476238     -0.441904      1.460355
  P      -2.496540     -1.195134     -0.949786
  O      -3.962295     -1.732940     -0.478817
  O      -1.329754     -2.035242     -0.272482
  O       2.925728     -0.245865     -0.115817
  O       3.547290     -1.042601      2.338773
  C       1.961284      1.300465      1.879584
  C      -2.584284     -1.394023     -2.773442
  C      -2.787588     -2.889149     -3.092692
  C      -1.239459     -0.893226     -3.340672
  C      -3.754329     -0.539611     -3.302057
  C       0.696588      1.600043      1.060997
  C       1.667358      1.335911      3.391214
  C       3.074084      2.297953      1.516178
  H      -4.040379     -1.717594      0.497417
  H       3.502101     -1.002752     -0.389399
  H      -1.968014     -3.506355     -2.673661
  H      -2.792424     -3.026635     -4.193994
  H      -3.748959     -3.267058     -2.693481
  H      -0.387586     -1.481332     -2.945773
  H      -1.067965      0.173427     -3.095750
  H      -1.250330     -0.998446     -4.445092
  H      -4.727326     -0.889328     -2.905493
  H      -3.785297     -0.611530     -4.409247
  H      -3.630433      0.528325     -3.032172
  H      -0.277679      1.006548      1.556165
  H       0.872459      1.632210     -0.032301
  H       0.234907      2.576938      1.336246
  H       0.858745      0.629477      3.668631
  H       1.361682      2.358429      3.699501
  H       2.569931      1.049084      3.964897
  H       3.298259      2.280952      0.432255
  H       4.005415      2.040649      2.060076
  H       2.782643      3.330165      1.806487
  Si      5.359717     -3.182920      0.071980
  C       6.500297     -1.978854      0.972750
  C       4.350603     -4.213024      1.287044
  C       6.313594     -4.263615     -1.160847
  H       5.879732     -1.343432      1.637888
  H       7.063309     -1.332509      0.268718
  H       7.234931     -2.527121      1.598495
  H       3.632026     -4.878950      0.767659
  H       3.787677     -3.523322      1.949147
  H       5.013448     -4.842548      1.916599
  H       5.630630     -4.922686     -1.734820
  H       7.041669     -4.911516     -0.629142
  H       6.880179     -3.644112     -1.885958
  H       4.376868     -2.364656     -0.765989
51
Coordinates from ORCA-job my_molecule E -1977.868367578297
  Pt     -0.455895     -0.342364      0.565763
  O       1.086617     -1.249862      1.489503
  O      -2.214015      0.280309     -0.464434
  P       2.475571     -0.440131      1.463360
  P      -2.494478     -1.196069     -0.949066
  O      -3.961011     -1.734433     -0.481127
  O      -1.329036     -2.035652     -0.268747
  O       2.923332     -0.244355     -0.113338
  O       3.547642     -1.040210      2.340923
  C       1.960423      1.302125      1.882484
  C      -2.577986     -1.395586     -2.772984
  C      -2.781493     -2.890792     -3.091639
  C      -1.231503     -0.896343     -3.337662
  C      -3.746349     -0.540890     -3.304604
  C       0.695603      1.601420      1.063883
  C       1.666397      1.337418      3.394184
  C       3.073005      2.299914      1.519084
  H      -4.041118     -1.718130      0.494937
  H       3.497745     -1.002357     -0.388040
  H      -1.963970     -3.508483     -2.669217
  H      -2.782746     -3.029409     -4.192821
  H      -3.744484     -3.267604     -2.695277
  H      -0.381095     -1.485526     -2.941113
  H      -1.058923      0.170106     -3.092718
  H      -1.240516     -1.001997     -4.442048
  H      -4.720390     -0.889726     -2.909821
  H      -3.775185     -0.613584     -4.411779
  H      -3.622462      0.527145     -3.035123
  H      -0.278299      1.007782      1.558909
  H       0.871551      1.632846     -0.029407
  H       0.233991      2.578445      1.338657
  H       0.858593      0.629997      3.671398
  H       1.359764      2.359658      3.702357
  H       2.569187      1.051272      3.967872
  H       3.298023      2.281856      0.435362
  H       4.003949      2.043570      2.064045
  H       2.780691      3.332262      1.808006
  Si      5.353201     -3.183194      0.068289
  C       6.496999     -1.977832      0.963285
  C       4.348793     -4.211501      1.288712
  C       6.302309     -4.265250     -1.167093
  H       5.878845     -1.341421      1.629728
  H       7.057972     -1.332698      0.256598
  H       7.233265     -2.525466      1.587612
  H       3.628938     -4.879105      0.773224
  H       3.787471     -3.520387      1.950726
  H       5.014070     -4.838860      1.917848
  H       5.617386     -4.925966     -1.736795
  H       7.033642     -4.911392     -0.637735
  H       6.864777     -3.646192     -1.895792
  H       4.367132     -2.365894     -0.766560
51
Coordinates from ORCA-job my_molecule E -1977.868368761116
  Pt     -0.456856     -0.342405      0.569096
  O       1.085339     -1.248849      1.494644
  O      -2.213722      0.279655     -0.463373
  P       2.474319     -0.439188      1.466368
  P      -2.492929     -1.196786     -0.948541
  O      -3.960436     -1.735412     -0.484063
  O      -1.329106     -2.036203     -0.265115
  O       2.920169     -0.243753     -0.110948
  O       3.547522     -1.039050      2.342689
  C       1.959245      1.303055      1.885377
  C      -2.571793     -1.396671     -2.772800
  C      -2.775992     -2.891800     -3.091209
  C      -1.223296     -0.899279     -3.334279
  C      -3.737999     -0.541068     -3.307446
  C       0.694342      1.602082      1.066808
  C       1.665227      1.338258      3.397138
  C       3.071749      2.300891      1.521761
  H      -4.043171     -1.717773      0.491757
  H       3.492468     -1.003052     -0.386678
  H      -1.960985     -3.510414     -2.665160
  H      -2.773134     -3.031391     -4.192281
  H      -3.740969     -3.267120     -2.698247
  H      -0.374697     -1.489863     -2.935951
  H      -1.049431      0.166825     -3.088975
  H      -1.230067     -1.004910     -4.438663
  H      -4.713330     -0.888606     -2.914699
  H      -3.764518     -0.614267     -4.414600
  H      -3.613490      0.526964     -3.038132
  H      -0.279529      1.008655      1.561509
  H       0.870328      1.632724     -0.026480
  H       0.232953      2.579371      1.340911
  H       0.858212      0.629826      3.674142
  H       1.357623      2.360176      3.705366
  H       2.568206      1.052703      3.970835
  H       3.297491      2.281532      0.438224
  H       4.002234      2.045503      2.067878
  H       2.778660      3.333464      1.809022
  Si      5.346955     -3.183570      0.065018
  C       6.494162     -1.975339      0.951946
  C       4.349452     -4.209649      1.292913
  C       6.290739     -4.267275     -1.172991
  H       5.878522     -1.337941      1.619794
  H       7.051695     -1.331193      0.241725
  H       7.233321     -2.521324      1.574292
  H       3.628323     -4.880065      0.782845
  H       3.790114     -3.516934      1.954928
  H       5.018313     -4.833996      1.921246
  H       5.603665     -4.930932     -1.736663
  H       7.026480     -4.910432     -0.646167
  H       6.847454     -3.649064     -1.906821
  H       4.356100     -2.368643     -0.766142
51
Coordinates from ORCA-job my_molecule E -1977.868370105253
  Pt     -0.457606     -0.342289      0.572175
  O       1.084293     -1.247608      1.499425
  O      -2.213459      0.279015     -0.462338
  P       2.473228     -0.438053      1.469256
  P      -2.491245     -1.197549     -0.947981
  O      -3.959556     -1.736682     -0.486783
  O      -1.328775     -2.036640     -0.261744
  O       2.917213     -0.242878     -0.108673
  O       3.547649     -1.037853      2.344164
  C       1.958216      1.304209      1.888202
  C      -2.565547     -1.397836     -2.772486
  C      -2.769397     -2.892960     -3.090957
  C      -1.215431     -0.901029     -3.330567
  C      -3.730227     -0.542010     -3.309982
  C       0.693329      1.602909      1.069591
  C       1.664206      1.339251      3.400003
  C       3.070664      2.302010      1.524351
  H      -4.044953     -1.717956      0.488778
  H       3.487452     -1.003396     -0.385378
  H      -1.956530     -3.511990     -2.661366
  H      -2.762128     -3.033244     -4.191939
  H      -3.736205     -3.267404     -2.701629
  H      -0.368113     -1.492103     -2.930244
  H      -1.041493      0.164968     -3.084918
  H      -1.219624     -1.006528     -4.435011
  H      -4.706577     -0.888980     -2.919287
  H      -3.754382     -0.615516     -4.417129
  H      -3.605671      0.526059     -3.040674
  H      -0.280877      1.009840      1.563738
  H       0.869434      1.632983     -0.023694
  H       0.232133      2.580460      1.343019
  H       0.857999      0.629761      3.676785
  H       1.355471      2.360763      3.708486
  H       2.567387      1.054399      3.973723
  H       3.297368      2.281098      0.441060
  H       4.000544      2.047807      2.071943
  H       2.776751      3.334889      1.809610
  Si      5.340412     -3.184273      0.061619
  C       6.490646     -1.973072      0.940756
  C       4.349821     -4.208113      1.296915
  C       6.279072     -4.269661     -1.178710
  H       5.877056     -1.335044      1.609921
  H       7.044525     -1.329265      0.227437
  H       7.232953     -2.517286      1.560946
  H       3.628064     -4.881870      0.792158
  H       3.791996     -3.513968      1.958694
  H       5.022266     -4.829216      1.924646
  H       5.589827     -4.936734     -1.735711
  H       7.019377     -4.909420     -0.654212
  H       6.829627     -3.652691     -1.918229
  H       4.344751     -2.371839     -0.765948
51
Coordinates from ORCA-job my_molecule E -1977.868371498888
  Pt     -0.458243     -0.342317      0.574025
  O       1.083449     -1.247255      1.501956
  O      -2.213440      0.278811     -0.461782
  P       2.472325     -0.437881      1.470542
  P      -2.490458     -1.197785     -0.947765
  O      -3.959320     -1.737110     -0.488746
  O      -1.328874     -2.036824     -0.259870
  O       2.914671     -0.242563     -0.107927
  O       3.547846     -1.038017      2.343936
  C       1.957557      1.304406      1.889922
  C      -2.561627     -1.398268     -2.772370
  C      -2.764735     -2.893377     -3.091242
  C      -1.210546     -0.901030     -3.327714
  C      -3.725437     -0.542437     -3.311772
  C       0.692728      1.603056      1.071330
  C       1.663619      1.339010      3.401715
  C       3.070070      2.302043      1.525979
  H      -4.046585     -1.717829      0.486627
  H       3.483413     -1.003944     -0.385419
  H      -1.953345     -3.512553     -2.659056
  H      -2.753939     -3.033892     -4.192179
  H      -3.732925     -3.267385     -2.704883
  H      -0.363816     -1.491781     -2.925772
  H      -1.037509      0.165005     -3.081590
  H      -1.212553     -1.006093     -4.432231
  H      -4.702445     -0.889382     -2.922714
  H      -3.747795     -0.615767     -4.418942
  H      -3.601020      0.525615     -3.042178
  H      -0.282109      1.010476      1.564839
  H       0.868795      1.633172     -0.021966
  H       0.231708      2.580763      1.344536
  H       0.857914      0.628762      3.678254
  H       1.354129      2.360138      3.710805
  H       2.566953      1.054502      3.975344
  H       3.297628      2.279874      0.442911
  H       3.999409      2.048680      2.074815
  H       2.775729      3.335218      1.809636
  Si      5.336091     -3.184878      0.059737
  C       6.488024     -1.970365      0.932233
  C       4.351620     -4.206972      1.301367
  C       6.271268     -4.271866     -1.181668
  H       5.875460     -1.332235      1.602274
  H       7.038454     -1.326371      0.216455
  H       7.233436     -2.512462      1.550640
  H       3.629763     -4.883838      0.800948
  H       3.794695     -3.511913      1.962909
  H       5.027202     -4.825186      1.928586
  H       5.580648     -4.942996     -1.732139
  H       7.015809     -4.907706     -0.658453
  H       6.816095     -3.656513     -1.926754
  H       4.336144     -2.375272     -0.765377
51
Coordinates from ORCA-job my_molecule E -1977.868372804226
  Pt     -0.458638     -0.342241      0.575005
  O       1.082794     -1.247340      1.503068
  O      -2.213466      0.279005     -0.461609
  P       2.471614     -0.438143      1.471155
  P      -2.490137     -1.197625     -0.947707
  O      -3.959472     -1.736708     -0.490062
  O      -1.329137     -2.036728     -0.258893
  O       2.912873     -0.242541     -0.107710
  O       3.547859     -1.038627      2.343473
  C       1.957199      1.304239      1.890991
  C      -2.559206     -1.398353     -2.772240
  C      -2.761203     -2.893491     -3.091632
  C      -1.207655     -0.900028     -3.325501
  C      -3.722629     -0.542810     -3.313133
  C       0.692510      1.602993      1.072311
  C       1.663292      1.338533      3.402715
  C       3.069871      2.301585      1.527016
  H      -4.047939     -1.717255      0.485193
  H       3.480271     -1.004693     -0.385852
  H      -1.950647     -3.512454     -2.657617
  H      -2.747718     -3.033883     -4.192558
  H      -3.730343     -3.267496     -2.707606
  H      -0.360966     -1.489829     -2.922173
  H      -1.036163      0.166203     -3.078948
  H      -1.207845     -1.004641     -4.430099
  H      -4.700028     -0.890176     -2.925449
  H      -3.743458     -0.615796     -4.420364
  H      -3.598726      0.525225     -3.043197
  H      -0.283026      1.010857      1.565330
  H       0.868548      1.633589     -0.020994
  H       0.231569      2.580732      1.345660
  H       0.857656      0.628100      3.679185
  H       1.353629      2.359480      3.712379
  H       2.566683      1.054043      3.976247
  H       3.298285      2.278320      0.444164
  H       3.998778      2.048832      2.076848
  H       2.775462      3.335083      1.809365
  Si      5.333017     -3.185663      0.058679
  C       6.485219     -1.967550      0.925848
  C       4.354132     -4.207042      1.305337
  C       6.266332     -4.273654     -1.183084
  H       5.872896     -1.330066      1.596738
  H       7.032161     -1.322829      0.208042
  H       7.233841     -2.507159      1.542623
  H       3.632636     -4.886652      0.808172
  H       3.797429     -3.511823      1.966876
  H       5.032621     -4.822609      1.932015
  H       5.575197     -4.949151     -1.727630
  H       7.014882     -4.905312     -0.660527
  H       6.805960     -3.659801     -1.933166
  H       4.329118     -2.379177     -0.764872
51
Coordinates from ORCA-job my_molecule E -1977.868373986485
  Pt     -0.458079     -0.342353      0.574982
  O       1.083457     -1.247738      1.502472
  O      -2.213008      0.278886     -0.461739
  P       2.471988     -0.438081      1.470901
  P      -2.489504     -1.197713     -0.947928
  O      -3.958850     -1.736744     -0.490249
  O      -1.328202     -2.036754     -0.259568
  O       2.912687     -0.241517     -0.108142
  O       3.548617     -1.038717      2.342662
  C       1.957299      1.304138      1.891480
  C      -2.558449     -1.398389     -2.772294
  C      -2.759189     -2.893597     -3.092239
  C      -1.207258     -0.898449     -3.325029
  C      -3.722267     -0.543447     -3.313493
  C       0.692554      1.602750      1.072868
  C       1.663536      1.337978      3.403135
  C       3.069756      2.301656      1.527548
  H      -4.047341     -1.717576      0.485014
  H       3.478827     -1.004295     -0.387145
  H      -1.948432     -3.511994     -2.657876
  H      -2.744849     -3.033489     -4.193223
  H      -3.728446     -3.268208     -2.709057
  H      -0.359845     -1.486882     -2.921280
  H      -1.037528      0.168036     -3.078130
  H      -1.206861     -1.002614     -4.429664
  H      -4.699576     -0.891719     -2.926407
  H      -3.742437     -0.615890     -4.420794
  H      -3.599202      0.524556     -3.043117
  H      -0.283123      1.010362      1.565713
  H       0.868464      1.634403     -0.020428
  H       0.231219      2.580124      1.346932
  H       0.857848      0.627591      3.679693
  H       1.353946      2.358822      3.713339
  H       2.567029      1.053438      3.976480
  H       3.298588      2.278041      0.444798
  H       3.998676      2.049357      2.077636
  H       2.775267      3.335230      1.809470
  Si      5.331372     -3.186089      0.058554
  C       6.483518     -1.966128      0.923131
  C       4.354885     -4.207097      1.307437
  C       6.264076     -4.275127     -1.182655
  H       5.871244     -1.329102      1.594480
  H       7.028588     -1.321111      0.204145
  H       7.233948     -2.504246      1.539034
  H       3.633392     -4.887544      0.811451
  H       3.798324     -3.512050      1.969258
  H       5.034639     -4.821702      1.933681
  H       5.572980     -4.953830     -1.723336
  H       7.015000     -4.903830     -0.659882
  H       6.800802     -3.662685     -1.935958
  H       4.325851     -2.381192     -0.764848
51
Coordinates from ORCA-job my_molecule E -1977.868375440307
  Pt     -0.457989     -0.342783      0.576316
  O       1.083448     -1.248382      1.503725
  O      -2.212495      0.278552     -0.461342
  P       2.471659     -0.438108      1.472304
  P      -2.488399     -1.197972     -0.948099
  O      -3.958528     -1.736427     -0.492103
  O      -1.327622     -2.037069     -0.259113
  O       2.911599     -0.240632     -0.106999
  O       3.548684     -1.038551      2.343665
  C       1.956652      1.304029      1.893242
  C      -2.555310     -1.398509     -2.772358
  C      -2.755379     -2.893651     -3.093176
  C      -1.203535     -0.897946     -3.323193
  C      -3.718310     -0.543389     -3.315350
  C       0.691743      1.602260      1.074673
  C       1.663163      1.337926      3.404831
  C       3.068787      2.301714      1.528967
  H      -4.048224     -1.717002      0.483058
  H       3.474714     -1.005073     -0.387527
  H      -1.945375     -3.511978     -2.657411
  H      -2.738838     -3.032902     -4.194210
  H      -3.725492     -3.268319     -2.712199
  H      -0.356207     -1.485706     -2.918348
  H      -1.034886      0.168589     -3.075531
  H      -1.201608     -1.001462     -4.427874
  H      -4.696214     -0.891865     -2.929919
  H      -3.736571     -0.615446     -4.422760
  H      -3.595801      0.524541     -3.044541
  H      -0.283827      1.009272      1.567587
  H       0.867563      1.635137     -0.018625
  H       0.229799      2.579152      1.349608
  H       0.857221      0.628015      3.681863
  H       1.354107      2.358895      3.715264
  H       2.566762      1.053241      3.977953
  H       3.298089      2.277289      0.446343
  H       3.997862      2.050221      2.079284
  H       2.774119      3.335460      1.810009
  Si      5.327180     -3.187133      0.057582
  C       6.480183     -1.962573      0.914432
  C       4.358039     -4.207335      1.312813
  C       6.257111     -4.277800     -1.184231
  H       5.869370     -1.325847      1.587366
  H       7.020280     -1.317845      0.191388
  H       7.235013     -2.497189      1.527983
  H       3.635614     -4.889813      0.821041
  H       3.802918     -3.512214      1.975771
  H       5.041704     -4.819324      1.937343
  H       5.565694     -4.962136     -1.717402
  H       7.013472     -4.901058     -0.662694
  H       6.787266     -3.667185     -1.943620
  H       4.316728     -2.386203     -0.763978
51
Coordinates from ORCA-job my_molecule E -1977.868376950745
  Pt     -0.457503     -0.343750      0.579287
  O       1.084338     -1.248436      1.506941
  O      -2.211756      0.276550     -0.459487
  P       2.471831     -0.436690      1.475157
  P      -2.485552     -1.199839     -0.947834
  O      -3.956458     -1.738927     -0.494948
  O      -1.325128     -2.038399     -0.257792
  O       2.910447     -0.238097     -0.104571
  O       3.549729     -1.036149      2.346013
  C       1.955596      1.305075      1.896267
  C      -2.549039     -1.399307     -2.772218
  C      -2.747766     -2.894328     -3.094594
  C      -1.196466     -0.897721     -3.320244
  C      -3.711117     -0.544280     -3.317498
  C       0.689954      1.602048      1.078304
  C       1.663031      1.339261      3.407926
  C       3.066640      2.303596      1.530966
  H      -4.048242     -1.719326      0.480031
  H       3.469156     -1.004905     -0.387443
  H      -1.938598     -3.512475     -2.657104
  H      -2.728233     -3.032483     -4.195727
  H      -3.718803     -3.269672     -2.716614
  H      -0.349344     -1.484988     -2.914223
  H      -1.028968      0.168740     -3.071353
  H      -1.192481     -1.000307     -4.424960
  H      -4.689764     -0.893389     -2.934509
  H      -3.726581     -0.615780     -4.425023
  H      -3.589850      0.523541     -3.045852
  H      -0.284571      1.007502      1.571820
  H       0.865390      1.636242     -0.015004
  H       0.226810      2.578077      1.354336
  H       0.857224      0.629635      3.685941
  H       1.354244      2.360343      3.718283
  H       2.567092      1.054939      3.980550
  H       3.296018      2.278203      0.448377
  H       3.996254      2.053701      2.081193
  H       2.771052      3.337347      1.810942
  Si      5.319673     -3.188348      0.055068
  C       6.475817     -1.959747      0.901793
  C       4.358342     -4.205832      1.318393
  C       6.244188     -4.282300     -1.187911
  H       5.868311     -1.321853      1.576561
  H       7.010611     -1.316806      0.173190
  H       7.235124     -2.491149      1.512520
  H       3.633651     -4.890024      0.832387
  H       3.806211     -3.509531      1.982630
  H       5.046193     -4.815235      1.940864
  H       5.551474     -4.972315     -1.712027
  H       7.006728     -4.899934     -0.668590
  H       6.766731     -3.674183     -1.954544
  H       4.304290     -2.390826     -0.763864
51
Coordinates from ORCA-job my_molecule E -1977.868378524843
  Pt     -0.456719     -0.345220      0.583023
  O       1.086050     -1.248174      1.511191
  O      -2.211041      0.273342     -0.456501
  P       2.472523     -0.434269      1.478746
  P      -2.481665     -1.202803     -0.947399
  O      -3.953184     -1.743719     -0.498442
  O      -1.321346     -2.040469     -0.256316
  O       2.909680     -0.234574     -0.101388
  O       3.551517     -1.032078      2.349256
  C       1.954174      1.306862      1.899695
  C      -2.541261     -1.400197     -2.772133
  C      -2.738261     -2.895041     -3.096640
  C      -1.188010     -0.897192     -3.317165
  C      -3.702695     -0.545490     -3.319313
  C       0.687270      1.601838      1.082866
  C       1.663035      1.341576      3.411609
  C       3.063443      2.306876      1.532848
  H      -4.047521     -1.724292      0.476302
  H       3.463244     -1.004095     -0.386965
  H      -1.929647     -3.513031     -2.657916
  H      -2.716005     -3.031714     -4.197925
  H      -3.709889     -3.271666     -2.721476
  H      -0.341059     -1.484113     -2.910253
  H      -1.021615      0.169099     -3.066867
  H      -1.181992     -0.998783     -4.421915
  H      -4.682027     -0.895645     -2.938999
  H      -3.715245     -0.616162     -4.426951
  H      -3.583059      0.522179     -3.046415
  H      -0.285484      1.004879      1.577278
  H       0.862057      1.637390     -0.010482
  H       0.222449      2.576700      1.360151
  H       0.857645      0.632058      3.690889
  H       1.354306      2.362772      3.721528
  H       2.567764      1.057976      3.983569
  H       3.292142      2.280859      0.450146
  H       3.994023      2.058991      2.082421
  H       2.766290      3.340354      1.812122
  Si      5.310896     -3.189794      0.052190
  C       6.472054     -1.958247      0.887697
  C       4.357069     -4.203245      1.324262
  C       6.228130     -4.288020     -1.192521
  H       5.869269     -1.317784      1.564228
  H       7.001880     -1.318303      0.152812
  H       7.235319     -2.487209      1.495503
  H       3.629082     -4.888655      0.844931
  H       3.809227     -3.504901      1.989915
  H       5.048961     -4.810612      1.944285
  H       5.533376     -4.983018     -1.707259
  H       6.996934     -4.900545     -0.676302
  H       6.742752     -3.682512     -1.966577
  H       4.291098     -2.394709     -0.763530
51
Coordinates from ORCA-job my_molecule E -1977.868380041817
  Pt     -0.456106     -0.346432      0.585701
  O       1.087615     -1.247655      1.514205
  O      -2.211021      0.270417     -0.453532
  P       2.473341     -0.432230      1.481316
  P      -2.478728     -1.205462     -0.946931
  O      -3.950247     -1.748840     -0.500853
  O      -1.318018     -2.042184     -0.255576
  O       2.909952     -0.232218     -0.098978
  O       3.552956     -1.028584      2.351938
  C       1.953376      1.308470      1.901659
  C      -2.535892     -1.400417     -2.772147
  C      -2.729953     -2.895245     -3.098571
  C      -1.183005     -0.894607     -3.315422
  C      -3.698320     -0.547347     -3.319664
  C       0.685243      1.601886      1.086119
  C       1.663653      1.343985      3.413891
  C       3.061223      2.309637      1.533245
  H      -4.046231     -1.730401      0.473743
  H       3.459852     -1.003689     -0.386307
  H      -1.920484     -3.512325     -2.660106
  H      -2.706751     -3.030514     -4.200009
  H      -3.700993     -3.274350     -2.724427
  H      -0.335374     -1.480361     -2.908125
  H      -1.018618      0.171772     -3.064383
  H      -1.175620     -0.995839     -4.420179
  H      -4.677504     -0.899582     -2.940862
  H      -3.709282     -0.617247     -4.427377
  H      -3.581108      0.520320     -3.045660
  H      -0.285881      1.002888      1.581418
  H       0.859277      1.638202     -0.007336
  H       0.219201      2.575907      1.364313
  H       0.858487      0.634744      3.694274
  H       1.355145      2.365425      3.723029
  H       2.568890      1.060856      3.985295
  H       3.288826      2.283411      0.450310
  H       3.992620      2.063097      2.081996
  H       2.762795      3.342784      1.812362
  Si      5.304956     -3.191149      0.050378
  C       6.470002     -1.958753      0.879274
  C       4.354311     -4.201125      1.327444
  C       6.217267     -4.292583     -1.195264
  H       5.870681     -1.315627      1.556378
  H       6.997591     -1.321411      0.140480
  H       7.234825     -2.486929      1.485752
  H       3.623885     -4.886876      0.852285
  H       3.809659     -3.500846      1.993705
  H       5.048009     -4.807860      1.946127
  H       5.521092     -4.990187     -1.704463
  H       6.989898     -4.902160     -0.681253
  H       6.726973     -3.688534     -1.973748
  H       4.283467     -2.396765     -0.763655
51
Coordinates from ORCA-job my_molecule E -1977.868381621516
  Pt     -0.456159     -0.347717      0.588131
  O       1.088703     -1.247328      1.516561
  O      -2.212111      0.267549     -0.449958
  P       2.473746     -0.430694      1.482963
  P      -2.476795     -1.207885     -0.946409
  O      -3.948106     -1.754437     -0.503569
  O      -1.315727     -2.043849     -0.254801
  O       2.909950     -0.230989     -0.097423
  O       3.554032     -1.025627      2.353735
  C       1.952440      1.309620      1.902571
  C      -2.531371     -1.399650     -2.772281
  C      -2.721686     -2.894456     -3.101010
  C      -1.179178     -0.889948     -3.313476
  C      -3.695417     -0.548782     -3.319491
  C       0.682858      1.601674      1.088771
  C       1.664427      1.345988      3.415230
  C       3.058887      2.311865      1.532402
  H      -4.045845     -1.737777      0.470868
  H       3.456689     -1.004244     -0.385964
  H      -1.910902     -3.510448     -2.663345
  H      -2.698023     -3.028241     -4.202619
  H      -3.691706     -3.276646     -2.727405
  H      -0.330624     -1.473883     -2.905455
  H      -1.017776      0.176694     -3.061888
  H      -1.169942     -0.991087     -4.418236
  H      -4.674210     -0.903844     -2.942293
  H      -3.705013     -0.617362     -4.427269
  H      -3.581120      0.518845     -3.043931
  H      -0.286756      1.000910      1.584809
  H       0.855636      1.638616     -0.004867
  H       0.215849      2.574929      1.367912
  H       0.859385      0.637066      3.696617
  H       1.356357      2.367722      3.723531
  H       2.570122      1.063055      3.985968
  H       3.284753      2.285891      0.449110
  H       3.991138      2.066234      2.079989
  H       2.759388      3.344603      1.811942
  Si      5.300472     -3.192954      0.049613
  C       6.469288     -1.959577      0.871819
  C       4.353181     -4.199381      1.331830
  C       6.208040     -4.297451     -1.196916
  H       5.873182     -1.313530      1.549023
  H       6.995013     -1.324820      0.129456
  H       7.235342     -2.487098      1.477312
  H       3.620747     -4.886008      0.861024
  H       3.811439     -3.497084      1.998335
  H       5.048734     -4.805283      1.949290
  H       5.510400     -4.997476     -1.700689
  H       6.984483     -4.904093     -0.685204
  H       6.712572     -3.694650     -1.979792
  H       4.277147     -2.399492     -0.762709
51
Coordinates from ORCA-job my_molecule E -1977.868382866542
  Pt     -0.456618     -0.348097      0.589378
  O       1.089061     -1.246757      1.517343
  O      -2.213862      0.265908     -0.447228
  P       2.473790     -0.429785      1.483116
  P      -2.476317     -1.209235     -0.945724
  O      -3.947127     -1.758629     -0.505047
  O      -1.314919     -2.044614     -0.253852
  O       2.909917     -0.230924     -0.097271
  O       3.554484     -1.023961      2.353970
  C       1.952138      1.310458      1.902233
  C      -2.528950     -1.398779     -2.772058
  C      -2.714964     -2.893748     -3.102393
  C      -1.177793     -0.884661     -3.311554
  C      -3.695166     -0.550723     -3.318809
  C       0.681582      1.602066      1.089816
  C       1.665396      1.347258      3.415229
  C       3.057933      2.313071      1.530909
  H      -4.045899     -1.743964      0.469305
  H       3.455436     -1.004933     -0.386027
  H      -1.902496     -3.508138     -2.665507
  H      -2.691168     -3.026586     -4.204089
  H      -3.683761     -3.279025     -2.728830
  H      -0.328014     -1.466122     -2.902498
  H      -1.020154      0.182492     -3.059896
  H      -1.166649     -0.986029     -4.416312
  H      -4.673201     -0.908978     -2.942690
  H      -3.703985     -0.618038     -4.426652
  H      -3.584025      0.516938     -3.041999
  H      -0.287389      1.000674      1.586175
  H       0.853153      1.639232     -0.004018
  H       0.214325      2.575032      1.369567
  H       0.860317      0.638601      3.697170
  H       1.357780      2.369196      3.723155
  H       2.571366      1.064158      3.985403
  H       3.282614      2.287401      0.447349
  H       3.990548      2.067589      2.077789
  H       2.758164      3.345603      1.810956
  Si      5.298213     -3.194461      0.049279
  C       6.468618     -1.960783      0.868874
  C       4.351753     -4.198906      1.333635
  C       6.203915     -4.300534     -1.197263
  H       5.873564     -1.313202      1.545595
  H       6.994178     -1.327138      0.125432
  H       7.234750     -2.488217      1.474412
  H       3.618722     -4.886091      0.864558
  H       3.811038     -3.495561      1.999868
  H       5.047751     -4.804538      1.950862
  H       5.505481     -5.001554     -1.698536
  H       6.981939     -4.905809     -0.686400
  H       6.706003     -3.698392     -1.982246
  H       4.274461     -2.401299     -0.762670
51
Coordinates from ORCA-job my_molecule E -1977.868383999620
  Pt     -0.457474     -0.348327      0.589868
  O       1.088864     -1.246748      1.516842
  O      -2.215954      0.265092     -0.445223
  P       2.473414     -0.429744      1.482055
  P      -2.476866     -1.209736     -0.945358
  O      -3.947135     -1.761573     -0.506312
  O      -1.315340     -2.044959     -0.253282
  O       2.909454     -0.231707     -0.098294
  O       3.554447     -1.023640      2.352815
  C       1.951876      1.310487      1.901235
  C      -2.527901     -1.397371     -2.772029
  C      -2.710052     -2.892466     -3.103821
  C      -1.177717     -0.879073     -3.309887
  C      -3.696042     -0.551738     -3.318250
  C       0.680526      1.602191      1.090124
  C       1.666266      1.347137      3.414500
  C       3.057300      2.313227      1.529202
  H      -4.046462     -1.749180      0.468009
  H       3.454205     -1.006286     -0.386926
  H      -1.896018     -3.505405     -2.667773
  H      -2.686459     -3.024507     -4.205596
  H      -3.677748     -3.280340     -2.730080
  H      -0.326791     -1.457965     -2.899601
  H      -1.023905      0.188642     -3.058215
  H      -1.164650     -0.980597     -4.414655
  H      -4.673341     -0.913076     -2.943199
  H      -3.704302     -0.617372     -4.426171
  H      -3.587719      0.515852     -3.039980
  H      -0.288238      1.000566      1.586472
  H       0.850788      1.639822     -0.003918
  H       0.213280      2.574921      1.370727
  H       0.861088      0.638645      3.696671
  H       1.359198      2.369148      3.722656
  H       2.572430      1.063523      3.984050
  H       3.280864      2.288295      0.445395
  H       3.990224      2.067307      2.075260
  H       2.757861      3.345614      1.810243
  Si      5.297343     -3.195905      0.049929
  C       6.468499     -1.960817      0.866443
  C       4.352736     -4.198898      1.336801
  C       6.202082     -4.303309     -1.196107
  H       5.873923     -1.312506      1.542918
  H       6.993315     -1.327730      0.122007
  H       7.235447     -2.487460      1.471719
  H       3.619472     -4.886890      0.869315
  H       3.812548     -3.494955      2.002812
  H       5.049538     -4.803859      1.953732
  H       5.503266     -5.005989     -1.694532
  H       6.981674     -4.906691     -0.685450
  H       6.701671     -3.702123     -1.983415
  H       4.272448     -2.404059     -0.761914
51
Coordinates from ORCA-job my_molecule E -1977.868384801809
  Pt     -0.457856     -0.348224      0.590210
  O       1.088884     -1.246472      1.516485
  O      -2.217172      0.264668     -0.444163
  P       2.473274     -0.429336      1.481316
  P      -2.476942     -1.210056     -0.945037
  O      -3.946727     -1.763639     -0.506905
  O      -1.315348     -2.045075     -0.252618
  O       2.909214     -0.231827     -0.099001
  O       3.554548     -1.023012      2.352003
  C       1.951748      1.310885      1.900712
  C      -2.526752     -1.396773     -2.771820
  C      -2.705955     -2.892024     -3.104485
  C      -1.177225     -0.875464     -3.308459
  C      -3.696210     -0.552940     -3.317999
  C       0.679972      1.602660      1.090320
  C       1.666820      1.347133      3.414108
  C       3.056925      2.313690      1.528372
  H      -4.046196     -1.752891      0.467425
  H       3.453457     -1.006815     -0.387463
  H      -1.890661     -3.503643     -2.668948
  H      -2.682517     -3.023495     -4.206299
  H      -3.672872     -3.281759     -2.730658
  H      -0.325450     -1.452402     -2.897191
  H      -1.026285      0.192685     -3.056762
  H      -1.162735     -0.976967     -4.413235
  H      -4.672933     -0.916643     -2.943795
  H      -3.703950     -0.617265     -4.425992
  H      -3.590081      0.514566     -3.038620
  H      -0.288752      1.000918      1.586640
  H       0.849414      1.640658     -0.003835
  H       0.212653      2.575194      1.371551
  H       0.861696      0.638592      3.696403
  H       1.359959      2.369074      3.722785
  H       2.573168      1.063222      3.983190
  H       3.279894      2.289420      0.444408
  H       3.990118      2.067357      2.073767
  H       2.757969      3.345999      1.810263
  Si      5.295940     -3.196925      0.049974
  C       6.467465     -1.960793      0.864455
  C       4.352725     -4.199180      1.338467
  C       6.200217     -4.305110     -1.195634
  H       5.873160     -1.312523      1.541212
  H       6.991571     -1.327780      0.119469
  H       7.235337     -2.486830      1.469148
  H       3.619129     -4.887279      0.871690
  H       3.812911     -3.495086      2.004617
  H       5.049995     -4.803904      1.955046
  H       5.501134     -5.008856     -1.692230
  H       6.980504     -4.907446     -0.684824
  H       6.698559     -3.704760     -1.984349
  H       4.270191     -2.406061     -0.761904
