26
Coordinates from ORCA-job my_molecule_im1 E -1757.326569396268
  O          -1.83993411184529      0.44738207006475      1.61845049906564
  Si         -0.37907720211118      0.52105983788928      2.46154373655602
  Si         -3.43970216932149      0.11394476833585      2.01003145531402
  C           0.89935296717781      1.51808004436634      1.52821738788307
  C           2.12163906416232      1.04620020852172      1.19222164784784
  H           0.66754462606498      2.57165081941817      1.28820458401102
  H           2.87401687208905      1.67853435158728      0.69066807177559
  H           2.42616088466519      0.00670037765026      1.40198729109909
  Si          0.81029123640146     -1.80643569384863     -1.18275246831773
  O          -0.40631335246787     -0.68945524009330     -1.00809810739857
  O           1.97320697157441     -1.25603686053822     -2.23121835008787
  Si          3.10267898907787     -0.17152262331815     -2.80271707074133
  Si         -1.81747502482383     -0.06643083350705     -1.66340288652979
  H           1.40742506836929     -2.01908173596477      0.17450336008883
  H          -3.85574947088571      0.89670409368949      3.22682612430024
  H          -0.66913727410835      1.19331315305369      3.78180804941057
  H          -3.62894136533489     -1.35305164804842      2.29036895332532
  H           0.15046895234834     -0.86486576074207      2.71573436432431
  H          -1.81745344956985     -0.25450475288694     -3.15910190433222
  H          -3.01073458644041     -0.78642181695436     -1.10162847434665
  H          -1.90083450827322      1.39762628918204     -1.35431841604474
  H           2.53670922889540      1.22179861906300     -2.86412794183094
  H           4.31661023260105     -0.16941778265143     -1.91278293624996
  H           3.49959252482599     -0.60581783653126     -4.18321309677628
  H           0.27215569502702     -3.08087054001262     -1.76022379705985
  H          -4.29250079809812      0.51091849227533      0.84301992471436
