26
Coordinates from ORCA-job my_molecule_im2 E -1757.323684171283
  O          -1.79655810121890      0.29459337512938      1.63407141213138
  Si         -0.41835014273981      0.59160143261318      2.57117690437257
  Si         -3.34860764027446     -0.24604435596343      2.00214196663266
  C           0.90760360250322      1.52577496255594      1.63734144731729
  C           2.13448542081635      1.03051802142692      1.33791679332173
  H           0.70958923568963      2.58049370090554      1.37993415668010
  H           2.90271681136793      1.64609477404262      0.84321796978573
  H           2.42052101505169     -0.00963912294119      1.56090922967718
  Si          0.74610824804315     -1.55419595328493     -1.07641665610111
  O          -0.37427478697378     -0.36243869477107     -1.32410747245877
  O           2.10168057316257     -1.25888702872660     -1.98285888060162
  Si          3.13901620578463     -0.42029805676791     -2.97865733779481
  Si         -1.83500636779363      0.26802989598275     -1.82105970371230
  H           1.13690149317920     -1.54571699450050      0.36485410175382
  H          -4.01513173260645      0.67081635477595      2.99162026660057
  H          -0.85332339193241      1.43623320442754      3.74398184514447
  H          -3.30582006546161     -1.63409174069181      2.58381552835344
  H           0.12880456109032     -0.72124409230840      3.06599027782965
  H          -1.85723257323165      0.35467496479521     -3.32345490768689
  H          -2.97431891653516     -0.60791142521890     -1.38026677989444
  H          -1.98779280039662      1.64300738951878     -1.24335657176157
  H           2.66763452457861      0.99140836946067     -3.20407228023957
  H           4.49795025269892     -0.39346154314025     -2.33717150842095
  H           3.22911614967428     -1.12322087896094     -4.30346642989439
  H           0.18905353174115     -2.88716171907896     -1.47555103387021
  H          -4.14476510621716     -0.26893483927959      0.73346766283606
