26
Coordinates from ORCA-job my_molecule_im8 E -1757.326444156346
  O          -1.67442636143218     -0.02743287914588      1.57713273095962
  Si         -0.47282460016312      0.56603327766799      2.61727012879817
  Si         -3.14979088744149     -0.77926293413275      1.87913706514013
  C           0.83746893442599      1.26884026063898      1.44968187926237
  C           2.00086041162507      0.36583033188827      0.99626449692817
  H           1.06578412529110      2.33908517552006      1.66910172694194
  H           2.92422336571495      0.97502188915329      0.83501797388231
  H           2.29982696146703     -0.42688488904010      1.72103238977932
  Si          1.03189531788103     -0.57691738216537     -0.63426469377380
  O          -0.25786245122779     -0.06003270353894     -1.66349864607634
  O           2.26701779247920     -0.86888066317239     -1.68200199217261
  Si          3.07397219587043     -0.73425985490443     -3.12303907645746
  Si         -1.83083039168579      0.49551768068670     -1.99543309725243
  H           0.25867395935221      1.29529792161251      0.49472142698054
  H          -4.16300332887880      0.23661700145297      2.33078102743997
  H          -1.07764928495252      1.61769856535683      3.51807322999344
  H          -2.97664462164029     -1.81698251861281      2.95373759295712
  H           0.03107179749817     -0.58293146870269      3.45277331324985
  H          -2.01816933072415      0.84027424918899     -3.46231283241105
  H          -2.92579090678684     -0.49691991417547     -1.66176348937624
  H          -2.07675979380639      1.74470424701767     -1.19834590200541
  H           2.80029115666331      0.59842377305587     -3.76154519103490
  H           4.53255278932927     -0.86301555456568     -2.80508180092412
  H           2.65076127377236     -1.83997186412496     -4.04381784562607
  H           0.46363022998529     -1.84434889451382     -0.07460282473779
  H          -3.61427835261606     -1.42550285244482      0.61098240953528
