26
Coordinates from ORCA-job my_molecule_im6 E -1757.255642745541
  O          -1.65756954330708     -0.01334354618229      1.57656316956246
  Si         -0.45404139023591      0.55214309070177      2.62700775310193
  Si         -3.13847461988665     -0.77010397853693      1.87591246839861
  C           1.02109059085565      1.25782312132719      1.68459271679544
  C           2.19147377120261      0.56704750374915      1.43536198947369
  H           1.01852859365114      2.35483724470844      1.55659394590469
  H           3.04039199114434      1.06147629935775      0.95798921715061
  H           2.33055605941584     -0.46992188468156      1.74161742054500
  Si          0.76304895897571     -0.46638950095853     -0.78782341949928
  O          -0.39958077855461     -0.20539211087428     -1.94732031535851
  O           2.20528775729114     -0.77584069340362     -1.61124680991258
  Si          3.04132818991249     -0.71518823577112     -3.07556643618865
  Si         -1.90985342644913      0.49711076087774     -2.06278313680758
  H           0.43408401855365      0.84568257423070      0.14224224008131
  H          -4.15697535880997      0.24021282719163      2.33019759472123
  H          -1.06459917953933      1.61453323041234      3.51286315263055
  H          -2.97048636508152     -1.81110248999308      2.95047127607392
  H           0.02074294598380     -0.60455441657424      3.45914402672939
  H          -2.09056151838345      0.87633901629011     -3.50261787153728
  H          -2.98039862316879     -0.48540421395235     -1.66990886965659
  H          -2.05644284468848      1.72911059293078     -1.20241140638289
  H           2.79880916400606      0.60042579739914     -3.75676658982971
  H           4.50649771555991     -0.86299783581313     -2.77845171531072
  H           2.63428981046873     -1.83048811694422     -4.00256898174228
  H           0.48143575204978     -1.76587267430280     -0.06344008743010
  H          -3.60858167096592     -1.42014236118857      0.61034866848732
