26
Coordinates from ORCA-job my_molecule_initial_path E   0.000000000000
  O      -1.845706      0.529372      1.580749
  Si     -0.340506      0.389943      2.325301
  Si     -3.470566      0.551388      1.998738
  C       0.909653      1.476454      1.453733
  C       2.144539      1.054214      1.112262
  H       0.641324      2.531734      1.255479
  H       2.890276      1.724486      0.649950
  H       2.472343      0.013198      1.284131
  Si      0.908505     -1.997946     -1.356688
  O      -0.432876     -1.131278     -0.878286
  O       1.860444     -1.113469     -2.400156
  Si      2.996650      0.104653     -2.566457
  Si     -1.848984     -0.505833     -1.539255
  H       1.677416     -2.327971     -0.112517
  H      -3.656991      1.235870      3.328365
  H      -0.505750      0.847380      3.755385
  H      -4.017915     -0.847344      2.090754
  H       0.137438     -1.035406      2.318523
  H      -1.978320     -0.963651     -2.970224
  H      -3.032398     -1.018605     -0.770411
  H      -1.815201      0.993246     -1.507057
  H       2.340649      1.455571     -2.484937
  H       4.047325      0.002807     -1.491416
  H       3.649507     -0.050373     -3.909342
  H       0.484582     -3.226418     -2.103731
  H      -4.215440      1.307978      0.937107
26
Coordinates from ORCA-job my_molecule_initial_path E   0.000000000000
  O      -1.850264      0.463285      1.590575
  Si     -0.365649      0.485556      2.391591
  Si     -3.466339      0.234554      1.988534
  C       0.911743      1.483803      1.471211
  C       2.131458      1.027477      1.056379
  H       0.746858      2.576554      1.413376
  H       2.882119      1.672248      0.567779
  H       2.523185      0.065593      1.429191
  Si      0.841202     -1.861341     -1.249886
  O      -0.402491     -0.815092     -0.963838
  O       1.888962     -1.154437     -2.309713
  Si      3.058885     -0.040742     -2.712152
  Si     -1.809421     -0.205176     -1.643654
  H       1.529201     -2.197209      0.224992
  H      -3.809859      1.000839      3.242174
  H      -0.618434      1.077930      3.761368
  H      -3.803352     -1.215778      2.199820
  H       0.148147     -0.909126      2.606733
  H      -1.901445     -0.488734     -3.120146
  H      -2.961981     -0.909256     -0.985400
  H      -1.822960      1.277301     -1.429424
  H       2.473570      1.339436     -2.748462
  H       4.185271     -0.154393     -1.725602
  H       3.504876     -0.452988     -4.087157
  H       0.342053     -3.117970     -1.896269
  H      -4.355335      0.817667      0.927981
26
Coordinates from ORCA-job my_molecule_initial_path E   0.000000000000
  O      -1.858618      0.384917      1.594526
  Si     -0.408438      0.570674      2.444732
  Si     -3.437889     -0.056730      1.971289
  C       0.915673      1.479605      1.500535
  C       2.139132      0.992725      1.064264
  H       0.864846      2.584191      1.569990
  H       2.873692      1.602675      0.510425
  H       2.591310      0.141414      1.601209
  Si      0.762815     -1.703540     -1.195456
  O      -0.357945     -0.512545     -1.076475
  O       1.953575     -1.166246     -2.176396
  Si      3.109327     -0.201594     -2.866424
  Si     -1.777772      0.083527     -1.723245
  H       1.376729     -2.000039      0.488218
  H      -3.948509      0.803081      3.106097
  H      -0.769037      1.289688      3.732997
  H      -3.591915     -1.502882      2.357228
  H       0.144529     -0.749336      2.904833
  H      -1.844122     -0.019802     -3.223535
  H      -2.891980     -0.778964     -1.205017
  H      -1.858805      1.521451     -1.316947
  H       2.583949      1.191089     -3.021837
  H       4.317748     -0.338875     -1.989324
  H       3.317394     -0.845450     -4.211794
  H       0.236610     -2.996845     -1.733178
  H      -4.442298      0.227812      0.893286
26
Coordinates from ORCA-job my_molecule_initial_path E   0.000000000000
  O      -1.878444      0.328646      1.609519
  Si     -0.462707      0.642356      2.497801
  Si     -3.399333     -0.319932      1.948620
  C       0.942515      1.463743      1.578393
  C       2.206152      0.994137      1.180693
  H       0.965865      2.564192      1.726828
  H       2.891210      1.533197      0.506557
  H       2.695008      0.193682      1.759484
  Si      0.689709     -1.546410     -1.254781
  O      -0.321862     -0.267734     -1.226676
  O       2.058749     -1.140823     -2.026808
  Si      3.135141     -0.378955     -3.017488
  Si     -1.764903      0.339815     -1.782586
  H       1.177031     -1.633374      0.631066
  H      -4.105722      0.635956      2.886581
  H      -0.929973      1.460306      3.693093
  H      -3.399585     -1.693107      2.575722
  H       0.104010     -0.590337      3.160495
  H      -1.820225      0.414035     -3.285083
  H      -2.858212     -0.610526     -1.406936
  H      -1.891222      1.703564     -1.186413
  H       2.664733      1.013147     -3.292801
  H       4.431998     -0.534947     -2.280754
  H       3.096158     -1.219702     -4.268669
  H       0.171802     -2.908114     -1.562291
  H      -4.397894     -0.442813      0.836433
26
Coordinates from ORCA-job my_molecule_initial_path E   0.000000000000
  O      -1.936235      0.305984      1.678489
  Si     -0.508968      0.694600      2.565703
  Si     -3.383598     -0.524543      1.933256
  C       1.040844      1.460993      1.759562
  C       2.389628      1.068501      1.451386
  H       1.048314      2.564270      1.877884
  H       2.972194      1.482475      0.610834
  H       2.787721      0.116382      1.839887
  Si      0.672452     -1.472018     -1.381327
  O      -0.359560     -0.218760     -1.544570
  O       2.177316     -1.161495     -1.932127
  Si      3.134056     -0.542881     -3.123322
  Si     -1.806213      0.503283     -1.844535
  H       0.882326     -0.818564      0.492790
  H      -4.257090      0.473080      2.658641
  H      -1.035988      1.556210      3.687314
  H      -3.263854     -1.791754      2.751425
  H       0.054222     -0.529021      3.275812
  H      -1.863020      0.716728     -3.334792
  H      -2.895639     -0.468226     -1.528874
  H      -1.903499      1.787606     -1.097915
  H       2.713701      0.839086     -3.507998
  H       4.497041     -0.708219     -2.516875
  H       2.919434     -1.502205     -4.269419
  H       0.162658     -2.857238     -1.287046
  H      -4.238241     -0.974276      0.785819
26
Coordinates from ORCA-job my_molecule_initial_path E   0.000000000000
  O      -1.934901      0.218209      1.730953
  Si     -0.497883      0.668553      2.590707
  Si     -3.369636     -0.621402      1.923595
  C       1.157109      1.464027      1.977054
  C       2.501944      1.003939      1.609051
  H       1.137251      2.571944      1.982802
  H       3.115488      1.431724      0.790396
  H       2.670759     -0.082409      1.737649
  Si      0.724136     -1.383344     -1.167742
  O      -0.464063     -0.412366     -1.826049
  O       2.218969     -1.213646     -1.835402
  Si      3.105250     -0.632652     -3.124012
  Si     -1.845125      0.529367     -1.905716
  H       0.670106      0.352143      0.094321
  H      -4.301878      0.387594      2.551548
  H      -1.049228      1.558019      3.673868
  H      -3.190321     -1.835430      2.803971
  H       0.064985     -0.595114      3.202489
  H      -1.913516      0.820759     -3.381611
  H      -2.945427     -0.428992     -1.573198
  H      -1.986620      1.803241     -1.129902
  H       2.741157      0.737401     -3.611213
  H       4.505594     -0.790908     -2.603995
  H       2.828836     -1.624286     -4.228014
  H       0.187741     -2.748853     -1.042375
  H      -4.130728     -1.177516      0.760826
26
Coordinates from ORCA-job my_molecule_initial_path E   0.000000000000
  O      -1.808658      0.065270      1.605143
  Si     -0.479290      0.629615      2.522731
  Si     -3.269676     -0.719691      1.869496
  C       1.122124      1.399302      1.903631
  C       2.380985      0.784116      1.467821
  H       1.291702      2.461054      2.182809
  H       3.146580      1.195650      0.788764
  H       2.428333     -0.309608      1.564332
  Si      0.794788     -1.066507     -0.804132
  O      -0.407272     -0.256528     -1.637891
  O       2.190668     -1.060056     -1.696077
  Si      3.039461     -0.721234     -3.090791
  Si     -1.842693      0.551797     -1.911307
  H       0.597693      1.376301     -0.054020
  H      -4.267073      0.288522      2.382568
  H      -1.089288      1.563612      3.552379
  H      -3.110752     -1.856634      2.853409
  H       0.039234     -0.578736      3.275440
  H      -1.876375      0.835257     -3.388086
  H      -2.913223     -0.440927     -1.596685
  H      -2.172884      1.822908     -1.177677
  H       2.740087      0.611028     -3.711593
  H       4.468262     -0.915385     -2.671948
  H       2.662115     -1.774303     -4.100686
  H       0.266864     -2.477637     -0.844385
  H      -3.931713     -1.407187      0.716756
26
Coordinates from ORCA-job my_molecule_initial_path E   0.000000000000
  O      -1.699800     -0.034534      1.524207
  Si     -0.507270      0.650872      2.517895
  Si     -3.132208     -0.882149      1.780735
  C       1.014865      1.384224      1.731831
  C       2.058553      0.545074      1.079273
  H       1.435970      2.232598      2.314921
  H       2.983656      1.029163      0.710684
  H       2.320759     -0.374676      1.627264
  Si      0.883974     -0.805026     -0.638758
  O      -0.261716      0.075949     -1.461386
  O       2.219137     -0.915439     -1.613114
  Si      2.952628     -0.859585     -3.100966
  Si     -1.760186      0.668354     -1.863519
  H       0.503495      2.025498      0.160102
  H      -4.249971      0.071244      2.109947
  H      -1.188557      1.666091      3.409407
  H      -2.999687     -1.894154      2.896313
  H      -0.013017     -0.458111      3.427333
  H      -1.801099      0.967000     -3.336954
  H      -2.799730     -0.374703     -1.596339
  H      -2.195771      1.897254     -1.117010
  H       2.685529      0.426966     -3.822810
  H       4.401881     -1.117334     -2.806854
  H       2.408049     -1.989246     -3.933581
  H       0.292655     -2.194984     -0.626739
  H      -3.552138     -1.740349      0.628117
26
Coordinates from ORCA-job my_molecule_initial_path E   0.000000000000
  O      -1.608774     -0.109346      1.488155
  Si     -0.572580      0.715097      2.540586
  Si     -2.954382     -1.107366      1.653782
  C       0.911935      1.443589      1.664952
  C       1.869043      0.493919      0.967205
  H       1.449295      2.108835      2.379942
  H       2.791446      0.994043      0.600110
  H       2.207087     -0.326811      1.633662
  Si      0.948480     -0.589505     -0.608473
  O      -0.116089      0.399480     -1.415487
  O       2.276702     -0.818943     -1.580768
  Si      2.819283     -1.079818     -3.130448
  Si     -1.666268      0.868461     -1.794928
  H       0.439995      2.240544      0.552925
  H      -4.206747     -0.283032      1.773408
  H      -1.350827      1.791382      3.255430
  H      -2.840540     -1.988729      2.873311
  H      -0.095070     -0.278135      3.577735
  H      -1.727176      1.250254     -3.247494
  H      -2.658070     -0.238176     -1.582588
  H      -2.111098      2.038190     -0.963661
  H       2.588348      0.128149     -3.990378
  H       4.276001     -1.411341     -2.987451
  H       2.086760     -2.258545     -3.712893
  H       0.288796     -1.927711     -0.442345
  H      -3.045550     -2.054486      0.495710
26
Coordinates from ORCA-job my_molecule_initial_path E   0.000000000000
  O      -1.534183     -0.161572      1.457905
  Si     -0.655427      0.778077      2.555464
  Si     -2.735361     -1.340383      1.517755
  C       0.818620      1.511070      1.640426
  C       1.739388      0.506180      0.917885
  H       1.389508      2.095324      2.398322
  H       2.645279      1.021953      0.528867
  H       2.120992     -0.269387      1.619227
  Si      1.013629     -0.376345     -0.585776
  O       0.001019      0.660409     -1.422811
  O       2.319159     -0.736896     -1.570563
  Si      2.652392     -1.311763     -3.109182
  Si     -1.585570      1.093015     -1.729275
  H       0.424736      2.261973      0.921104
  H      -4.093036     -0.697781      1.438135
  H      -1.527025      1.875822      3.108140
  H      -2.634372     -2.116892      2.805047
  H      -0.208044     -0.104915      3.694716
  H      -1.660253      1.609284     -3.138623
  H      -2.514697     -0.084574     -1.594446
  H      -2.023883      2.183723     -0.790627
  H       2.439244     -0.236267     -4.139388
  H       4.089793     -1.745147     -3.137564
  H       1.773072     -2.488972     -3.445906
  H       0.290808     -1.659465     -0.292086
  H      -2.545790     -2.266472      0.353252
