26
Coordinates from ORCA-job my_molecule_im5 E -1757.301588507727
  O          -1.62386718525340      0.00861753576395      1.57752755968183
  Si         -0.44260029675603      0.55754340178694      2.67470366128370
  Si         -3.11086932434308     -0.75030861621486      1.87317369794502
  C           1.08047117675352      1.33649263060420      1.88724242463130
  C           2.22789442398386      0.66525661244754      1.58432707068474
  H           1.04528634445861      2.41474255944853      1.66066303074071
  H           3.05505839644948      1.14771447903571      1.04588059725281
  H           2.32007570838746     -0.42373757698830      1.72340592598238
  Si          0.68110869552335     -0.55544326111930     -0.90580351729694
  O          -0.47336210257526     -0.30969229354543     -2.08087712733741
  O           2.17870388258651     -0.77799728541940     -1.61710144373264
  Si          3.03007527649658     -0.71621704425214     -3.06503840627582
  Si         -1.94767910799258      0.48460466544340     -2.10589388945737
  H           0.54771677564359      0.67070110073081     -0.08868204238568
  H          -4.13968118043761      0.25016536500882      2.33126825808629
  H          -1.08718559206623      1.60225987090294      3.54605760387297
  H          -2.95587204807703     -1.79952742379012      2.94389551492011
  H           0.01187462396562     -0.63130515937867      3.47285797445142
  H          -2.14591866443345      0.90586854174689     -3.52695267101735
  H          -3.02689338963438     -0.46979417952026     -1.68054812571628
  H          -2.01706208594315      1.70199913207292     -1.20956053486755
  H           2.79793714163792      0.60377473497529     -3.75281552923401
  H           4.49869077686465     -0.86235179181145     -2.76181555914380
  H           2.63358811786902     -1.82962138661505     -4.00337311194314
  H           0.45390152155645     -1.82233299105454     -0.13280130159705
  H          -3.59139188466442     -1.40141162025841      0.61025994047175
