26
Coordinates from ORCA-job my_molecule_im3 E -1757.319186169157
  O          -1.71757541075795      0.17222768598086      1.62510874576221
  Si         -0.43619459072423      0.60989561240241      2.65031538099029
  Si         -3.22757357582886     -0.50815590278530      1.95789095980838
  C           0.96672089113164      1.52331389533800      1.79982858971963
  C           2.18143200159541      0.99285321171856      1.51087536613551
  H           0.82259668859686      2.59619912381584      1.58682461870295
  H           2.98722653190230      1.59045688710347      1.05727036162144
  H           2.41515701004037     -0.07122329924755      1.67808615436065
  Si          0.69272033611831     -1.24814311388076     -1.04208758382574
  O          -0.39877470483852     -0.26548586876589     -1.81299965748685
  O           2.16985251110772     -1.12848575604966     -1.79505692052981
  Si          3.11078439460907     -0.61407442674678     -3.07498185218787
  Si         -1.89364605714037      0.45348444339663     -1.99100086476733
  H           0.87732631423317     -0.80007287516080      0.35606797587599
  H          -4.11711216109461      0.47331835288220      2.67388931715149
  H          -0.99720013942334      1.54110009502306      3.69501758781134
  H          -3.08212251762846     -1.73646657522583      2.81872168765749
  H           0.08394170611551     -0.64613805211587      3.29841466563955
  H          -2.05468494849802      0.77801370781890     -3.44789977107768
  H          -2.99336560443623     -0.48246679842605     -1.56968008365968
  H          -1.98630468963368      1.71924769922096     -1.18580467750489
  H           2.74579191345031      0.78610781204354     -3.48869287291985
  H           4.54423771056369     -0.64013367410180     -2.62571387912781
  H           2.94716390376970     -1.53069321812386     -4.25656449231695
  H           0.22955225638519     -2.66974095506417     -1.07751193983640
  H          -3.86994976961498     -0.89493801105012      0.65968318400394
