26
Coordinates from ORCA-job my_molecule_product E -1757.381910486321
  O      -1.493501      0.027503      1.543858
  Si     -0.655787      1.057826      2.590991
  Si     -2.657657     -1.183468      1.663686
  C       0.804153      1.781712      1.646527
  C       1.763434      0.765558      0.993142
  H       1.348481      2.427867      2.373074
  H       2.656681      1.285926      0.581651
  H       2.161869      0.045646      1.742801
  Si      1.081312     -0.227586     -0.461165
  O       0.045019      0.724530     -1.366978
  O       2.407617     -0.603853     -1.411715
  Si      2.774696     -1.258478     -2.910263
  Si     -1.551186      1.086853     -1.712279
  H       0.394488      2.475657      0.880333
  H      -4.033915     -0.590278      1.534911
  H      -1.566771      2.158227      3.069946
  H      -2.545507     -1.878952      2.995595
  H      -0.193128      0.258421      3.784575
  H      -1.627292      1.516211     -3.150417
  H      -2.443929     -0.110052     -1.515887
  H      -2.033686      2.216486     -0.844001
  H       2.536979     -0.254293     -4.005016
  H       4.225630     -1.645064     -2.900950
  H       1.937538     -2.482153     -3.182674
  H       0.396382     -1.513551     -0.097482
  H      -2.427352     -2.170186      0.557788
26
Coordinates from ORCA-job my_molecule_product E -1757.381910586156
  O      -1.493242      0.026873      1.544175
  Si     -0.655874      1.057741      2.591033
  Si     -2.657371     -1.184082      1.664170
  C       0.803859      1.781755      1.646377
  C       1.763183      0.765615      0.993046
  H       1.348215      2.427999      2.372819
  H       2.656424      1.286030      0.581606
  H       2.161643      0.045728      1.742710
  Si      1.081154     -0.227522     -0.461288
  O       0.045240      0.724717     -1.367373
  O       2.407521     -0.604092     -1.411631
  Si      2.774608     -1.258505     -2.910250
  Si     -1.550880      1.087398     -1.712619
  H       0.394086      2.475574      0.880136
  H      -4.033653     -0.591077      1.534746
  H      -1.567206      2.157993      3.069676
  H      -2.545430     -1.879030      2.996387
  H      -0.192847      0.258821      3.784789
  H      -1.627090      1.516281     -3.150891
  H      -2.443925     -0.109182     -1.515543
  H      -2.032953      2.217432     -0.844605
  H       2.538511     -0.253547     -4.004675
  H       4.225126     -1.646645     -2.900459
  H       1.936231     -2.481160     -3.183465
  H       0.395965     -1.513350     -0.097579
  H      -2.426727     -2.171256      0.558758
