26
Coordinates from ORCA-job my_molecule_im0 E -1757.328557421627
  O          -1.84570554652676      0.52937237359544      1.58074923258355
  Si         -0.34050625625262      0.38994280087032      2.32530077486158
  Si         -3.47056557384803      0.55138846819377      1.99873827604175
  C           0.90965263066132      1.47645384136016      1.45373262450293
  C           2.14453917570926      1.05421404011773      1.11226168871216
  H           0.64132379913508      2.53173405526190      1.25547904487250
  H           2.89027560650475      1.72448580141180      0.64994987274244
  H           2.47234310677402      0.01319796681601      1.28413133006427
  Si          0.90850482062318     -1.99794556720513     -1.35668777816705
  O          -0.43287590052363     -1.13127812888835     -0.87828571246872
  O           1.86044436244168     -1.11346926922735     -2.40015608422612
  Si          2.99665007950429      0.10465289368421     -2.56645693810869
  Si         -1.84898351112822     -0.50583307918671     -1.53925518296012
  H           1.67741552440756     -2.32797114620284     -0.11251743334587
  H          -3.65699088328121      1.23587022015340      3.32836465554228
  H          -0.50575030722504      0.84738000805328      3.75538499557508
  H          -4.01791453893722     -0.84734388017102      2.09075406701629
  H           0.13743827808010     -1.03540596014207      2.31852340166918
  H          -1.97831992117222     -0.96365131359960     -2.97022377062607
  H          -3.03239778447901     -1.01860456836977     -0.77041099805411
  H          -1.81520104947531      0.99324565667990     -1.50705695813283
  H           2.34064934321542      1.45557149582143     -2.48493744185665
  H           4.04732459865580      0.00280672606603     -1.49141596253661
  H           3.64950708669861     -0.05037288229371     -3.90934235489150
  H           0.48458240577213     -3.22641819429853     -2.10373054962401
  H          -4.21543954533392      1.30797764149969      0.93710720081436
