26
Coordinates from ORCA-job my_molecule_im7 E -1757.251731169699
  O          -1.66276692376318     -0.01760057946992      1.57432045651156
  Si         -0.46387929113526      0.55995674299573      2.62826349096624
  Si         -3.14029162039239     -0.77231477158304      1.87759897178972
  C           0.88119915002295      1.25899127931847      1.51064910664468
  C           2.12912695547853      0.45351275064719      1.20845988046093
  H           1.02102692125743      2.35765065221878      1.59294910136960
  H           3.02493686498898      1.04193159438567      0.93870464642288
  H           2.34690265441156     -0.46387966975985      1.77376933232834
  Si          0.91627133464615     -0.53377189999993     -0.71400532424326
  O          -0.34168675664502     -0.15164092045767     -1.83760920074369
  O           2.22858093472105     -0.81860558722590     -1.66062909147007
  Si          3.05453602009216     -0.72300198281360     -3.09752658275069
  Si         -1.89674889481075      0.49829416105625     -2.04666580075914
  H           0.38549215029885      1.07094595811318      0.39474184991685
  H          -4.15855630780669      0.23943892055213      2.32982132311296
  H          -1.07097235070638      1.61465477897934      3.51563109918809
  H          -2.97140077791418     -1.81279001467693      2.95142344730150
  H           0.02394613782636     -0.59834510907711      3.45827819036794
  H          -2.07757171829063      0.86707338377554     -3.49350464470877
  H          -2.96993179321647     -0.48717431946404     -1.67151090902656
  H          -2.06076640912351      1.73056133650300     -1.20445647491403
  H           2.79942483656382      0.60378961766546     -3.76208183952757
  H           4.51768965056057     -0.86316486078645     -2.78466810642371
  H           2.63792318947729     -1.83676960115700     -4.01927739096602
  H           0.45628704305727     -1.79612182263534     -0.07269507000759
  H          -3.60877099959851     -1.42162003710395      0.61001953915983
